TITLE="results for TO code"
VARIABLES = "x", "y", "z", "density", "sigmaxx", "sigmayy", "sigmazz", "sigmaxy", "sigmaxz", "sigmayz"
ZONE T="load step 1", NODES= 12221, ELEMENTS= 10000, DATAPACKING=POINT, ZONETYPE=FEBRICK
               0.00000000                0.00000000                0.00000000                1.00000000                0.00000000               -0.00000000                1.83466287                0.00000000                0.53498297                1.10012658
               1.00000000                0.00000000                0.00000000                1.00000000                0.00000000                0.00000000                1.26007299               -0.00000000                0.02993163                0.74792476
               2.00000000                0.00000000                0.00000000                1.00000000                0.00000000               -0.00000000                0.66883091               -0.00000000               -0.16152955                0.37975804
               3.00000000                0.00000000                0.00000000                1.00000000               -0.00000000                0.00000000                0.14498106               -0.00000000               -0.14557520                0.08645893
               4.00000000                0.00000000                0.00000000                1.00000000               -0.00000000                0.00000000               -0.01396037               -0.00000000               -0.03214046               -0.00751039
               5.00000000                0.00000000                0.00000000                1.00000000               -0.00000000               -0.00000000               -0.00586425                0.00000000                0.00172450               -0.00513335
               6.00000000                0.00000000                0.00000000                1.00000000               -0.00000000                0.00000000               -0.01410383                0.00000000               -0.00439038               -0.00156524
               7.00000000                0.00000000                0.00000000                1.00000000                0.00000000               -0.00000000               -0.08663845               -0.00000000               -0.05324286               -0.09107163
               8.00000000                0.00000000                0.00000000                1.00000000               -0.00000000               -0.00000000               -0.76294543                0.00000000               -0.05053907               -0.47063154
               9.00000000                0.00000000                0.00000000                1.00000000                0.00000000               -0.00000000               -1.56395366                0.00000000                0.24233892               -0.86818222
              10.00000000                0.00000000                0.00000000                1.00000000               -0.00000000                0.00000000               -2.25076050               -0.00000000                0.86672014               -1.20737659
               0.00000000                1.00000000                0.00000000                1.00000000               -0.00000000               -0.00000000                1.48678209               -0.00000000                0.73923507                0.58801368
               1.00000000                1.00000000                0.00000000                1.00000000                0.00000000                0.00000000                0.93256644               -0.00000000                0.26601820                0.36812284
               2.00000000                1.00000000                0.00000000                1.00000000               -0.00000000               -0.00000000                0.40493776                0.00000000                0.05480183                0.12097098
               3.00000000                1.00000000                0.00000000                1.00000000                0.00000000                0.00000000                0.04605876                0.00000000                0.00937338               -0.00665422
               4.00000000                1.00000000                0.00000000                1.00000000                0.00000000               -0.00000000               -0.00113295                0.00000000                0.00452834               -0.01455008
               5.00000000                1.00000000                0.00000000                1.00000000                0.00000000                0.00000000               -0.00089874               -0.00000000                0.00709386               -0.00373384
               6.00000000                1.00000000                0.00000000                1.00000000                0.00000000               -0.00000000               -0.00743468               -0.00000000                0.02324421                0.00378032
               7.00000000                1.00000000                0.00000000                1.00000000               -0.00000000               -0.00000000               -0.00851064                0.00000000                0.06667117               -0.01847856
               8.00000000                1.00000000                0.00000000                1.00000000               -0.00000000                0.00000000               -0.37698815               -0.00000000                0.15340639               -0.15721991
               9.00000000                1.00000000                0.00000000                1.00000000               -0.00000000                0.00000000               -1.08495083                0.00000000                0.45815729               -0.38963884
              10.00000000                1.00000000                0.00000000                1.00000000                0.00000000               -0.00000000               -1.86327015                0.00000000                1.04573035               -0.56913518
               0.00000000                2.00000000                0.00000000                1.00000000                0.00000000               -0.00000000                1.44200052               -0.00000000                0.81513210                0.31044627
               1.00000000                2.00000000                0.00000000                1.00000000                0.00000000               -0.00000000                0.78913142                0.00000000                0.32700294                0.17007061
               2.00000000                2.00000000                0.00000000                1.00000000               -0.00000000                0.00000000                0.17997413               -0.00000000                0.11416616                0.01259254
               3.00000000                2.00000000                0.00000000                1.00000000               -0.00000000               -0.00000000               -0.01656030               -0.00000000                0.04936155               -0.01081622
               4.00000000                2.00000000                0.00000000                1.00000000                0.00000000                0.00000000                0.00355767                0.00000000                0.01973697               -0.00890312
               5.00000000                2.00000000                0.00000000                1.00000000               -0.00000000               -0.00000000               -0.00055118               -0.00000000                0.01272482               -0.00384443
               6.00000000                2.00000000                0.00000000                1.00000000               -0.00000000               -0.00000000               -0.00146326                0.00000000                0.02530333               -0.00302652
               7.00000000                2.00000000                0.00000000                1.00000000               -0.00000000                0.00000000               -0.00004357                0.00000000                0.06407964               -0.01920000
               8.00000000                2.00000000                0.00000000                1.00000000                0.00000000               -0.00000000               -0.06685960                0.00000000                0.15574990               -0.02685784
               9.00000000                2.00000000                0.00000000                1.00000000                0.00000000               -0.00000000               -0.69578446                0.00000000                0.43283456               -0.13476649
              10.00000000                2.00000000                0.00000000                1.00000000               -0.00000000                0.00000000               -1.76179910                0.00000000                1.03994301               -0.20789998
               0.00000000                3.00000000                0.00000000                1.00000000                0.00000000                0.00000000                1.38462140               -0.00000000                0.80996066                0.13493908
               1.00000000                3.00000000                0.00000000                1.00000000               -0.00000000               -0.00000000                0.65481571                0.00000000                0.33483602                0.05488801
               2.00000000                3.00000000                0.00000000                1.00000000               -0.00000000               -0.00000000                0.03973631               -0.00000000                0.15726961               -0.03596653
               3.00000000                3.00000000                0.00000000                1.00000000               -0.00000000               -0.00000000                0.00329237                0.00000000                0.06257560               -0.00957991
               4.00000000                3.00000000                0.00000000                1.00000000                0.00000000               -0.00000000                0.00118081                0.00000000                0.02538918               -0.00449390
               5.00000000                3.00000000                0.00000000                1.00000000               -0.00000000                0.00000000               -0.00000305               -0.00000000                0.01509858               -0.00309592
               6.00000000                3.00000000                0.00000000                1.00000000                0.00000000                0.00000000               -0.00064324               -0.00000000                0.02205582               -0.00531428
               7.00000000                3.00000000                0.00000000                1.00000000               -0.00000000               -0.00000000               -0.00894658               -0.00000000                0.04908072               -0.01156217
               8.00000000                3.00000000                0.00000000                1.00000000               -0.00000000               -0.00000000                0.03153387                0.00000000                0.11955003               -0.02288954
               9.00000000                3.00000000                0.00000000                1.00000000               -0.00000000                0.00000000               -0.41150629                0.00000000                0.32649818               -0.04302622
              10.00000000                3.00000000                0.00000000                1.00000000                0.00000000                0.00000000               -1.57197510               -0.00000000                0.88581927               -0.00651250
               0.00000000                4.00000000                0.00000000                1.00000000                0.00000000               -0.00000000                1.31884917                0.00000000                0.77673874                0.01643181
               1.00000000                4.00000000                0.00000000                1.00000000               -0.00000000                0.00000000                0.51072339                0.00000000                0.32568002               -0.02295107
               2.00000000                4.00000000                0.00000000                1.00000000                0.00000000                0.00000000               -0.07260810                0.00000000                0.17836726               -0.05004259
               3.00000000                4.00000000                0.00000000                1.00000000                0.00000000                0.00000000                0.01272472               -0.00000000                0.06981748               -0.00554955
               4.00000000                4.00000000                0.00000000                1.00000000               -0.00000000               -0.00000000                0.00091745               -0.00000000                0.02677332               -0.00206028
               5.00000000                4.00000000                0.00000000                1.00000000                0.00000000                0.00000000                0.00024104                0.00000000                0.01478974               -0.00212527
               6.00000000                4.00000000                0.00000000                1.00000000               -0.00000000               -0.00000000               -0.00093417                0.00000000                0.01815620               -0.00414589
               7.00000000                4.00000000                0.00000000                1.00000000                0.00000000                0.00000000               -0.00415458                0.00000000                0.04008921               -0.00914947
               8.00000000                4.00000000                0.00000000                1.00000000               -0.00000000               -0.00000000                0.01383883                0.00000000                0.09793773               -0.01626199
               9.00000000                4.00000000                0.00000000                1.00000000                0.00000000                0.00000000               -0.30547166                0.00000000                0.27359738                0.01023504
              10.00000000                4.00000000                0.00000000                1.00000000               -0.00000000               -0.00000000               -1.38554961                0.00000000                0.75302673                0.08371380
               0.00000000                5.00000000                0.00000000                1.00000000               -0.00000000                0.00000000                1.24028157                0.00000000                0.72247675               -0.06900532
               1.00000000                5.00000000                0.00000000                1.00000000               -0.00000000               -0.00000000                0.34270042               -0.00000000                0.29380483               -0.06618385
               2.00000000                5.00000000                0.00000000                1.00000000               -0.00000000               -0.00000000               -0.11731424                0.00000000                0.16603752               -0.03869561
               3.00000000                5.00000000                0.00000000                1.00000000               -0.00000000               -0.00000000                0.01587739                0.00000000                0.06684471               -0.00195781
               4.00000000                5.00000000                0.00000000                1.00000000               -0.00000000                0.00000000                0.00063451                0.00000000                0.02589090               -0.00024992
               5.00000000                5.00000000                0.00000000                1.00000000               -0.00000000               -0.00000000                0.00035365                0.00000000                0.01354572               -0.00121745
               6.00000000                5.00000000                0.00000000                1.00000000                0.00000000               -0.00000000               -0.00054887               -0.00000000                0.01500036               -0.00325779
               7.00000000                5.00000000                0.00000000                1.00000000               -0.00000000               -0.00000000               -0.00352178               -0.00000000                0.03130500               -0.00777960
               8.00000000                5.00000000                0.00000000                1.00000000               -0.00000000               -0.00000000                0.00943320                0.00000000                0.07751903               -0.01366766
               9.00000000                5.00000000                0.00000000                1.00000000                0.00000000               -0.00000000               -0.20804174                0.00000000                0.22232311                0.04554567
              10.00000000                5.00000000                0.00000000                1.00000000                0.00000000                0.00000000               -1.19803305                0.00000000                0.64553696                0.15022972
               0.00000000                6.00000000                0.00000000                1.00000000                0.00000000               -0.00000000                1.13109267                0.00000000                0.64596041               -0.12476508
               1.00000000                6.00000000                0.00000000                1.00000000               -0.00000000               -0.00000000                0.20360406                0.00000000                0.25614116               -0.08360805
               2.00000000                6.00000000                0.00000000                1.00000000               -0.00000000               -0.00000000               -0.11063837                0.00000000                0.14488539               -0.02851279
               3.00000000                6.00000000                0.00000000                1.00000000               -0.00000000                0.00000000                0.01375466                0.00000000                0.06092464               -0.00065059
               4.00000000                6.00000000                0.00000000                1.00000000                0.00000000               -0.00000000                0.00077263                0.00000000                0.02401287                0.00063877
               5.00000000                6.00000000                0.00000000                1.00000000               -0.00000000                0.00000000                0.00039147                0.00000000                0.01209636               -0.00056555
               6.00000000                6.00000000                0.00000000                1.00000000               -0.00000000               -0.00000000               -0.00041285               -0.00000000                0.01209007               -0.00244437
               7.00000000                6.00000000                0.00000000                1.00000000               -0.00000000                0.00000000               -0.00219759                0.00000000                0.02319553               -0.00587713
               8.00000000                6.00000000                0.00000000                1.00000000               -0.00000000               -0.00000000                0.00400494                0.00000000                0.05251219               -0.00944103
               9.00000000                6.00000000                0.00000000                1.00000000               -0.00000000               -0.00000000               -0.11546035                0.00000000                0.14383741                0.05704085
              10.00000000                6.00000000                0.00000000                1.00000000               -0.00000000                0.00000000               -0.88301929               -0.00000000                0.51714623                0.20468758
               0.00000000                7.00000000                0.00000000                1.00000000                0.00000000               -0.00000000                0.99855513               -0.00000000                0.56567172               -0.15692631
               1.00000000                7.00000000                0.00000000                1.00000000               -0.00000000               -0.00000000                0.10477637                0.00000000                0.23067940               -0.08853484
               2.00000000                7.00000000                0.00000000                1.00000000               -0.00000000                0.00000000               -0.11629629                0.00000000                0.13988381               -0.02145171
               3.00000000                7.00000000                0.00000000                1.00000000                0.00000000               -0.00000000                0.01309225                0.00000000                0.05865465                0.00079122
               4.00000000                7.00000000                0.00000000                1.00000000               -0.00000000                0.00000000                0.00068647               -0.00000000                0.02231295                0.00163593
               5.00000000                7.00000000                0.00000000                1.00000000                0.00000000               -0.00000000                0.00040153               -0.00000000                0.01048082               -0.00000511
               6.00000000                7.00000000                0.00000000                1.00000000                0.00000000                0.00000000               -0.00028690                0.00000000                0.00963538               -0.00190596
               7.00000000                7.00000000                0.00000000                1.00000000               -0.00000000               -0.00000000               -0.00123704                0.00000000                0.01771362               -0.00351391
               8.00000000                7.00000000                0.00000000                1.00000000               -0.00000000                0.00000000               -0.00033585               -0.00000000                0.03655059                0.00081320
               9.00000000                7.00000000                0.00000000                1.00000000                0.00000000                0.00000000               -0.04413736                0.00000000                0.08521056                0.06149768
              10.00000000                7.00000000                0.00000000                1.00000000                0.00000000                0.00000000               -0.52658737                0.00000000                0.35324960                0.17769680
               0.00000000                8.00000000                0.00000000                1.00000000               -0.00000000                0.00000000                0.85948118                0.00000000                0.49486455               -0.18941193
               1.00000000                8.00000000                0.00000000                1.00000000               -0.00000000                0.00000000                0.02653018                0.00000000                0.21539977               -0.07879752
               2.00000000                8.00000000                0.00000000                1.00000000               -0.00000000               -0.00000000               -0.15166810                0.00000000                0.15043421               -0.00039627
               3.00000000                8.00000000                0.00000000                1.00000000               -0.00000000                0.00000000                0.01100329               -0.00000000                0.06120017                0.01047809
               4.00000000                8.00000000                0.00000000                1.00000000                0.00000000               -0.00000000                0.00006635                0.00000000                0.02026673                0.00473442
               5.00000000                8.00000000                0.00000000                1.00000000               -0.00000000                0.00000000                0.00052688               -0.00000000                0.00870972                0.00025823
               6.00000000                8.00000000                0.00000000                1.00000000               -0.00000000                0.00000000               -0.00015663                0.00000000                0.00769385               -0.00195733
               7.00000000                8.00000000                0.00000000                1.00000000                0.00000000                0.00000000               -0.00091603               -0.00000000                0.01449751               -0.00345973
               8.00000000                8.00000000                0.00000000                1.00000000               -0.00000000                0.00000000               -0.00146160               -0.00000000                0.03747474                0.00702088
               9.00000000                8.00000000                0.00000000                1.00000000               -0.00000000               -0.00000000               -0.00721088               -0.00000000                0.08109268                0.08177605
              10.00000000                8.00000000                0.00000000                1.00000000               -0.00000000                0.00000000               -0.40126036               -0.00000000                0.27040450                0.14588834
               0.00000000                9.00000000                0.00000000                1.00000000               -0.00000000               -0.00000000                0.69300896               -0.00000000                0.39215215               -0.26705635
               1.00000000                9.00000000                0.00000000                1.00000000                0.00000000               -0.00000000               -0.03637042                0.00000000                0.19211251               -0.04279143
               2.00000000                9.00000000                0.00000000                1.00000000                0.00000000                0.00000000               -0.28470254                0.00000000                0.17087767                0.08440369
               3.00000000                9.00000000                0.00000000                1.00000000                0.00000000               -0.00000000               -0.02462163                0.00000000                0.06934239                0.05040888
               4.00000000                9.00000000                0.00000000                1.00000000                0.00000000                0.00000000                0.00351970               -0.00000000                0.01894927                0.00971283
               5.00000000                9.00000000                0.00000000                1.00000000               -0.00000000                0.00000000                0.00029274               -0.00000000                0.00961876               -0.00083891
               6.00000000                9.00000000                0.00000000                1.00000000                0.00000000               -0.00000000               -0.00005331               -0.00000000                0.00684646               -0.00183870
               7.00000000                9.00000000                0.00000000                1.00000000               -0.00000000                0.00000000               -0.00037762                0.00000000                0.01003561               -0.00560903
               8.00000000                9.00000000                0.00000000                1.00000000               -0.00000000                0.00000000               -0.00407612                0.00000000                0.03553046               -0.00771119
               9.00000000                9.00000000                0.00000000                1.00000000               -0.00000000               -0.00000000                0.08073041               -0.00000000                0.11880631                0.08910951
              10.00000000                9.00000000                0.00000000                1.00000000                0.00000000                0.00000000               -0.45568252                0.00000000                0.26536499                0.20308485
               0.00000000               10.00000000                0.00000000                1.00000000                0.00000000                0.00000000                0.65210116               -0.00000000                0.10536694               -0.44844809
               1.00000000               10.00000000                0.00000000                1.00000000               -0.00000000                0.00000000               -0.07736952                0.00000000               -0.01478325                0.01386469
               2.00000000               10.00000000                0.00000000                1.00000000                0.00000000               -0.00000000               -0.50667440                0.00000000                0.10125418                0.33725581
               3.00000000               10.00000000                0.00000000                1.00000000               -0.00000000                0.00000000               -0.13840703                0.00000000                0.12885923                0.16006068
               4.00000000               10.00000000                0.00000000                1.00000000               -0.00000000               -0.00000000               -0.00008270               -0.00000000                0.05200117                0.02104419
               5.00000000               10.00000000                0.00000000                1.00000000                0.00000000               -0.00000000               -0.00093750                0.00000000                0.01774698                0.00256152
               6.00000000               10.00000000                0.00000000                1.00000000               -0.00000000                0.00000000                0.00082635                0.00000000                0.00938472               -0.00168110
               7.00000000               10.00000000                0.00000000                1.00000000               -0.00000000               -0.00000000                0.00261412               -0.00000000                0.01161195               -0.00794527
               8.00000000               10.00000000                0.00000000                1.00000000                0.00000000               -0.00000000                0.01337178               -0.00000000                0.01526116               -0.02890175
               9.00000000               10.00000000                0.00000000                1.00000000               -0.00000000                0.00000000                0.10536232                0.00000000                0.01131318                0.01894693
              10.00000000               10.00000000                0.00000000                1.00000000                0.00000000               -0.00000000               -0.57378454               -0.00000000                0.07748029                0.38656722
               0.00534983                0.01100127                1.01834663                1.00000000               -0.50505134               -0.51211290                1.78122053               -0.14794972               -0.05334454                0.50188672
               1.00029932                0.00747925                1.01260073                1.00000000               -0.34825626               -0.37980192                1.26454601               -0.12409770               -0.27683849                0.24957499
               1.99838470                0.00379758                1.00668831                0.90796631               -0.08775341               -0.25878706                0.72591416               -0.11440153               -0.39778622                0.02781469
               2.99854425                0.00086459                1.00144981                0.42584090                0.06469454               -0.09311315                0.23407405               -0.03868563               -0.24931087               -0.09234178
               3.99967860               -0.00007510                0.99986040                0.32737433                0.07364985               -0.00703969               -0.04189955               -0.00912734                0.17510118               -0.08920928
               5.00001724               -0.00005133                0.99994136                0.32973149                0.01387504                0.00139951               -0.12902543                0.00834193                0.38939028               -0.07739411
               5.99995610               -0.00001565                0.99985896                0.38799277               -0.02748368                0.00534556               -0.25637121               -0.01533455                0.32623402               -0.06896756
               6.99946757               -0.00091072                0.99913362                0.57626365               -0.02307434                0.07259307               -0.54140225               -0.11461911               -0.06724967               -0.12147967
               7.99949461               -0.00470632                0.99237055                1.00000000                0.14779089                0.31341162               -0.94759347               -0.18460984               -0.35163266               -0.04407217
               9.00242339               -0.00868182                0.98436046                1.00000000                0.45862960                0.47854338               -1.53348234               -0.15255416               -0.15996082               -0.19359083
              10.00866720               -0.01207377                0.97749240                1.00000000                0.62438122                0.63824141               -2.15412326               -0.16018415                0.14991681               -0.51822087
               0.00739235                1.00588014                1.01486782                1.00000000               -0.47321687               -0.39484015                1.57805678               -0.07981628                0.18922566                0.40861103
               1.00266018                1.00368123                1.00932566                1.00000000               -0.34221662               -0.28892708                1.05381629               -0.08498569               -0.00792172                0.16374795
               2.00054802                1.00120971                1.00404938                0.39361448               -0.12832241               -0.18358275                0.56785815               -0.04954067               -0.04441321               -0.06767479
               3.00009373                0.99993346                1.00046059                0.00010000               -0.02513674               -0.04863757                0.18871331                0.02970784                0.14951444               -0.13501905
               4.00004528                0.99985450                0.99998867                0.00010000               -0.00113976               -0.00069637                0.01160707                0.02739890                0.31440284               -0.13809200
               5.00007094                0.99996266                0.99999101                0.00010000                0.00935793                0.00064446               -0.05393510                0.01466536                0.36824010               -0.05575494
               6.00023244                1.00003780                0.99992565                0.00010000                0.02978866               -0.00073064               -0.16878962                0.00747450                0.43177958                0.03897669
               7.00066671                0.99981521                0.99991489                0.00010000                0.06508109                0.03593582               -0.39692279               -0.02183886                0.33309460                0.00738735
               8.00153406                0.99842780                0.99623012                0.86705132                0.19574306                0.22188685               -0.77001601               -0.08243565                0.05908745                0.09125391
               9.00458157                0.99610361                0.98915049                1.00000000                0.44616198                0.36670787               -1.33384742               -0.11070982                0.04553356               -0.02595331
              10.01045730                0.99430865                0.98136730                1.00000000                0.58757307                0.49973830               -1.89280951               -0.09288491                0.26136943               -0.37661776
               0.00815132                2.00310446                1.01442001                1.00000000               -0.48812917               -0.22653730                1.48278260               -0.10501287                0.21553314                0.34474866
               1.00327003                2.00170071                1.00789131                1.00000000               -0.35048297               -0.15661742                0.88775917               -0.11451796                0.03319276                0.11138493
               2.00114166                2.00012593                1.00179974                0.00010000               -0.13882069               -0.07846876                0.30063041               -0.03920952                0.14809214               -0.10160498
               3.00049362                1.99989184                0.99983440                0.00010000               -0.04721460               -0.00146285                0.02658151                0.01585328                0.55484837               -0.17795918
               4.00019737                1.99991097                1.00003558                0.00010000               -0.01831837                0.00502809               -0.01437265                0.01391631                0.64455924               -0.11093713
               5.00012725                1.99996156                0.99999449                0.00010000                0.00278318                0.00031896               -0.07607015                0.00694066                0.62255391               -0.07411112
               6.00025303                1.99996973                0.99998537                0.00010000                0.02567741               -0.00454730               -0.14309788               -0.00827198                0.68656784               -0.02826358
               7.00064080                1.99980800                0.99999956                0.00010000                0.06522329                0.00345819               -0.37532747               -0.02071089                0.80039082                0.02382973
               8.00155750                1.99973142                0.99933140                0.09651507                0.18437746                0.06716519               -0.62730359               -0.07471142                0.43481830                0.10780291
               9.00432835                1.99865234                0.99304216                1.00000000                0.44209655                0.17330631               -1.08249933               -0.15635062                0.07020295                0.05765795
              10.01039943                1.99792100                0.98238201                1.00000000                0.60710845                0.28131134               -1.70339558               -0.15308904                0.08169586               -0.21905844
               0.00809961                3.00134939                1.01384621                1.00000000               -0.47512464               -0.14700723                1.41204553               -0.09924776                0.20561197                0.18771366
               1.00334836                3.00054888                1.00654816                1.00000000               -0.32634552               -0.09651084                0.74128178               -0.08611426                0.06382225                0.00879355
               2.00157270                2.99964033                1.00039736                0.00010000               -0.13613021               -0.03131756                0.06224253               -0.00013341                0.33071863               -0.10855591
               3.00062576                2.99990420                1.00003292                0.00010000               -0.06594022                0.00263334               -0.27475316                0.02596428                0.79723637               -0.19214404
               4.00025389                2.99995506                1.00001181                0.00010000               -0.02373851                0.00342142               -0.03931716                0.00676017                0.81973648               -0.07339967
               5.00015099                2.99996904                0.99999997                0.00010000               -0.00166668                0.00085958               -0.08261195                0.00062227                0.82224450               -0.06474312
               6.00022056                2.99994686                0.99999357                0.00010000                0.01699107               -0.00055968               -0.13862263               -0.00780670                0.83655610               -0.03771732
               7.00049081                2.99988438                0.99991053                0.00010000                0.04874711                0.00502527               -0.15229053               -0.02078285                0.89181619                0.00478577
               8.00119550                2.99977110                1.00031534                0.00010000                0.13870873                0.00529793               -0.61672718               -0.04463811                0.85321184                0.04565104
               9.00326498                2.99956974                0.99588494                1.00000000                0.38313462                0.07250077               -0.72343540               -0.07143007                0.11951016                0.02452245
              10.00885819                2.99993488                0.98428025                1.00000000                0.55932109                0.14580689               -1.54698026               -0.10694442               -0.01934127                0.01097642
               0.00776739                4.00016432                1.01318849                1.00000000               -0.45105872               -0.10197220                1.33173405               -0.08312483                0.16504307                0.07444516
               1.00325680                3.99977049                1.00510723                0.93768341               -0.29918574               -0.06053593                0.60888838               -0.05375279                0.09163069               -0.08022398
               2.00178367                3.99949957                0.99927392                0.00010000               -0.12793127               -0.00136454               -0.13007396                0.01308472                0.49761682               -0.10346751
               3.00069817                3.99994450                1.00012725                0.00010000               -0.07579697                0.00381105               -0.08116304                0.02612570                0.90724079               -0.07767718
               4.00026773                3.99997940                1.00000917                0.00010000               -0.02751387                0.00212199               -0.09138051                0.00196300                0.93523342               -0.06993098
               5.00014790                3.99997875                1.00000241                0.00010000               -0.00430856                0.00093923               -0.08629415               -0.00181923                0.97506020               -0.04566139
               6.00018156                3.99995854                0.99999066                0.00010000                0.01264973                0.00102825               -0.09586547               -0.00703982                0.98561384               -0.01968400
               7.00040089                3.99990851                0.99995845                0.00010000                0.03989077                0.00189129               -0.10031939               -0.01494591                1.01104952                0.00860030
               8.00097938                3.99983738                1.00013839                0.00010000                0.11675408                0.00461094               -0.03773290               -0.01132324                0.81455186                0.09364386
               9.00273597                4.00010235                0.99694528                1.00000000                0.32754450                0.04428595               -0.51931066               -0.00209964                0.19950414                0.01963717
              10.00753027                4.00083714                0.98614450                1.00000000                0.47942935                0.07837111               -1.37803124               -0.04666239                0.00485973                0.12274388
               0.00722477                4.99930995                1.01240282                1.00000000               -0.42867192               -0.07059844                1.23656178               -0.06256769                0.09518227               -0.02337705
               1.00293805                4.99933816                1.00342700                0.73815961               -0.27821961               -0.03032849                0.47588739               -0.01961458                0.14845638               -0.12952549
               2.00166038                4.99961304                0.99882686                0.00010000               -0.11348006                0.01076490               -0.34078220                0.01537209                0.66023280               -0.07173222
               3.00066845                4.99998042                1.00015877                0.00010000               -0.07007331                0.00244948               -0.19544252                0.01477642                1.06851464               -0.11670784
               4.00025891                4.99999750                1.00000635                0.00010000               -0.02664949                0.00134953               -0.12622949               -0.00101005                1.07380143               -0.06060351
               5.00013546                4.99998783                1.00000354                0.00010000               -0.00544527                0.00077986               -0.08648335               -0.00285062                1.10635556               -0.03030209
               6.00015000                4.99996742                0.99999451                0.00010000                0.00887964                0.00085076               -0.05627018               -0.00631413                1.11055399               -0.00822025
               7.00031305                4.99992220                0.99996478                0.00010000                0.03125934                0.00163617                0.00417239               -0.01365178                1.08022439                0.02522408
               8.00077519                4.99986332                1.00009433                0.00010000                0.09550905                0.00341048                0.40234142                0.00394986                0.79249143                0.14482785
               9.00222323                5.00045546                0.99791958                0.91814085                0.28400896                0.02340290               -0.36497083                0.01706871                0.26407545                0.08388741
              10.00645537                5.00150230                0.98801967                1.00000000                0.42321385                0.06048689               -1.26141575               -0.01325620                0.03676932                0.27170599
               0.00645960                5.99875235                1.01131093                1.00000000               -0.38981926               -0.04396050                1.13071973               -0.03724549                0.06103448               -0.11024634
               1.00256141                5.99916392                1.00203604                0.63361757               -0.25053751               -0.01117550                0.31517378                0.01656343                0.22944034               -0.12738976
               2.00144885                5.99971487                0.99889362                0.00010000               -0.09760826                0.00862195               -0.57685242                0.02840188                0.78044008               -0.05622164
               3.00060925                5.99999349                1.00013755                0.00010000               -0.06043626                0.00137452               -0.80852279                0.01048075                1.21052489               -0.10036885
               4.00024013                6.00000639                1.00000773                0.00010000               -0.02441414                0.00094292               -0.14762377               -0.00174646                1.20143674               -0.03395161
               5.00012096                5.99999434                1.00000391                0.00010000               -0.00596140                0.00060617               -0.09070408               -0.00307402                1.21743665               -0.01291454
               6.00012090                5.99997556                0.99999587                0.00010000                0.00554958                0.00067592               -0.01627882               -0.00533828                1.20892618                0.00189575
               7.00023196                5.99994123                0.99997802                0.00010000                0.02021106                0.00213284                0.09313130               -0.01029402                1.13684561                0.03132093
               8.00052512                5.99990559                1.00004005                0.00010000                0.06032094                0.00724043                0.80215412                0.01097477                0.76928524                0.16576469
               9.00143837                6.00057041                0.99884540                0.71831935                0.23231702                0.00797601               -0.24228292                0.03850804                0.37966889                0.13212308
              10.00517146                6.00204688                0.99116981                1.00000000                0.37330882                0.01373354               -1.22430749                0.00150305                0.18890173                0.43674349
               0.00565672                6.99843074                1.00998555                1.00000000               -0.33499232               -0.03232343                1.01387367               -0.00715647                0.06441533               -0.17394636
               1.00230679                6.99911465                1.00104776                0.61098963               -0.21289396                0.00240527                0.15805946                0.04736660                0.28906531               -0.10725882
               2.00139884                6.99978548                0.99883704                0.11116935               -0.08601237                0.01405826               -0.76995614                0.04743744                0.85026779               -0.04021095
               3.00058655                7.00000791                1.00013092                0.00010000               -0.05878543                0.00556434               -1.23488729                0.01168159                1.26470156                0.05204182
               4.00022313                7.00001636                1.00000686                0.00010000               -0.02408691                0.00204783               -0.18042443               -0.00227124                1.28080554                0.00866733
               5.00010481                6.99999995                1.00000402                0.00010000               -0.00633878                0.00041189               -0.10113408               -0.00346427                1.29982764                0.01075909
               6.00009635                6.99998094                0.99999713                0.00010000                0.00361640                0.00024352                0.01609961               -0.00395251                1.28822553                0.00757350
               7.00017714                6.99996486                0.99998763                0.00010000                0.01345761                0.00120870                0.16896135               -0.00298943                1.17911537                0.02331333
               8.00036551                7.00000813                0.99999664                0.00010000                0.03374847                0.00823096                1.16180616                0.02498707                0.74288799                0.14324573
               9.00085211                7.00061498                0.99955863                0.62395536                0.15834950                0.01236760               -0.08243477                0.05706944                0.51948117                0.15676137
              10.00353250                7.00177697                0.99473413                1.00000000                0.26803904               -0.02939962               -1.17518813               -0.00717174                0.39162169                0.38698033
               0.00494865                7.99810588                1.00859481                1.00000000               -0.27946478               -0.05506502                0.88620675                0.02385463                0.06865020               -0.24000558
               1.00215400                7.99921202                1.00026530                0.66596497               -0.17221517                0.02287171                0.04022375                0.07522439                0.31438703               -0.08149563
               2.00150434                7.99999604                0.99848332                0.25860233               -0.07709980                0.05292770               -0.88389031                0.06013474                0.88487391               -0.02214499
               3.00061200                8.00010478                1.00011003                0.00010000               -0.06508374                0.02480883               -1.17440693                0.00790921                1.31657107                0.15003767
               4.00020267                8.00004734                1.00000066                0.00010000               -0.02624523                0.00403845               -0.22493647               -0.00679177                1.29752692                0.08328448
               5.00008710                8.00000258                1.00000527                0.00010000               -0.00628644               -0.00041690               -0.11976980               -0.00377691                1.35546067                0.03704141
               6.00007694                7.99998043                0.99999843                0.00010000                0.00289390                0.00003363                0.04149091               -0.00325344                1.34878352                0.00670254
               7.00014498                7.99996540                0.99999084                0.00010000                0.01489045               -0.00104756                0.22612650                0.00065010                1.21584691                0.00458706
               8.00037475                8.00007021                0.99998538                0.04130501                0.03329758               -0.00426220                1.41481310                0.04210782                0.73185705                0.04949301
               9.00081093                8.00081776                0.99992789                0.66872079                0.11646488                0.01380592                0.11984680                0.08623160                0.55845656                0.18621139
              10.00270405                8.00145888                0.99598740                0.99204937                0.18931182                0.01269402               -0.98310607                0.02016998                0.43205787                0.19756151
               0.00392152                8.99732944                1.00693009                0.99300240               -0.20003963               -0.12951808                0.75208775                0.02951612                0.06261006               -0.26323697
               1.00192113                8.99957209                0.99963630                0.82627612               -0.11063724                0.04633111               -0.04934939                0.06063851                0.24870057               -0.04369418
               2.00170878                9.00084404                0.99715297                0.50383284               -0.06138506                0.16882604               -0.85643292                0.02201014                0.84694357               -0.01503381
               3.00069342                9.00050409                0.99975378                0.00010000               -0.07596420                0.07479129               -1.11056976               -0.00351590                1.27618455                0.19529058
               4.00018949                9.00009713                1.00003520                0.00010000               -0.02986181                0.00815488               -0.26676706               -0.00975668                1.27968997                0.16889270
               5.00009619                8.99999161                1.00000293                0.00010000               -0.00605141                0.00115164               -0.14243817               -0.00125714                1.39766165                0.06423294
               6.00006846                8.99998161                0.99999947                0.00010000                0.00020843                0.00013812                0.05875632               -0.00153962                1.39764626                0.00370727
               7.00010036                8.99994391                0.99999622                0.00010000                0.01434200               -0.00224277                0.27952744               -0.00437903                1.23219464               -0.04038906
               8.00035530                8.99992289                0.99995924                0.21175109                0.05438535               -0.01796132                1.48472057                0.03625249                0.77287385               -0.02860713
               9.00118806                9.00089110                1.00080730                0.91309573                0.11491726               -0.03141456                0.25113105                0.07050827                0.50827656                0.14556259
              10.00265365                9.00203085                0.99544317                0.97871185                0.14655868                0.12033944               -0.69152475                0.01751323                0.23860811                0.09759410
               0.00105367                9.99551552                1.00652101                0.99227215               -0.12015018               -0.18139174                0.65360351                0.17552757               -0.16179242               -0.29238206
               0.99985217               10.00013865                0.99922630                0.96996814               -0.00205638                0.05665612               -0.13293005                0.18595619               -0.03426098               -0.00430163
               2.00101254               10.00337256                0.99493326                0.84533320                0.07182124                0.25285212               -0.89033264                0.00347450                0.64155204                0.07797577
               3.00128859               10.00160061                0.99861593                0.35126197               -0.02462650                0.10965180               -1.25229246               -0.09858897                1.25685730                0.31012262
               4.00052001               10.00021044                0.99999917                0.29769913               -0.05555613                0.01133136               -0.32359763               -0.04569768                1.37703418                0.27603040
               5.00017747               10.00002562                0.99999063                0.31108800               -0.02130823                0.00340043               -0.18010339               -0.00323443                1.48224911                0.10695571
               6.00009385                9.99998319                1.00000826                0.34613329               -0.00306751                0.00015761                0.06167723               -0.00271514                1.47138805                0.00430279
               7.00011612                9.99992055                1.00002614                0.41630901                0.00293822               -0.00233624                0.31121694               -0.01203399                1.26843673               -0.10393527
               8.00015261                9.99971098                1.00013372                0.69475065               -0.00014939               -0.02119056                1.58457218               -0.00682320                0.68677274               -0.10782555
               9.00011313               10.00018947                1.00105362                0.95843981                0.03110957               -0.07016258                0.29530432                0.10024135                0.30342778                0.03175988
              10.00077480               10.00386567                0.99426215                0.98802428                0.06616712                0.18348237               -0.55469561                0.17973559               -0.08260373                0.13716206
               0.01042491                0.01699535                2.03562441                1.00000000               -0.43033570               -0.48965059                1.72799153               -0.10097996               -0.25349939                0.23619130
               1.00612155                0.01154163                2.02529092                1.00000000               -0.36148560               -0.35572563                1.26362034               -0.10421375               -0.24656577                0.01258395
               2.00319519                0.00583416                2.01451828                0.98356436               -0.21399272               -0.22990849                0.76582598               -0.09233927               -0.26700100               -0.09689207
               3.00184170                0.00013161                2.00468148                0.45766879                0.09076409               -0.12165777                0.29632897                0.12718553               -0.06904295               -0.11707815
               4.00501048               -0.00204073                1.99916201                0.35622880                0.29737724               -0.08962865               -0.01173012                0.08577540                0.45992200               -0.05391454
               5.00778924               -0.00164719                1.99741949                0.36281754                0.11609729                0.04789627               -0.22510621               -0.00974210                0.78407391               -0.01173799
               6.00733242               -0.00151273                1.99487258                0.43992914               -0.08229088                0.21658624               -0.49898507                0.02068094                0.60547491                0.00998416
               7.00614342               -0.00399215                1.98917196                0.67258429                0.02040383                0.32739478               -0.82452025                0.06700769                0.30804169                0.02743392
               8.00774050               -0.00860059                1.98104813                1.00000000                0.27677559                0.34648089               -1.13220281               -0.05242096                0.08545006                0.00089306
               9.01167893               -0.01345187                1.96933035                1.00000000                0.44969870                0.42511150               -1.52443673               -0.06622607               -0.08836552               -0.08769453
              10.01673447               -0.01811422                1.95691753                1.00000000                0.50555387                0.56922552               -1.99611576               -0.06030494               -0.17635610               -0.11450997
               0.01486883                1.01209884                2.03156114                1.00000000               -0.42088174               -0.45393850                1.65691486               -0.06429006               -0.04115893                0.34645725
               1.01066001                1.00798437                2.02107633                1.00000000               -0.34460069               -0.32682125                1.16884292               -0.07006016                0.02361220                0.06535045
               2.00797681                1.00353507                2.01135716                0.64521521               -0.18045065               -0.21071210                0.69515471               -0.06228885                0.14208379               -0.18863743
               3.00705100                0.99891503                2.00377427                0.00010000               -0.06095903               -0.16315650                0.24969411                0.22736722                0.41394231               -0.22922890
               4.00675763                0.99706298                2.00023214                0.00010000                0.01884117               -0.01005731                0.01941320                0.38186774                0.71154954               -0.19896138
               5.00742782                0.99883177                1.99892130                0.00010000                0.09770393                0.00780065               -0.14136557                0.41510980                0.81722242               -0.11285483
               6.00871171                1.00065313                1.99662421                0.00010000                0.14648037                0.04397741               -0.37200703                0.34219430                0.75397416                0.03073799
               7.01035743                0.99928180                1.99206154                0.11945081                0.16172203                0.22365519               -0.70264086                0.23647246                0.58793800               -0.02198458
               8.01194615                0.99486422                1.98459968                1.00000000                0.27080322                0.33357134               -1.04538085               -0.02846402                0.33170739               -0.03010046
               9.01577349                0.99079924                1.97332305                1.00000000                0.44238119                0.39352933               -1.48139076               -0.03058347                0.16537680               -0.06007399
              10.02079377                0.98757803                1.96214381                1.00000000                0.50202836                0.54100526               -1.89697466               -0.01113425                0.12082138               -0.22284756
               0.01736804                2.00791658                2.02965565                1.00000000               -0.40839257               -0.35565288                1.53205931               -0.09916107                0.02098582                0.39620704
               1.01328412                2.00500521                2.01775518                1.00000000               -0.31746423               -0.25122117                0.99485820               -0.11156891                0.07451856                0.07231317
               2.01101876                2.00161991                2.00601261                0.18168760               -0.02114935               -0.15901839                0.44759099               -0.14919661                0.39160615               -0.30842636
               3.01286113                1.99686848                2.00053163                0.00010000                0.08561667               -0.15253817               -0.00472800                0.27087457                0.91910092               -0.49436349
               4.01273109                1.99775812                1.99971255                0.00010000               -0.01799222                0.07477145               -0.04577779                0.56551963                1.25470977               -0.20875292
               5.01250129                1.99850882                1.99847860                0.00010000                0.04975936               -0.00672776               -0.16789291                0.53220026                1.27436998               -0.18394878
               6.01372628                1.99936681                1.99713804                0.00010000                0.20802461               -0.07063827               -0.34818091                0.50404900                1.18791021               -0.09768739
               7.01666178                2.00048095                1.99249345                0.00010000                0.09637471                0.04275136               -0.42969196                0.29305749                1.02160163                0.17853079
               8.01565377                1.99807084                1.98745393                0.40052646                0.08458371                0.26209083               -0.89612949                0.15407210                0.80280643               -0.13985114
               9.01835345                1.99441871                1.97835001                1.00000000                0.36502175                0.28940395               -1.34992104               -0.13565777                0.43503676                0.15065872
              10.02295421                1.99270588                1.96593209                1.00000000                0.46007559                0.44395014               -1.67972070               -0.06984447                0.19287558               -0.25169552
               0.01870835                3.00498579                2.02824091                1.00000000               -0.39830573               -0.24921394                1.43313032               -0.09781692                0.04505066                0.32012073
               1.01472530                3.00295995                2.01482564                1.00000000               -0.27893736               -0.17442663                0.82521071               -0.10840075                0.09123290                0.03851759
               2.01312961                3.00035470                2.00124485                0.00078179                0.08024932               -0.10593798                0.15364367               -0.15910596                0.43460837               -0.28426828
               3.01633028                2.99586427                1.99450494                0.00010000                0.16490390                0.07260630               -0.37328659                0.13760665                1.40434027               -0.15438227
               4.01642768                2.99855841                1.99921366                0.00010000                0.00664240                0.04243617               -0.14402099                0.44656790                1.86103692               -0.19935156
               5.01646313                2.99869722                1.99834776                0.00010000                0.01964367                0.02871922               -0.19185197                0.38501933                1.63787360               -0.13904976
               6.01682056                2.99924036                1.99722755                0.00010000                0.05257111                0.01192811               -0.26521137                0.37347811                1.69196420               -0.06768428
               7.01751455                3.00013683                1.99695419                0.00010000                0.21346383               -0.01815981               -0.42999545                0.21385771                1.32028195                0.14759213
               8.02108983                3.00010604                1.98766546                0.19519195                0.04553702                0.20115230               -0.54800564                0.00504643                1.08077642                0.38209373
               9.01842529                2.99658732                1.98553129                1.00000000                0.08663585                0.19696922               -1.05977050               -0.20092449                0.75887063                0.19414411
              10.02282255                2.99645703                1.96906039                1.00000000                0.43972579                0.30047881               -1.51202249               -0.07580156               -0.02857084               -0.15015806
               0.01946338                4.00293230                2.02663468                1.00000000               -0.37161905               -0.17878813                1.33561937               -0.08421704                0.08415741                0.21729079
               1.01574719                4.00151667                2.01217777                1.00000000               -0.22655270               -0.12396338                0.67158974               -0.08056782                0.12930003               -0.00125965
               2.01493232                3.99950116                1.99739852                0.00010000                0.08311870               -0.07045229               -0.11223631                0.00736065                0.92811542               -0.29524204
               3.01740956                3.99832061                1.99837674                0.00010000                0.19485911                0.08956374               -0.24659454                0.14831055                1.84993908                0.05564867
               4.01882951                3.99860684                1.99817239                0.00010000                0.10550799                0.01154847               -0.22220060                0.29830905                1.93216992               -0.15859998
               5.01951972                3.99908321                1.99827412                0.00010000                0.04633638                0.03476193               -0.20024236                0.33371738                1.99818156               -0.09411735
               6.01975623                3.99960538                1.99808269                0.00010000                0.02767701                0.02950095               -0.20257271                0.32319149                2.00685508               -0.01639403
               7.02007326                4.00011776                1.99799361                0.00010000               -0.02260124                0.01740432               -0.18298864                0.32393111                2.03005103                0.06137648
               8.01930421                4.00209388                1.99924534                0.18599894               -0.10446467                0.14444297               -0.01445134               -0.24772328                1.36791666                0.86761774
               9.01798397                3.99835810                1.98961379                1.00000000                0.11972727                0.15951571               -0.77826173               -0.22237742                0.43624916                0.08824208
              10.02169875                3.99871546                1.97243938                1.00000000                0.37147864                0.19758915               -1.35977143               -0.07863102               -0.00101396               -0.06561162
               0.01985527                5.00141002                2.02473124                1.00000000               -0.33101828               -0.13599819                1.23075277               -0.07757981                0.12624610                0.12400667
               1.01654509                5.00048068                2.00951775                1.00000000               -0.16911911               -0.08426141                0.52560628               -0.06027175                0.14345852               -0.07111551
               2.01647289                4.99894566                1.99318436                0.00605302                0.18228598               -0.03178838               -0.39521472               -0.01250835                1.09567899               -0.35450990
               3.02019081                4.99765554                1.99609115                0.00010000                0.25791899               -0.01500659               -0.41866189                0.27652736                2.16771718               -0.65894784
               4.02163127                4.99878938                1.99747541                0.00010000                0.09740698                0.03568024               -0.29785622                0.35348858                2.23503753               -0.06556812
               5.02213895                4.99939245                1.99827033                0.00010000                0.03092841                0.03290126               -0.20489583                0.29409357                2.29249880               -0.05710735
               6.02224983                4.99983038                1.99887460                0.00010000               -0.03171389                0.02149596               -0.11452157                0.27703196                2.31569019                0.00786944
               7.02150467                5.00048491                2.00008345                0.00010000               -0.21774030                0.02429066                0.06682175                0.28919940                2.56687435                0.12393485
               8.01789503                5.00299490                2.00804683                0.19680928               -0.20742479                0.06595501                0.45438861               -0.17465762                1.50877782                0.75441717
               9.01735617                4.99977764                1.99270058                0.99024152                0.13200921                0.13226599               -0.54858893               -0.20532131                0.17606005                0.09387674
              10.02053521                5.00040882                1.97477168                1.00000000                0.31790410                0.16524780               -1.25749084               -0.06535886               -0.02012065               -0.10057281
               0.01977046                6.00021234                2.02261439                1.00000000               -0.27643445               -0.10864182                1.12044728               -0.07265859                0.10687136                0.03584238
               1.01700612                5.99983145                2.00630348                0.89339434               -0.11315830               -0.04275605                0.35470384               -0.04811076                0.10643467               -0.12840306
               2.01750730                5.99886539                1.98846295                0.08827524                0.30451353                0.03302100               -0.68059113               -0.01808301                0.75172165               -0.32417252
               3.02309639                5.99802047                1.98382954                0.00010000                0.33275355                0.17064031               -0.97289820                0.21942293                2.30222827               -0.90147739
               4.02416237                5.99932045                1.99704752                0.00010000                0.06321000                0.06955156               -0.42745627                0.29162541                2.93153645               -0.01652756
               5.02436059                5.99974123                1.99818592                0.00010000                0.00210237                0.04106869               -0.21319653                0.22910943                2.52466291               -0.02991542
               6.02420441                6.00003530                1.99967442                0.00010000               -0.08339267                0.01592630               -0.03127500                0.21967014                2.57359866                0.02376682
               7.02269273                6.00060357                2.00186263                0.00010000               -0.38430409               -0.00157304                0.29801582                0.27279093                3.02994849                0.11448755
               8.01651833                6.00341298                2.01604308                0.22166893               -0.31145571               -0.00376579                0.86690576               -0.11042093                1.61910109                0.70729426
               9.01646362                6.00100342                1.99515434                0.95070180                0.13054405                0.11375488               -0.33971815               -0.15483021               -0.11434055                0.16440734
              10.01912921                6.00202041                1.97551385                1.00000000                0.26655932                0.12566003               -1.22095820               -0.05098941               -0.13873557               -0.10276920
               0.01916388                6.99923719                2.02027747                1.00000000               -0.22340612               -0.09784939                1.00737195               -0.04808440                0.06599402               -0.05363108
               1.01692982                6.99962556                2.00316119                0.85402381               -0.06208424               -0.00249449                0.17255668               -0.01189966                0.06477669               -0.10828585
               2.01792220                6.99960608                1.98460088                0.20097643                0.35971916                0.11878874               -0.92889917                0.08941195                0.53127352               -0.17877062
               3.02412420                7.00106835                1.97530225                0.00010000                0.39104106                0.26787089               -1.35256710                0.11460099                2.36664706               -0.26503689
               4.02574302                7.00018041                1.99639151                0.00010000                0.09410415                0.11584545               -0.58174333                0.05192068                3.39145930                0.00720307
               5.02600629                7.00021383                1.99797732                0.00010000                0.00189391                0.05003428               -0.23943885                0.13596769                2.72178896               -0.01192093
               6.02578090                7.00014891                2.00032199                0.00010000               -0.12117448                0.00482097                0.03809732                0.15126543                2.79123762                0.02663843
               7.02358280                7.00045345                2.00337923                0.00010000               -0.52470666               -0.02602121                0.50074498                0.22039630                3.43673525                0.08414994
               8.01528676                7.00291958                2.02323612                0.26455522               -0.39653292               -0.11928607                1.24559841               -0.01094806                1.75490583                0.55541509
               9.01565214                7.00205273                1.99835130                0.92381837                0.10973354                0.07360661               -0.11743165               -0.06470321               -0.37774435                0.27129544
              10.01748143                7.00292202                1.97649624                1.00000000                0.18292954                0.06108843               -1.18152312               -0.04342486               -0.29691466                0.11399816
               0.01803202                7.99825535                2.01772414                1.00000000               -0.16327907               -0.12140634                0.89285275               -0.01358411                0.05733185               -0.13333384
               1.01639923                7.99978156                2.00080447                0.91577396               -0.00896385                0.02697754                0.02101431                0.04035593                0.04626306               -0.05589932
               2.01785275                8.00124116                1.98232219                0.35792092                0.42074217                0.18216541               -1.05230910                0.12477618                0.67595283                0.07573205
               3.02481408                8.00337789                1.97651186                0.00010000                0.41012777                0.21657823               -1.33587553               -0.05432704                2.31244109                0.31989290
               4.02605530                8.00163736                1.99550127                0.00010000                0.11486832                0.15994676               -0.74377119               -0.15171694                3.36799625                0.04723694
               5.02711144                8.00074192                1.99760460                0.00010000                0.04673984                0.05427373               -0.28074861                0.02385171                2.90114241                0.01216105
               6.02699010                8.00013171                2.00082982                0.00010000               -0.13907276               -0.00422961                0.09348705                0.07599818                2.97400484                0.02314779
               7.02432999                8.00008315                2.00452253                0.00010000               -0.61450050               -0.06482669                0.66459532                0.09984360                3.72300886                0.03992569
               8.01470009                8.00102726                2.02829626                0.34321588               -0.45814346               -0.18200282                1.53315649                0.08760184                1.91278628                0.23291836
               9.01516712                8.00247555                2.00239694                0.91164840                0.09110287               -0.01336064                0.12314989                0.06221878               -0.45509063                0.23794996
              10.01652215                8.00324218                1.98033788                0.99309732                0.13550282                0.03775533               -0.99634970               -0.02238751               -0.31763724                0.40253239
               0.01583979                8.99680906                2.01504176                0.99106634               -0.10886624               -0.16424176                0.79154242                0.00168231                0.05484113               -0.14963928
               1.01475113                9.00016511                1.99901301                0.93953369                0.04907974                0.04761970               -0.10480229                0.04718142                0.09470720               -0.02502989
               2.01682138                9.00324939                1.98287134                0.62462353                0.39451710                0.23788949               -1.05195348                0.04117351                0.68821665                0.21489479
               3.02264147                9.00539991                1.97778860                0.00010000                0.42616360                0.25501340               -1.28815956               -0.23064450                2.12183215                0.31219924
               4.02534466                9.00337934                1.99466466                0.00010000                0.26737474                0.19776494               -0.91718409               -0.19949633                3.35044741                0.10411279
               5.02798896                9.00129930                1.99715124                0.00010000                0.13074866                0.07109015               -0.32319503               -0.03952902                3.06884762                0.02929819
               6.02795963                9.00006432                2.00117513                0.00010000               -0.16524211               -0.00316261                0.13411630                0.01298801                3.14779845                0.01731168
               7.02468412                8.99915692                2.00559055                0.00010000               -0.66566160               -0.11108436                0.80670326                0.00642502                3.80497740               -0.00745915
               8.01464640                8.99927952                2.02969441                0.51053763               -0.50012629               -0.17663659                1.61442986                0.03182429                1.91681529                0.00706322
               9.01468160                9.00178552                2.00502262                0.91207287                0.04270119               -0.11664953                0.31176170                0.05853002               -0.33854367                0.06759506
              10.01550042                9.00367712                1.98616950                0.98036977                0.08188254                0.09315500               -0.73412914               -0.04040382               -0.09558778                0.37876617
               0.01135357                9.99497051                2.01307207                0.98933983               -0.04510293               -0.18385460                0.62491015                0.12772111               -0.03134972               -0.11465839
               1.01090254               10.00073395                1.99734140                0.97293425                0.10439253                0.05688361               -0.25141608                0.16656284                0.03681010                0.00228127
               2.01344142               10.00599895                1.98219335                0.90215316                0.45843465                0.27495659               -1.06298367                0.04921377                0.46674620                0.18746260
               3.02007123               10.00847816                1.97495415                0.35390286                0.63622862                0.30782456               -1.34210329               -0.27733877                1.94301027                0.16705701
               4.02616599               10.00559266                1.99352805                0.29905944                0.47823313                0.22133115               -1.02022746               -0.23358881                3.54260668                0.08661107
               5.02963589               10.00216372                1.99639793                0.31891810                0.16131283                0.08644165               -0.35604157               -0.11151682                3.24222654                0.04875149
               6.02939224               10.00006846                2.00123354                0.37270871               -0.21963057                0.00041470                0.15357855               -0.07185136                3.31877210                0.02946366
               7.02524328                9.99786146                2.00622434                0.48009088               -0.83421361               -0.12954574                0.89193730               -0.07278065                3.95090604               -0.00396999
               8.01270797                9.99749453                2.03169144                0.81633804               -0.66515807               -0.17849927                1.69099218               -0.07978743                1.83449997                0.01475701
               9.01194012               10.00014256                2.00590609                0.95881527               -0.03885551               -0.16429605                0.49030716                0.10638991               -0.40803454               -0.03064969
              10.01193086               10.00510528                1.98890609                0.98634231               -0.00092564                0.14281578               -0.48690288                0.13931643               -0.01532950                0.20707557
               0.02094682                0.02385164                3.05290646                1.00000000               -0.44726942               -0.50736015                1.73164544               -0.10995570               -0.21581374                0.25298666
               1.01647413                0.01616012                3.03787314                1.00000000               -0.36463494               -0.36361414                1.25957036               -0.09725608               -0.26053615               -0.00659288
               2.01365412                0.00818198                3.02200483                0.95504045               -0.19772325               -0.22393432                0.77339544               -0.08736996               -0.23344336               -0.12525973
               3.01251966                0.00033746                3.00737639                0.46652632                0.12424507               -0.08387254                0.30255840                0.12401192                0.18214450               -0.12809062
               4.01613903               -0.00329366                2.99962579                0.38936447                0.37342466               -0.13816071                0.09093340                0.11766357                0.78018940               -0.00985397
               5.01998816               -0.00328971                2.99543923                0.40169876                0.20870527               -0.00638337               -0.17977171                0.00223775                0.96720266                0.00617936
               6.02031313               -0.00331923                2.98987926                0.47011851               -0.02676530                0.17063293               -0.50120135                0.04327939                0.87750513                0.04158448
               7.01945285               -0.00614122                2.98264321                0.67771241                0.03660409                0.21952434               -0.72230233                0.07609896                0.53937968                0.03380068
               8.02104521               -0.01179155                2.96972649                1.00000000                0.26669121                0.32115467               -1.13247859               -0.02784549                0.10261718                0.15776409
               9.02478667               -0.01842111                2.95387173                1.00000000                0.44602519                0.43035814               -1.53158455               -0.09541768               -0.08164573                0.00226964
              10.02996572               -0.02481651                2.93757008                1.00000000                0.51790415                0.56536585               -1.92826905               -0.11289064               -0.10612547               -0.13889708
               0.02753879                1.01877804                3.04800612                1.00000000               -0.42023930               -0.47514066                1.63277372               -0.05414899               -0.01224547                0.34431855
               1.02333640                1.01252397                3.03270252                1.00000000               -0.34235189               -0.33812279                1.15178773               -0.04530439                0.02289963                0.00203286
               2.02069175                1.00594264                3.01795247                0.60742182               -0.19193984               -0.20561345                0.66988745               -0.02410146                0.16519014               -0.28752825
               3.01949760                0.99949873                3.00545447                0.00010000               -0.07812557               -0.05317795                0.21547847                0.10190646                0.62820455               -0.32056156
               4.01912924                0.99532473                3.00037693                0.00010000                0.02628595                0.00240272                0.04948821                0.41766509                1.08327733               -0.16254729
               5.02002332                0.99664646                2.99716370                0.00010000                0.15212184                0.00729120               -0.16884679                0.56316794                1.12664307               -0.14473323
               6.02217168                0.99838710                2.99248551                0.00010000                0.22133395                0.03659401               -0.43341369                0.45454106                1.01418870               -0.09051042
               7.02445000                0.99605403                2.98586208                0.14045870                0.23675125                0.23135934               -0.66626835                0.21684954                0.78687203                0.12295458
               8.02690670                0.99141999                2.97532250                1.00000000                0.29474897                0.28300874               -0.94232431                0.02701485                0.38291217                0.17298132
               9.03034498                0.98588247                2.95952268                1.00000000                0.41627554                0.39391895               -1.37435839               -0.04093024                0.09138338                0.04802503
              10.03523221                0.98083714                2.94342781                1.00000000                0.48872360                0.53935098               -1.83592294               -0.04817906                0.06085258               -0.17132948
               0.03237197                2.01434883                3.04506119                1.00000000               -0.39685303               -0.40026320                1.52572591               -0.08049797                0.03773220                0.44558071
               1.02840344                2.00939766                3.02778848                1.00000000               -0.30873185               -0.28136633                1.00107510               -0.07232193                0.06420760                0.01415508
               2.02619734                2.00406971                3.01075156                0.18360862               -0.16138747               -0.16867899                0.48319851               -0.01149770                0.37917598               -0.44856999
               3.02517570                1.99927390                2.99973984                0.00010000                0.05736303               -0.02636421                0.00644306                0.19654190                1.06741343               -0.52072701
               4.02734460                1.99675439                2.99912002                0.00010000                0.15067287                0.10917268               -0.08939852                0.60423919                1.56575793               -0.25103238
               5.02818915                1.99685612                2.99663663                0.00010000                0.13258928                0.03730330               -0.20952250                0.77647493                1.46723645               -0.22358043
               6.02999638                1.99741265                2.99302175                0.00010000                0.12838954               -0.03692864               -0.37706580                0.74557940                1.52866971               -0.12108264
               7.03075694                1.99848597                2.99140573                0.00010000                0.08803404                0.06410160               -0.24611687                0.42322563                1.14084067                0.01565172
               8.03175706                1.99386862                2.98140881                0.39161760                0.18969886                0.21007856               -0.68926105               -0.08507397                0.57503380                0.26762738
               9.03455092                1.98945727                2.96604373                1.00000000                0.36678633                0.31531873               -1.22822909               -0.05978203                0.22779170                0.20492087
              10.03909279                1.98597050                2.94878760                1.00000000                0.45418710                0.47936418               -1.69075847               -0.04885871                0.11898107               -0.20314492
               0.03583117                3.01077278                3.04250882                1.00000000               -0.36620917               -0.31645099                1.40933139               -0.08799347                0.05464717                0.41633954
               1.03216908                3.00689665                3.02305237                1.00000000               -0.26228037               -0.21722379                0.82694295               -0.07641016                0.07427228                0.00500502
               2.03058556                3.00256906                3.00347024                0.01059036               -0.07126613               -0.12072412                0.24903847                0.00122352                0.49906092               -0.41975579
               3.03074376                2.99897145                2.99256719                0.00010000                0.15231220                0.00986839               -0.13969115                0.33432615                1.59553772               -0.09966047
               4.03363181                2.99750819                2.99713139                0.00010000                0.20754059                0.08956246               -0.21877578                0.50451172                2.15412461               -0.23697261
               5.03489457                2.99739253                2.99616293                0.00010000                0.09108038                0.06588555               -0.23431894                0.60762059                1.90175296               -0.17279456
               6.03545341                2.99764852                2.99468934                0.00010000                0.07819851                0.02854822               -0.28341291                0.52731591                1.79336876               -0.05893466
               7.03645854                2.99733606                2.99131063                0.00010000               -0.06097438               -0.02395971               -0.42472054                0.35276800                1.74935611               -0.05451087
               8.03423393                2.99562157                2.98935523                0.20409769                0.02944593                0.14698704               -0.15726653               -0.00933709                1.00228771                0.49793867
               9.03704746                2.99218885                2.97468953                1.00000000                0.34973219                0.26203157               -1.07573977               -0.07405675                0.31380167                0.26017948
              10.04122857                2.99042443                2.95403980                1.00000000                0.41811142                0.39215555               -1.50319033               -0.03814094               -0.00846334               -0.18371609
               0.03836436                4.00801981                3.03990088                1.00000000               -0.32854015               -0.24812049                1.30002292               -0.07938772                0.07176343                0.34176634
               1.03507896                4.00505318                3.01853903                1.00000000               -0.21086767               -0.15532523                0.64548644               -0.05897802                0.09555184               -0.01879108
               2.03414701                4.00165523                2.99702919                0.00010000                0.09220631               -0.05553206                0.00426744                0.04165361                1.05896223               -0.36406925
               3.03692309                3.99947127                2.99519536                0.00010000                0.24333722                0.11886068               -0.29656789                0.29391986                2.14854080                0.07848595
               4.03901375                3.99854564                2.99556516                0.00010000                0.16390703                0.11514082               -0.27496812                0.39256166                2.27054363               -0.15447240
               5.04020123                3.99817383                2.99599756                0.00010000                0.07927074                0.07706758               -0.24473330                0.45648236                2.26967202               -0.11745373
               6.04059917                3.99798361                2.99593920                0.00010000               -0.01809833                0.04422773               -0.22025327                0.45151136                2.26374611               -0.04231916
               7.03983926                3.99800678                2.99629868                0.00010000               -0.19408163                0.05979139               -0.16881886                0.24222597                2.38158891                0.21411250
               8.03671754                3.99680836                2.99984936                0.20019494               -0.07861687                0.12661805               -0.05618179                0.03954046                1.37218827                0.54976863
               9.03826692                3.99469790                2.98138005                1.00000000                0.25706378                0.23017951               -0.84155398               -0.05113140                0.22409923                0.15580106
              10.04185881                3.99381362                2.95894908                1.00000000                0.35918877                0.29959695               -1.33978080               -0.05431934                0.00993617               -0.17397580
               0.04017666                5.00581037                3.03701787                1.00000000               -0.28225666               -0.20484248                1.19316069               -0.05929702                0.07333154                0.24645680
               1.03735410                5.00379014                3.01393913                0.94137495               -0.15880559               -0.10503836                0.46909624               -0.02946823                0.10726411               -0.05874777
               2.03700055                5.00145842                2.99092256                0.00010000                0.11888191                0.00798362               -0.19349602                0.11843630                1.28230585               -0.31276295
               3.03973174                5.00134866                2.99178554                0.00010000                0.28899616                0.16407883               -0.35585691               -0.02506302                2.51930107               -0.47870236
               4.04278048                4.99981100                2.99404922                0.00010000                0.24272552                0.11070455               -0.35045532                0.15429733                2.60008251               -0.14158320
               5.04458625                4.99893388                2.99590562                0.00010000                0.09351081                0.07576113               -0.25475277                0.32540848                2.61910005               -0.07819986
               6.04465069                4.99853308                2.99770408                0.00010000               -0.10539709                0.05099427               -0.12196235                0.34575039                2.69057499                0.00494857
               7.04247831                4.99853189                3.00130122                0.00010000               -0.31585407                0.04642121                0.06311730                0.21219266                2.93120859                0.21534227
               8.03833361                4.99815393                3.00918210                0.20993496               -0.17293649                0.10269085                0.03814307                0.05792210                1.64072678                0.45031458
               9.03901958                4.99679244                2.98694780                0.98798688                0.17885712                0.17549667               -0.59741706               -0.01618443                0.11471316                0.11814889
              10.04191075                4.99641637                2.96286985                1.00000000                0.28911782                0.22266619               -1.16000424               -0.04666095                0.00321453               -0.16300735
               0.04121887                6.00392296                3.03371987                1.00000000               -0.23773213               -0.17809958                1.07848279               -0.04542919                0.05716237                0.14893363
               1.03884155                6.00295242                3.00913012                0.77117107               -0.11308254               -0.06711039                0.31424319               -0.00916164                0.11856345               -0.08292627
               2.03895722                6.00181490                2.98528179                0.00010000               -0.03861547                0.04462064               -0.34111567                0.13415578                1.09884289               -0.24493427
               3.03806924                6.00275284                2.98067958                0.00010000                0.27786325                0.03380986               -0.07755539               -0.23290243                2.76202229               -0.67085324
               4.04451448                6.00075974                2.99145860                0.00010000                0.49590422                0.09478356               -0.52354765               -0.02335081                3.24130507               -0.18877167
               5.04798732                5.99968905                2.99573998                0.00010000                0.17008414                0.07044838               -0.27342792                0.21338108                2.97434878               -0.06525962
               6.04791617                5.99900350                2.99937037                0.00010000               -0.17625284                0.04126182               -0.02907881                0.25573275                3.07608355                0.01422011
               7.04446227                5.99893520                3.00593834                0.00010000               -0.41503689                0.02280343                0.28189724                0.16890441                3.39760453                0.19386163
               8.03961543                5.99886218                3.01737816                0.22707962               -0.23907354                0.03546640                0.13040679                0.07152836                1.86755714                0.38156602
               9.03968080                5.99820783                2.99205103                0.87955289                0.10311527                0.10029273               -0.34630095                0.02111442                0.04137264                0.11476562
              10.04167773                5.99826694                2.96675064                1.00000000                0.19969383                0.14082684               -0.90530945               -0.02441029                0.02275755               -0.10900483
               0.04120917                7.00224838                3.03013299                1.00000000               -0.19302417               -0.16240184                0.96321343               -0.04425731                0.03723983                0.06786651
               1.03927892                7.00244794                3.00449890                0.68373824               -0.06629610               -0.03551006                0.15186506               -0.01289475                0.12774917               -0.05677169
               2.03988324                7.00235083                2.98025905                0.00010000               -0.15750353                0.07126567               -0.53163771               -0.00321420                1.04679753               -0.11417149
               3.03612885                7.00202486                2.97307958                0.00010000                0.27470038                0.06317232                0.01510051               -0.25158226                2.98238734               -0.26262973
               4.04537725                7.00170667                2.98837200                0.00010000                0.72406267                0.09796003               -0.72342297                0.01366769                3.69865403               -0.22034154
               5.05061011                7.00034284                2.99521524                0.00010000                0.25709732                0.06914172               -0.31189968                0.12228573                3.32148355               -0.07136149
               6.05051920                6.99935831                3.00075908                0.00010000               -0.23061982                0.02933757                0.05239526                0.16840270                3.42595867                0.01283739
               7.04599771                6.99898796                3.01000253                0.00010000               -0.50138263               -0.01913030                0.48644564                0.10906909                3.82046597                0.15091730
               8.04049154                6.99886325                3.02490861                0.25134013               -0.29803029               -0.02959461                0.22596144                0.04754873                2.08334510                0.29580488
               9.04003710                6.99879829                2.99720999                0.81067833                0.04063962                0.03488046               -0.14142821                0.01781754               -0.01415959                0.11205704
              10.04130434                6.99923290                2.97110366                0.98422540                0.12672328                0.07846622               -0.66115921               -0.01695478                0.06327973               -0.01872313
               0.03993460                8.00067492                3.02645187                1.00000000               -0.14534025               -0.16298296                0.85764572               -0.04993746                0.05018630                0.01360376
               1.03848120                8.00224222                3.00068559                0.68317351               -0.03092951                0.00433144               -0.02380334               -0.03639749                0.19188930               -0.00186224
               2.03931601                8.00324021                2.97743714                0.01550744               -0.23997266                0.14599756               -0.74208763               -0.07058268                1.29577158                0.05280697
               3.03368175                8.00401629                2.97339252                0.00010000                0.35769187                0.31404635               -0.52700251               -0.26566909                3.05290931                0.03790548
               4.04646985                8.00271894                2.98512524                0.00010000                0.95498255                0.12229663               -0.92626189               -0.02429226                3.78901662               -0.22951997
               5.05278140                8.00107189                2.99439030                0.00010000                0.30846297                0.07207008               -0.35585631                0.06119391                3.66095873               -0.06338592
               6.05263911                7.99959025                3.00186817                0.00010000               -0.28213447                0.02829029                0.12062100                0.07733166                3.73685774                0.01255624
               7.04713871                7.99855259                3.01328275                0.00010000               -0.59415210               -0.04475188                0.67520807                0.01814741                4.13552126                0.10644218
               8.04075607                7.99827029                3.03064851                0.28538878               -0.37356053               -0.10971417                0.36662059               -0.04395791                2.26149444                0.07369527
               9.03966750                7.99890544                3.00239089                0.79560404               -0.01433260               -0.00322227                0.01077633               -0.02645162               -0.00852619                0.08315307
              10.04046942                7.99983626                2.97606040                0.94833813                0.08019174                0.09025298               -0.55846762               -0.04972849                0.08124891                0.05193286
               0.03707583                8.99898872                3.02276094                0.98523555               -0.10901473               -0.17566006                0.75821230               -0.04774443                0.09191115               -0.00813670
               1.03598568                9.00253456                2.99754025                0.75590439               -0.01891563                0.06426417               -0.20214317               -0.03660219                0.29685238                0.02390641
               2.03669752                9.00527078                2.97611390                0.15002360               -0.23244664                0.26187925               -1.03394264               -0.04050390                1.48020763                0.11318308
               3.03133675                9.00830578                2.97399059                0.00010000                0.55691460                0.32971834               -1.46952339               -0.29929105                2.97129345                0.02813570
               4.04783581                9.00415261                2.98169152                0.00010000                1.18129613                0.07484753               -1.07488451               -0.15315119                3.87312890               -0.16360051
               5.05496267                9.00178425                2.99353903                0.00010000                0.33746561                0.07176843               -0.39450432                0.01533091                3.99938320               -0.04069250
               6.05458512                8.99992412                3.00268179                0.00010000               -0.36410267                0.04326888                0.17955031                0.01562226                4.03035887                0.02041339
               7.04768062                8.99809292                3.01613029                0.00010000               -0.76627915                0.00104865                0.82171535               -0.08587583                4.23670509                0.07111942
               8.03925954                8.99666897                3.03224784                0.31411930               -0.48692614               -0.11291147                0.58380009               -0.14771380                2.34838408               -0.12263050
               9.03794210                8.99873385                3.00704254                0.85594616               -0.04057059               -0.05479493                0.21889047               -0.02803547                0.13069971                0.03840571
              10.03844813                9.00103796                2.98076059                0.93445613                0.05060304                0.13488770               -0.56638071               -0.06964860                0.06465937                0.03932271
               0.03188802                9.99716172                3.01901921                0.98719995               -0.04209249               -0.18269947                0.58171013                0.11779658                0.11386156               -0.00640540
               1.03146709               10.00352750                2.99419798                0.90943392                0.04233482                0.09929350               -0.39494423                0.11394491                0.34403092                0.05011816
               2.03273471               10.00847780                2.97367358                0.62721422               -0.13264975                0.32070197               -1.25016983               -0.04212252                1.52763291                0.15715972
               3.02881410               10.01061065                2.97177386                0.32009713                0.85968249                0.23048707               -1.61367740               -0.46536083                3.09000720                0.13386778
               4.04992836               10.00421589                2.97959462                0.29758296                1.42512028                0.00632789               -1.17354130               -0.19591459                4.07702182               -0.17295074
               5.05731650               10.00250725                2.99286979                0.31763729                0.33572594                0.07230074               -0.38974513                0.04737007                4.21440774               -0.02655367
               6.05664288               10.00045563                3.00307983                0.36503945               -0.43200810                0.05315057                0.23106362                0.00909183                4.23654065                0.03674853
               7.04867634                9.99857357                3.01786489                0.45735918               -0.97410097                0.04806496                0.92691382               -0.12260616                4.40689146                0.15241419
               8.03716086                9.99601206                3.03395356                0.65007019               -0.69692722               -0.06569125                0.73756956               -0.24806864                2.46436299               -0.20796671
               9.03473780                9.99780954                3.01085977                0.95458174               -0.13463266               -0.09243012                0.48809215                0.00566804                0.23750673                0.02491797
              10.03446821               10.00253402                2.98452410                0.97133084               -0.02695868                0.14960553               -0.41090709                0.07445566                0.06764372               -0.01065197
               0.03617528                0.03185577                4.07025732                1.00000000               -0.43628199               -0.50252826                1.72014438               -0.10489338               -0.23491079                0.27516766
               1.03181246                0.02175100                4.05048233                1.00000000               -0.35761013               -0.36413109                1.26281939               -0.08518542               -0.26273972               -0.01372464
               2.02902307                0.01143368                4.02998619                0.95435883               -0.19744185               -0.23959015                0.81372268               -0.06630881               -0.23471384               -0.15389357
               3.02786362                0.00141364                4.01073265                0.48502174                0.17641733               -0.12732836                0.37254716                0.17401188                0.30297832               -0.13861444
               4.03255142               -0.00374009                4.00098068                0.43217324                0.45081033               -0.19420988                0.16286375                0.09694366                1.00651137               -0.00822525
               5.03687983               -0.00497254                3.99382406                0.45252510                0.25635633               -0.02877501               -0.14884804               -0.01044515                1.06938622                0.00471098
               6.03767855               -0.00589355                3.98484855                0.50970568                0.01019800                0.15939800               -0.50652351                0.02278979                0.95940283                0.03292179
               7.03708379               -0.00975387                3.97472591                0.70614319                0.04428882                0.27322429               -0.80719537                0.08022007                0.61677071                0.01118922
               8.03856432               -0.01663733                3.95839856                1.00000000                0.25593213                0.32788525               -1.13700645               -0.00977836                0.13128004                0.20191791
               9.04220243               -0.02470838                3.93869866                1.00000000                0.43254686                0.42961120               -1.51054904               -0.06917175               -0.07635999                0.02095990
              10.04721526               -0.03260762                3.91835215                1.00000000                0.50128320                0.55415429               -1.90090956               -0.09139341               -0.12084475               -0.14965233
               0.04523111                1.02683048                4.06421661                1.00000000               -0.40594599               -0.47651368                1.59856491               -0.04743738               -0.00604174                0.38214605
               1.04117165                1.01810969                4.04411208                1.00000000               -0.33512198               -0.34062711                1.13575617               -0.03636322                0.04355239               -0.01240952
               2.03852867                1.00903777                4.02475491                0.60303989               -0.19905118               -0.21514628                0.69415266               -0.01707448                0.21456400               -0.35798397
               3.03719062                1.00014035                4.00808384                0.00010000               -0.09073605               -0.10362101                0.29741338                0.16286764                0.82701904               -0.41221805
               4.03671395                0.99431781                4.00122191                0.00010000                0.03307392               -0.01384436                0.12203589                0.45986963                1.35231942               -0.22726097
               5.03785210                0.99473971                3.99554436                0.00010000                0.17915811                0.00052621               -0.14728594                0.62235428                1.32543411               -0.16048668
               6.04029711                0.99570043                3.98795593                0.00010000                0.27028880                0.03174413               -0.46251044                0.50453490                1.16966486               -0.05356619
               7.04325788                0.99297838                3.97873618                0.16487512                0.28233426                0.25496539               -0.72635436                0.24744161                0.95651390                0.27267839
               8.04594379                0.98664152                3.96575319                1.00000000                0.31189882                0.30139958               -0.98217355                0.02807394                0.45353070                0.23895368
               9.04949585                0.97958774                3.94583588                1.00000000                0.41283871                0.40293279               -1.36831459               -0.01897590                0.09024661                0.06209456
              10.05420057                0.97293393                3.92542535                1.00000000                0.47047136                0.53193027               -1.77246648               -0.03383860                0.05205935               -0.17954037
               0.05266811                2.02232549                4.06017017                1.00000000               -0.37902136               -0.41787967                1.48842370               -0.06454893                0.04034200                0.49448922
               1.04887790                2.01493846                4.03777669                1.00000000               -0.30085970               -0.29000947                0.99369191               -0.05585319                0.07099450               -0.01683004
               2.04665092                2.00713075                4.01567658                0.21012785               -0.15184803               -0.16779090                0.50654977               -0.02649529                0.43802875               -0.57214592
               3.04584094                1.99934122                4.00066049                0.00010000                0.02492690               -0.08624071                0.13156238                0.31207644                1.42423220               -0.78018966
               4.04714946                1.99598302                3.99792458                0.00010000                0.10516738                0.15280039               -0.08187982                0.74486283                1.91737434               -0.38087210
               5.04794429                1.99503798                3.99428815                0.00010000                0.11905604                0.05703409               -0.22138455                0.89232252                1.78055274               -0.27651257
               6.04953058                1.99474133                3.98959673                0.00010000                0.15736201               -0.02781082               -0.36329131                0.87752922                1.85260665               -0.10915184
               7.05109153                1.99534544                3.98757111                0.00010000                0.14929308                0.05876383               -0.44346826                0.46136189                1.45835903                0.13478860
               8.05251644                1.98939066                3.97366871                0.41042368                0.22194893                0.24913703               -0.80884241               -0.00911341                0.59579232                0.43415833
               9.05553051                1.98335028                3.95378543                1.00000000                0.36648345                0.34334299               -1.22574827               -0.04193871                0.22096156                0.22952429
              10.05984611                1.97803099                3.93211692                1.00000000                0.43156034                0.48436528               -1.64161755               -0.04432059                0.11541257               -0.19389876
               0.05871420                3.01847289                4.05642754                1.00000000               -0.34648695               -0.35334572                1.37108174               -0.06862730                0.04793409                0.48695252
               1.05524933                3.01230950                4.03136449                1.00000000               -0.25590957               -0.23421829                0.83101409               -0.05694624                0.06194966               -0.02304875
               2.05359600                3.00568196                4.00622562                0.03395443               -0.03347203               -0.11816535                0.29426771               -0.05448210                0.58271762               -0.55103061
               3.05457989                2.99841554                3.99171111                0.00010000                0.11592172                0.06653816               -0.08263014                0.38476620                2.02084059               -0.39996839
               4.05591444                2.99737381                3.99483814                0.00010000                0.11801764                0.13082722               -0.19401669                0.68767814                2.57834909               -0.28401949
               5.05694024                2.99588039                3.99366138                0.00010000                0.08128996                0.09767286               -0.25028706                0.71826153                2.27290621               -0.20552833
               6.05754024                2.99514421                3.99155929                0.00010000                0.04477756                0.05014598               -0.31168062                0.67363588                2.16205882               -0.06815229
               7.05783579                2.99415365                3.98845978                0.00010000                0.01082244               -0.04680119               -0.34811216                0.45917004                2.05600060               -0.00987204
               8.05775669                2.99162426                3.98452013                0.20461601                0.10904820                0.19358587               -0.52083501                0.07255547                1.30370385                0.74349653
               9.06001675                2.98645460                3.96401650                1.00000000                0.30980271                0.29327811               -1.05924612               -0.05836499                0.23351793                0.29924120
              10.06395274                2.98262123                3.93899659                1.00000000                0.39359870                0.41874494               -1.48789952               -0.03767079               -0.01215376               -0.19003240
               0.06362235                4.01525858                4.05263514                1.00000000               -0.30924366               -0.29763615                1.25358180               -0.06218910                0.05686193                0.43526710
               1.06052991                4.01025409                4.02508750                1.00000000               -0.20835532               -0.17974308                0.66182033               -0.04773920                0.07204587               -0.02854972
               2.05945524                4.00476744                3.99748387                0.00010000                0.06572485               -0.06220791                0.07475870                0.05472405                1.18563964               -0.48485143
               3.06184441                4.00067198                3.99244538                0.00010000                0.19914656                0.20908652               -0.25940179                0.33512018                2.50840367               -0.01814466
               4.06343817                3.99859956                3.99267303                0.00010000                0.13473562                0.13452305               -0.26798102                0.49589270                2.74831933               -0.21846488
               5.06453912                3.99699144                3.99337945                0.00010000                0.06459329                0.11028224               -0.26176438                0.55352698                2.72191877               -0.15539189
               6.06473004                3.99574425                3.99367763                0.00010000               -0.03721189                0.06769856               -0.23821812                0.52717376                2.70948585               -0.01018061
               7.06379488                3.99440942                3.99461723                0.00010000               -0.15317154                0.04992233               -0.21245240                0.41665754                2.87178847                0.26448564
               8.06166661                3.99326238                3.99812171                0.20197536               -0.02143217                0.14240609               -0.24358285                0.10563586                1.63037805                0.77202200
               9.06336624                3.98921584                3.97278271                1.00000000                0.25464090                0.25075160               -0.85853586               -0.04552790                0.10813892                0.20484783
              10.06675942                3.98640589                3.94564376                1.00000000                0.33931861                0.33629352               -1.31503073               -0.04086224                0.00177057               -0.21242665
               0.06747938                5.01252017                4.04859445                1.00000000               -0.26937062               -0.25913433                1.14048418               -0.05700909                0.07021772                0.35946713
               1.06478568                5.00871464                4.01889967                0.93713158               -0.16033926               -0.13204705                0.50271128               -0.03984066                0.09133829               -0.05185387
               2.06427260                5.00443780                3.98931444                0.00010000                0.13322468               -0.00686157               -0.12955458                0.11810398                1.54603555               -0.43601834
               3.06745017                5.00259727                3.98897401                0.00010000                0.26201178                0.13186920               -0.24196464                0.29710486                3.09253401               -0.36866377
               4.06951283                5.00006428                3.99046630                0.00010000                0.17079588                0.13113373               -0.31983043                0.29893304                3.16353204               -0.28201849
               5.07086609                4.99808604                3.99317528                0.00010000                0.05764522                0.10674896               -0.26647179                0.39152919                3.18960476               -0.13483733
               6.07066574                4.99649819                3.99643535                0.00010000               -0.11076361                0.07602234               -0.15159061                0.39318770                3.26778394                0.03677729
               7.06865081                4.99515210                4.00134579                0.00010000               -0.28013800                0.06850378               -0.05411280                0.34081745                3.49184617                0.27830890
               8.06506298                4.99447238                4.00880969                0.21339979               -0.13440644                0.10277103               -0.07068490                0.12038531                1.88668082                0.58947928
               9.06596269                4.99146963                3.98075224                0.99029765                0.18462143                0.19103492               -0.63033716               -0.02864628                0.07197830                0.15250779
              10.06875541                4.98934710                3.95157160                1.00000000                0.27927194                0.26003089               -1.12321937               -0.04096657                0.00712220               -0.22280860
               0.07009322                6.01007589                4.04418405                1.00000000               -0.22777542               -0.23288216                1.03179434               -0.06139977                0.07019442                0.28278388
               1.06781546                6.00761315                4.01258834                0.75993156               -0.10792653               -0.08899907                0.34340376               -0.04363071                0.11829260               -0.08088608
               2.06793469                6.00463021                3.98164064                0.00010000                0.21722809                0.03647535               -0.34031298                0.08505402                1.72571804               -0.41512106
               3.07216003                6.00330937                3.98227844                0.00010000                0.29966891                0.02527726               -0.02706078                0.24004310                3.71523855               -0.53547046
               4.07392807                6.00122224                3.98657657                0.00010000                0.18878831                0.10213319               -0.37373465                0.19423315                3.77013611               -0.36960324
               5.07593579                5.99912642                3.99271736                0.00010000                0.07998310                0.10251249               -0.28262413                0.26126269                3.72054199               -0.14105316
               6.07552773                5.99726470                3.99909285                0.00010000               -0.16493805                0.07048332               -0.06478693                0.27500568                3.78671110                0.04122608
               7.07263703                5.99577949                4.00750057                0.00010000               -0.38854732                0.04876467                0.09500192                0.26224342                4.05384164                0.24273612
               8.06775678                5.99531780                4.01865122                0.23067038               -0.23592186                0.05464721                0.11262365                0.09701366                2.11979393                0.51792228
               9.06791859                5.99303654                3.98822832                0.88596694                0.12141816                0.12421948               -0.40430679               -0.02500437                0.03598790                0.13282796
              10.07018515                5.99160651                3.95740766                1.00000000                0.22665507                0.19453466               -0.94092520               -0.03278948                0.02439812               -0.18765426
               0.07117686                7.00786252                4.03954174                1.00000000               -0.18181239               -0.20882068                0.92448718               -0.06903211                0.04989660                0.22849900
               1.06935874                7.00693466                4.00619849                0.66221566               -0.04497000               -0.04550972                0.15879215               -0.06294669                0.12282322               -0.07006752
               2.07027746                7.00516731                3.97396812                0.00010000                0.31501328                0.09061194               -0.61200292               -0.03526431                1.88185627               -0.34427744
               3.07565901                7.00310282                3.97560426                0.00010000                0.36514883               -0.00421876               -0.04771214                0.14818839                4.24321509               -0.57662128
               4.07758044                7.00210694                3.98192305                0.00010000                0.21949360                0.12526016               -0.47809272                0.19716321                4.31924498               -0.38439471
               5.08004888                7.00013629                3.99173932                0.00010000                0.09661687                0.10119946               -0.31121719                0.17264013                4.24666859               -0.13937489
               6.07951278                6.99790785                4.00136990                0.00010000               -0.21031470                0.05977121                0.01578461                0.16490911                4.28139734                0.03377500
               7.07584258                6.99612739                4.01310814                0.00010000               -0.48832888                0.01523697                0.24724053                0.16402594                4.57014387                0.20529363
               8.06974620                6.99556533                4.02775535                0.25216753               -0.33343458               -0.00779285                0.29790149                0.04458397                2.34536884                0.43023836
               9.06917389                6.99395402                3.99552274                0.81728804                0.06067431                0.06347630               -0.19358166               -0.03307108                0.00693688                0.13853479
              10.07095969                6.99323780                3.96327305                0.99159240                0.17857947                0.15087028               -0.79239748               -0.04047463                0.02395010               -0.13049243
               0.07056831                8.00589948                4.03487705                0.99725206               -0.13165584               -0.18917723                0.81816661               -0.07252579                0.05411796                0.19965933
               1.06925175                8.00670296                4.00032841                0.64883654                0.02464685                0.00980941               -0.05668729               -0.07402801                0.15951924               -0.01911411
               2.07106124                8.00644245                3.96748044                0.02593482                0.44662056                0.20546486               -0.97767960               -0.18901192                1.85121078               -0.19127070
               3.07818416                8.00322499                3.96597181                0.00010000                0.48883082                0.22392356               -0.76376429               -0.09421447                4.58407989               -1.08282322
               4.08083786                8.00372744                3.97697603                0.00010000                0.27017612                0.17655053               -0.65043836                0.18018884                4.89075334               -0.28776922
               5.08358768                8.00115041                3.99048748                0.00010000                0.09984719                0.09348348               -0.34185440                0.08350776                4.73585326               -0.11485169
               6.08283480                7.99846012                4.00324224                0.00010000               -0.26638042                0.06765357                0.08818165                0.06982939                4.73403409                0.03048342
               7.07826007                7.99608423                4.01802669                0.00010000               -0.60064847               -0.00651136                0.40853725                0.03557067                5.01619746                0.15560230
               8.07082184                7.99516194                4.03562867                0.27651102               -0.43376840               -0.10217314                0.53378752               -0.04112679                2.57321414                0.26048182
               9.06958471                7.99430607                4.00261246                0.79971618               -0.00068686                0.00653693                0.00339148               -0.04645452                0.02554526                0.13387184
              10.07080810                7.99462391                3.96916853                0.94533550                0.12233919                0.13810441               -0.67995621               -0.04832495                0.01779704               -0.08773589
               0.06811939                9.00407898                4.03020600                0.98091523               -0.07841808               -0.17868120                0.70985423               -0.05956568                0.09232277                0.15193169
               1.06733521                9.00713085                3.99497015                0.71358679                0.09279030                0.08589440               -0.29370745               -0.04626696                0.24631188                0.00710860
               2.06997519                9.00927660                3.96219249                0.14652911                0.45772600                0.37901703               -1.37682409               -0.20963052                1.40184596               -0.07026324
               3.07648973                9.00758129                3.94839814                0.00010000                0.66418026                0.61819913               -1.96262405               -0.29362404                4.67045225               -0.89186265
               4.08325880                9.00563795                3.97316697                0.00010000                0.52483113                0.12999917               -0.79277400                0.00986511                5.76029676               -0.18356874
               5.08698635                9.00200596                3.98926115                0.00010000                0.13583726                0.09103516               -0.36482718                0.02370634                5.12804145               -0.06560156
               6.08597554                8.99926092                4.00476613                0.00010000               -0.35670850                0.07736129                0.15433242                0.01421845                5.13342147                0.03148142
               7.07985218                8.99599716                4.02202486                0.00010000               -0.76368575                0.06781581                0.53932887               -0.07458748                5.35754019                0.07688630
               8.07070183                8.99352187                4.04137041                0.29265068               -0.55346732               -0.26190982                0.93359433               -0.18669450                2.85391480                0.10440947
               9.06878283                8.99408476                4.00940043                0.84607641               -0.06721645               -0.06498024                0.22274688               -0.04934853                0.14175147                0.09438497
              10.06935750                8.99599988                3.97484189                0.92166753                0.05746669                0.13706607               -0.56450510               -0.05113842                0.01227192               -0.07743248
               0.06327326               10.00232585                4.02470627                0.98621271               -0.01444729               -0.17531254                0.53352241                0.12488637                0.19363419                0.12206211
               1.06312879               10.00842085                3.98944251                0.89865180                0.15724671                0.12899996               -0.51691208                0.16420483                0.37567919                0.01451422
               2.06641819               10.01402279                3.95718995                0.62159869                0.64107729                0.47461889               -1.60339312                0.00270630                1.50259032               -0.01179687
               3.07595033               10.01558897                3.94268060                0.30877284                1.00961507                0.80076857               -2.23296682               -0.43870788                4.90748040               -0.28558549
               4.08661049               10.00632742                3.97005722                0.29813756                0.72442519                0.06894739               -0.89199470               -0.29572346                6.11977856               -0.14335349
               5.09043884               10.00297111                3.98860303                0.31947686                0.12587348                0.09651568               -0.36208128                0.02924490                5.45184676               -0.03024458
               6.08912796               10.00000735                4.00585482                0.36641205               -0.39657266                0.07464262                0.21728909                0.03871378                5.43623264                0.03758698
               7.08250738                9.99744055                4.02476262                0.45472849               -1.00638055                0.14433828                0.65357405               -0.23865992                5.72388113                0.07278058
               8.06900035                9.98992375                4.04644283                0.64688519               -0.81938323               -0.35981202                1.22755869               -0.39185185                3.11756917               -0.04051939
               9.06611972                9.99300646                4.01566793                0.95363745               -0.15226388               -0.10782944                0.46232288                0.10576279                0.28381627                0.06734399
              10.06595508                9.99736523                3.98068795                0.96407858               -0.01646422                0.13653488               -0.36530490                0.09563457                0.07895174               -0.08008690
               0.05579859                0.04143641                5.08730935                1.00000000               -0.43081293               -0.49283037                1.68641667               -0.09818716               -0.26302240                0.31310309
               1.05149046                0.02862612                5.06312952                1.00000000               -0.35445326               -0.36446911                1.26370807               -0.07561895               -0.29056702               -0.01417013
               2.04870953                0.01556667                5.03827928                0.96512417               -0.19528583               -0.24740980                0.83960815               -0.05799078               -0.25331936               -0.18039027
               3.04758474                0.00286279                5.01482733                0.50629890                0.22341596               -0.15362670                0.43759494                0.22325992                0.39500364               -0.16619134
               4.05317784               -0.00394062                5.00288307                0.47521970                0.49616322               -0.22237637                0.20861689                0.07878133                1.12724951               -0.01696788
               5.05750801               -0.00663610                4.99246227                0.50325591                0.27107457               -0.03912664               -0.12916915               -0.01775071                1.07837232                0.00446085
               6.05859934               -0.00887557                4.97974879                0.54921993                0.03651227                0.14431622               -0.50628336                0.01228900                0.95619774                0.02957669
               7.05823825               -0.01393797                4.96649930                0.73640262                0.05493618                0.26003593               -0.82389542                0.07513154                0.63761369                0.02670443
               8.05969806               -0.02246246                4.94698636                1.00000000                0.25338128                0.33913833               -1.14855570                0.00103594                0.13117056                0.23842718
               9.06330588               -0.03227635                4.92366075                1.00000000                0.42718894                0.43139485               -1.50133761               -0.05748721               -0.10130828                0.02712153
              10.06824184               -0.04195596                4.89955189                1.00000000                0.49359583                0.54375267               -1.86161871               -0.08269718               -0.14729250               -0.17467468
               0.06762702                1.03650811                5.07997742                1.00000000               -0.39578713               -0.47043646                1.55304443               -0.04430872               -0.00509010                0.43276169
               1.06366914                1.02498143                5.05541765                1.00000000               -0.33078686               -0.34087360                1.12592875               -0.02945373                0.05341312               -0.01535054
               2.06101128                1.01309257                5.03183553                0.62623059               -0.20490779               -0.22052922                0.71852363               -0.01451583                0.25802570               -0.41189657
               3.05957099                1.00132653                5.01140274                0.00010000               -0.11480874               -0.14099843                0.34886501                0.22853203                0.99750195               -0.46815924
               4.05871510                0.99383561                5.00281765                0.00010000                0.01134929               -0.02693303                0.17996945                0.52663468                1.54140368               -0.29711643
               5.05979797                0.99297264                4.99421798                0.00010000                0.18290289               -0.00775282               -0.12402915                0.66760144                1.40646685               -0.18791634
               6.06237316                0.99256759                4.98323530                0.00010000                0.29925216                0.02509112               -0.46961214                0.54279846                1.24470706               -0.03299945
               7.06578302                0.98866239                4.97133499                0.19255995                0.32522250                0.26980551               -0.74445030                0.29876069                1.04973869                0.33428670
               8.06887761                0.98092892                4.95567903                1.00000000                0.33473681                0.31236601               -1.01824285                0.05678685                0.50827105                0.28917833
               9.07247775                0.97203759                4.93215638                1.00000000                0.41084280                0.40717486               -1.36463788               -0.01156446                0.08691127                0.07110462
              10.07709447                0.96348157                4.90797848                1.00000000                0.46167137                0.52386241               -1.72524299               -0.03079083                0.04669049               -0.20728528
               0.07796578                2.03202768                5.07482967                1.00000000               -0.36488584               -0.42306263                1.44281533               -0.05745781                0.04196398                0.55834393
               1.07431693                2.02180864                5.04766232                1.00000000               -0.29458390               -0.29282821                0.98354689               -0.04653780                0.07443188               -0.02855307
               2.07207411                2.01115608                5.02088256                0.23565852               -0.14522928               -0.16757085                0.53607639               -0.04419012                0.50496058               -0.66822064
               3.07141234                2.00004283                5.00237108                0.00010000               -0.00048386               -0.10696693                0.19108176                0.36708456                1.60657462               -0.90466286
               4.07206443                1.99552072                4.99748242                0.00010000                0.03578583                0.16218659               -0.00258856                0.88497178                2.20392891               -0.50443904
               5.07212806                1.99320885                4.99220894                0.00010000                0.08505605                0.06090095               -0.15983608                0.99695529                2.04818952               -0.33215023
               6.07376555                1.99162625                4.98575592                0.00010000                0.18620429               -0.01815080               -0.43217562                0.98861637                2.14476854               -0.07562755
               7.07585214                1.99145814                4.98253636                0.00010000                0.18465210                0.07150533               -0.52824307                0.54966483                1.64145355                0.21589142
               8.07745859                1.98378486                4.96523197                0.40711398                0.23348983                0.25547886               -0.85946593                0.01413374                0.63234759                0.54797211
               9.08052194                1.97586714                4.94152877                1.00000000                0.36397375                0.35694006               -1.22212627               -0.02499831                0.22244867                0.24937648
              10.08473807                1.96852129                4.91595524                1.00000000                0.42161281                0.48076841               -1.59731783               -0.03804284                0.12025944               -0.21995537
               0.08691594                3.02804686                5.06993046                1.00000000               -0.33059497               -0.37347225                1.32935635               -0.06064447                0.04150663                0.55912029
               1.08360999                3.01912486                5.03967265                1.00000000               -0.25113218               -0.24308167                0.82879348               -0.04757410                0.05299642               -0.03931908
               2.08189330                3.00974115                5.00935559                0.04672801               -0.05309716               -0.11433498                0.32918012               -0.07549311                0.63807986               -0.65965623
               3.08254805                2.99918719                4.99091459                0.00010000                0.06776121                0.09013243               -0.05449818                0.39139275                2.24155449               -0.49572015
               4.08324852                2.99707935                4.99325105                0.00010000                0.05417484                0.15137331               -0.13498287                0.79925537                2.97958229               -0.38124308
               5.08363154                2.99419066                4.99115719                0.00010000                0.03238371                0.11716245               -0.23720850                0.83160903                2.66033215               -0.25011865
               6.08389619                2.99220458                4.98845573                0.00010000                0.04930850                0.06388422               -0.32182844                0.78436963                2.52511423               -0.04372136
               7.08461771                2.99009250                4.98434838                0.00010000                0.04275458               -0.05238336               -0.43976068                0.54063625                2.41143500                0.02437698
               8.08475129                2.98603850                4.97893853                0.19555088                0.13118196                0.20871912               -0.60743353                0.13924649                1.36856762                0.88157092
               9.08724135                2.97917639                4.95350460                1.00000000                0.31370130                0.30959846               -1.04603371               -0.02779243                0.19011837                0.33222838
              10.09102531                2.97309694                4.92428181                1.00000000                0.37839594                0.42343892               -1.45374614               -0.03624305               -0.01249993               -0.20509125
               0.09459689                4.02455824                5.06497252                1.00000000               -0.29257390               -0.32980296                1.21513221               -0.05839112                0.04593767                0.52584015
               1.09167115                4.01694701                5.03177544                1.00000000               -0.20474851               -0.19363195                0.66960374               -0.04189835                0.05839955               -0.03755947
               2.09050192                4.00886938                4.99852437                0.00010000                0.01154272               -0.05799367                0.12401712                0.04260464                1.28422940               -0.58839818
               3.09190200                4.00184547                4.99000732                0.00010000                0.12720768                0.24775704               -0.21320376                0.37806510                2.86951813               -0.04139340
               4.09304607                3.99854818                4.99020554                0.00010000                0.08665013                0.15938716               -0.23257942                0.61539761                3.25657802               -0.27423731
               5.09363501                3.99555209                4.99076228                0.00010000                0.02525153                0.13542832               -0.25633840                0.65667546                3.20823669               -0.18177052
               6.09355110                3.99290394                4.99117484                0.00010000               -0.04020278                0.08244114               -0.26453156                0.63990202                3.19072182                0.00255539
               7.09283095                3.99041047                4.99204963                0.00010000               -0.11957384                0.05611160               -0.28970673                0.51892374                3.32445009                0.34713310
               8.09115962                3.98795924                4.99497770                0.19369152                0.00383496                0.16877514               -0.35441670                0.17790656                1.77287911                0.86154454
               9.09290765                3.98205911                4.96420933                1.00000000                0.25062471                0.26102911               -0.85436485               -0.02566447                0.05092103                0.24962284
              10.09617212                3.97699007                4.93264846                1.00000000                0.32644698                0.35496765               -1.28682920               -0.03744557                0.00009908               -0.22650434
               0.10097057                5.02145080                5.05982755                1.00000000               -0.25096950               -0.29634478                1.10457951               -0.05899298                0.06129276                0.47172793
               1.09846088                5.01525222                5.02399336                0.92403990               -0.15618238               -0.14555671                0.51067550               -0.03949273                0.08610454               -0.05339127
               2.09784693                5.00858128                4.98833147                0.00010000                0.09848353               -0.00052961               -0.07555518                0.10848362                1.79925985               -0.53514361
               3.10043055                5.00414233                4.98694624                0.00010000                0.20014629                0.17838527               -0.19806988                0.36109414                3.54110435               -0.29061372
               4.10184985                5.00026709                4.98765261                0.00010000                0.09893741                0.16813691               -0.26953305                0.45945516                3.67966976               -0.27743611
               5.10240930                4.99689922                4.99057618                0.00010000               -0.00069979                0.13759227               -0.25484963                0.49165969                3.77305135               -0.16033908
               6.10183586                4.99385340                4.99467227                0.00010000               -0.12342043                0.09947655               -0.19509323                0.48157916                3.86057311                0.05577165
               7.09994089                4.99121473                5.00021896                0.00010000               -0.25875380                0.08085515               -0.14536166                0.43551883                4.03082615                0.35304034
               8.09666078                4.98941400                5.00776841                0.20570501               -0.11218285                0.11578621               -0.13487439                0.16530894                2.10059674                0.66752664
               9.09769723                4.98439698                4.97434106                0.99127089                0.18768514                0.20173917               -0.64527576               -0.02406232                0.03555524                0.20256283
              10.10041448                4.98019629                4.94040547                1.00000000                0.27172509                0.29111652               -1.11133376               -0.03832352                0.00281561               -0.24872648
               0.10581418                6.01863134                5.05435576                1.00000000               -0.20633671               -0.26627211                0.99503783               -0.06339527                0.06611144                0.41442333
               1.10375081                6.01403588                5.01599819                0.74397644               -0.10163485               -0.09728531                0.33935435               -0.04622112                0.12551288               -0.08848676
               2.10378148                6.00885879                4.97847553                0.00010000                0.18436319                0.05220982               -0.29708543                0.08224861                2.11741053               -0.54061591
               3.10743808                6.00541318                4.98013837                0.00010000                0.28483999                0.13283636               -0.25912722                0.28299038                4.11001206               -0.47973470
               4.10947828                6.00191092                4.98398391                0.00010000                0.12219055                0.16761150               -0.27380287                0.33340000                4.29557128               -0.35816992
               5.10988189                5.99830394                4.99008750                0.00010000               -0.03055526                0.14430037               -0.24852845                0.33349426                4.38464305               -0.16924429
               6.10886718                5.99489347                4.99807463                0.00010000               -0.19505794                0.10155110               -0.12174066                0.33330556                4.50253764                0.05821762
               7.10598073                5.99202758                5.00783838                0.00010000               -0.37918109                0.06764894                0.00032700                0.32278688                4.67989879                0.31712324
               8.10128356                5.99027496                5.01963064                0.22256324               -0.21683089                0.05382830                0.08008469                0.11949299                2.41689094                0.59035086
               9.10164411                5.98609389                4.98396490                0.89161892                0.12617318                0.13939350               -0.43558830               -0.02508261                0.03931507                0.17469835
              10.10380702                5.98281240                4.94793214                1.00000000                0.21629083                0.23329486               -0.94458236               -0.03473779                0.01344698               -0.24333913
               0.10889360                7.01612536                5.04862273                1.00000000               -0.15845932               -0.23137471                0.87981726               -0.06688073                0.04729125                0.37728349
               1.10730901                7.01330652                5.00767474                0.64320898               -0.03895028               -0.04738012                0.14436045               -0.05912496                0.13046066               -0.09791258
               2.10811460                7.00962548                4.96801900                0.00010000                0.28646092                0.11658210               -0.57302975                0.02039414                2.37091465               -0.53464056
               3.11303823                7.00679906                4.97212534                0.00010000                0.37562477                0.20763858               -0.41735492                0.12117601                4.61097114               -0.71721567
               4.11562709                7.00361932                4.97881014                0.00010000                0.15292037                0.19043564               -0.33280554                0.16385699                4.89199255               -0.43517427
               5.11609663                6.99978523                4.98899089                0.00010000               -0.04243804                0.14745429               -0.25267219                0.18077373                5.02303778               -0.17074472
               6.11477833                6.99588442                5.00107477                0.00010000               -0.25407502                0.09551055               -0.04927295                0.18479395                5.12819064                0.05005469
               7.11101513                6.99256771                5.01494734                0.00010000               -0.48970043                0.03601738                0.15054864                0.18508178                5.29947865                0.27957658
               8.10498432                6.99049057                5.03086664                0.24234346               -0.31784960               -0.02050501                0.30536731                0.04840815                2.72959350                0.51434714
               9.10465814                6.98718485                4.99333836                0.81856315                0.06491965                0.08056476               -0.23001104               -0.03169682                0.04652230                0.16250342
              10.10628271                6.98486219                4.95525571                0.99273981                0.16245730                0.18501536               -0.79471204               -0.03695532                0.00903269               -0.22788296
               0.11011424                8.01400385                5.04281520                0.99128639               -0.10460514               -0.19636150                0.75650948               -0.06653806                0.04507884                0.36147620
               1.10906819                8.01308827                4.99955184                0.62369021                0.02912901                0.01280567               -0.07822023               -0.05984956                0.14453525               -0.07429048
               2.11069682                8.01119043                4.95788355                0.00544560                0.33997800                0.22652645               -0.92069276               -0.01652352                2.30133731               -0.45481384
               3.11586775                8.00956595                4.95811724                0.00010000                0.45362126                0.34803414               -0.67818628               -0.23688550                4.94470718               -1.33773614
               4.11976925                8.00571963                4.97211647                0.00010000                0.26822523                0.18903623               -0.48243643               -0.08806422                5.66971212               -0.44086200
               5.12123226                8.00125303                4.98755321                0.00010000                0.00056637                0.12857172               -0.27197093                0.04558755                5.66878236               -0.13895344
               6.11978058                7.99680368                5.00363181                0.00010000               -0.30780179                0.10283731                0.01955548                0.06032069                5.71709046                0.04281049
               7.11507622                7.99274792                5.02145349                0.00010000               -0.60729993                0.01635063                0.30699555                0.01365954                5.88640429                0.21793035
               8.10763458                7.98986486                5.04132426                0.26406357               -0.42188356               -0.12737832                0.57190448               -0.05323978                3.04774906                0.41510229
               9.10663855                7.98770519                5.00245872                0.80208737                0.00393249                0.01906155               -0.02700047               -0.03523238                0.07215834                0.15770888
              10.10771323                7.98651271                4.96246128                0.94215873                0.10746780                0.15538518               -0.65684629               -0.04285166                0.00697578               -0.22242657
               0.10939399                9.01219813                5.03695802                0.97514367               -0.04685574               -0.17007152                0.62763249               -0.05485095                0.06593364                0.29292449
               1.10892543                9.01356263                4.99166610                0.67896595                0.09562293                0.08923887               -0.32319123               -0.03066577                0.19658732               -0.05631179
               2.11130645                9.01415601                4.94857742                0.09548538                0.24229414                0.35282521               -1.28626308               -0.04756414                1.74462039               -0.29697816
               3.11377131                9.01375974                4.93473811                0.00010000                0.54361415                0.33840312               -0.99304496               -0.42636396                5.19996127               -1.08880106
               4.12217873                9.00740004                4.96583604                0.00010000                0.60765113                0.09243382               -0.67220500               -0.23854090                6.85674040               -0.32371797
               5.12592434                9.00235666                4.98624248                0.00010000                0.11555568                0.09827884               -0.29116615               -0.00676446                6.24057249               -0.07277350
               6.12448984                8.99794117                5.00576844                0.00010000               -0.38485977                0.11131575                0.08090408               -0.00172853                6.23254757                0.03103489
               7.11822714                8.99289472                5.02691687                0.00010000               -0.77637926                0.09028680                0.45808618               -0.12542232                6.43667759                0.11646999
               8.10896226                8.98794300                5.05091972                0.28126208               -0.54607470               -0.24040180                0.90835320               -0.21781442                3.40373308                0.26413402
               9.10730565                8.98756608                5.01149748                0.84738270               -0.05758076               -0.05418820                0.19215784               -0.02213231                0.12472003                0.13941065
              10.10781064                8.98796989                4.96947049                0.91847668                0.05049963                0.13637303               -0.51507227               -0.04491939               -0.00945119               -0.18941557
               0.10628822               10.01060242                5.02968966                0.98422277                0.02087803               -0.15957066                0.45051712                0.11648616                0.24228629                0.24058896
               1.10649700               10.01487305                4.98385974                0.87968704                0.16301068                0.13104226               -0.54628841                0.13938257                0.44061346               -0.05478827
               2.10954843               10.01824694                4.94160572                0.58128279                0.37997182                0.40909329               -1.48061151               -0.10275356                1.98256824               -0.22772270
               3.11409643               10.01633401                4.92711453                0.30492003                0.84265381                0.25742739               -1.20418770               -0.50141934                5.49327755               -0.61085769
               4.12640151               10.00756831                4.96175473                0.29835026                0.82297038                0.01682672               -0.74806427               -0.23349282                7.32289439               -0.26203893
               5.13055584               10.00321860                4.98562817                0.32069085                0.14032208                0.08619396               -0.29472168                0.03623478                6.66816986               -0.03636294
               6.12920795                9.99903000                5.00742562                0.36722464               -0.39949482                0.10888266                0.13463408                0.03856339                6.63869574                0.03665682
               7.12256595                9.99455366                5.03093637                0.45403127               -1.03005088                0.16589404                0.58100906               -0.26477806                6.91997278                0.07222701
               8.10860693                9.98505683                5.05850474                0.64433856               -0.81984676               -0.28861721                1.13214232               -0.43214444                3.80698126                0.21098364
               9.10616901                9.98662143                5.02010622                0.95225727               -0.12998604               -0.09446520                0.41509965                0.09550338                0.32127404                0.13096761
              10.10600721                9.98924017                4.97721800                0.96314970               -0.01617993                0.12702761               -0.32880159                0.08153099                0.09927366               -0.16073159
               0.07927447                0.05278169                6.10398565                1.00000000               -0.42432926               -0.48162901                1.64820125               -0.09159606               -0.30201094                0.35597214
               1.07503118                0.03689136                6.07575649                1.00000000               -0.35077976               -0.36214677                1.25825302               -0.06835315               -0.33274821               -0.01328103
               2.07225888                0.02071339                6.04677835                0.98229980               -0.19356374               -0.25168163                0.85454562               -0.05309646               -0.28415099               -0.19636721
               3.07115991                0.00493900                6.01948455                0.52867228                0.26012966               -0.17055842                0.48218481                0.26676275                0.45114155               -0.19751079
               4.07746147               -0.00394862                6.00515301                0.51623944                0.52108226               -0.22752587                0.23406473                0.05984310                1.17729333               -0.02056160
               5.08158155               -0.00839474                5.99124067                0.55090086                0.26520001               -0.03705408               -0.11762615               -0.01809757                1.04244374                0.00268972
               6.08276547               -0.01227504                5.97472288                0.58612060                0.05084693                0.13083517               -0.49549382                0.00605676                0.91885417                0.02332061
               7.08259849               -0.01889115                5.95824800                0.76366859                0.06304093                0.25182035               -0.82505127                0.07208931                0.62062048                0.02780610
               8.08402629               -0.02925413                5.93542744                1.00000000                0.25061227                0.34336099               -1.15788833                0.01284961                0.10227058                0.26445116
               9.08761074               -0.04115722                5.90867191                1.00000000                0.42304199                0.42990259               -1.49529398               -0.05261797               -0.13783554                0.03000087
              10.09248713               -0.05295428                5.88111978                1.00000000                0.48763946                0.53391495               -1.82993091               -0.07940006               -0.18307588               -0.20576253
               0.09424885                1.04796540                6.09527750                1.00000000               -0.38670449               -0.46211784                1.50880185               -0.04117014               -0.01023916                0.49002796
               1.09038180                1.03326989                6.06663066                1.00000000               -0.32723778               -0.33894824                1.11560502               -0.02431814                0.05528504               -0.01304411
               2.08770409                1.01819657                6.03912538                0.65942209               -0.21116327               -0.22335567                0.73547264               -0.01269920                0.28256894               -0.45288184
               3.08615854                1.00323342                6.01506114                0.00010000               -0.14886575               -0.16014467                0.37659794                0.28961061                1.13456484               -0.51817742
               4.08472678                0.99377612                6.00482129                0.00010000               -0.02973741               -0.02952730                0.20701870                0.59650042                1.68309305               -0.34784961
               5.08556379                0.99123472                5.99306378                0.00010000                0.16737340               -0.00747420               -0.11116532                0.71551076                1.43908542               -0.18233339
               6.08807424                0.98903331                5.97856369                0.00010000                0.31225688                0.01417005               -0.46104662                0.58626969                1.27978514               -0.06083050
               7.09180893                0.98362705                5.96384717                0.22080047                0.36067882                0.27705135               -0.74817032                0.34961199                1.10924243                0.39662138
               8.09528782                0.97417948                5.94538834                1.00000000                0.35628547                0.31723673               -1.03194302                0.08297246                0.53905297                0.32356959
               9.09893464                0.96314181                5.91854313                1.00000000                0.41011881                0.40734038               -1.35649723               -0.00745759                0.08478264                0.07425786
              10.10349020                0.95238486                5.89092049                1.00000000                0.45555612                0.51414163               -1.69121519               -0.03013334                0.04075135               -0.24240109
               0.10784209                2.04353933                6.08902648                1.00000000               -0.35284446               -0.42264763                1.39835548               -0.05213983                0.04028295                0.63120588
               1.10431365                2.03011239                6.05744762                1.00000000               -0.29003641               -0.29299436                0.97348594               -0.03953713                0.07761464               -0.02984518
               2.10204136                2.01624627                6.02639811                0.25946647               -0.14705413               -0.16747737                0.56432032               -0.04823539                0.55826962               -0.75098564
               3.10137257                2.00173611                6.00448213                0.00010000               -0.03255908               -0.11842585                0.22472615                0.42857692                1.77530357               -1.00650415
               4.10139018                1.99546084                5.99787281                0.00010000               -0.03689924                0.16248564                0.10534235                1.01281861                2.46463616               -0.62139136
               5.10063458                1.99145577                5.99109143                0.00010000                0.03541735                0.05449829               -0.00710079                1.09629716                2.17838573               -0.34796319
               6.10209853                1.98800836                5.98095321                0.00010000                0.19049880               -0.00912204               -0.56109937                1.09855939                2.29672804               -0.08244805
               7.10444456                1.98664988                5.97700625                0.00010000                0.20362272                0.07504329               -0.56097667                0.64275073                1.81124309                0.26602568
               8.10617098                1.97709061                5.95647939                0.40056241                0.24058229                0.26652294               -0.88063369                0.05118548                0.66632636                0.62364826
               9.10925620                1.96698959                5.92934291                1.00000000                0.36136826                0.36383969               -1.21304297               -0.01104287                0.23479640                0.26890128
              10.11339835                1.95732855                5.90017056                1.00000000                0.41421471                0.47206626               -1.56367809               -0.03319727                0.12686034               -0.25507583
               0.12005993                3.03951245                6.08301467                1.00000000               -0.31758134               -0.38305253                1.28834143               -0.05558620                0.03662265                0.63798797
               1.11688412                3.02741000                6.04794036                1.00000000               -0.24721336               -0.24650946                0.82352321               -0.04165115                0.04561590               -0.04450767
               2.11511566                3.01484702                6.01280922                0.05826603               -0.06843037               -0.11113366                0.35873335               -0.08392607                0.68550395               -0.75619719
               3.11551551                3.00086490                5.99062115                0.00010000                0.00739097                0.10381750               -0.00313521                0.41799212                2.50004165               -0.60888569
               4.11526348                2.99702584                5.99213848                0.00010000               -0.02866517                0.16262118               -0.08501907                0.89421870                3.33834350               -0.47989739
               5.11494221                2.99232468                5.98891721                0.00010000               -0.02060778                0.12406310               -0.21618354                0.94625030                2.99669448               -0.32391480
               6.11485133                2.98885087                5.98512272                0.00010000                0.03197417                0.07852312               -0.32711393                0.89809109                2.84217540                0.00340844
               7.11558169                2.98512792                5.97966457                0.00010000                0.05602435               -0.05841882               -0.48850689                0.63477686                2.65981791                0.04470409
               8.11597182                2.97950994                5.97237146                0.18677610                0.14470731                0.22863904               -0.67714598                0.20420950                1.48536955                1.01650644
               9.11847584                2.97041860                5.94309582                1.00000000                0.30882590                0.31911268               -1.03493749               -0.01130258                0.19190889                0.36902282
              10.12214833                2.96182619                5.90992167                1.00000000                0.36724962                0.42117979               -1.42208149               -0.03500123               -0.01280093               -0.22732848
               0.13093526                4.03587828                6.07693778                1.00000000               -0.27892101               -0.34704823                1.17738198               -0.05392278                0.03923920                0.61616849
               1.12814605                4.02518220                6.03847957                1.00000000               -0.20136583               -0.19929720                0.66870819               -0.03674759                0.04874330               -0.04069162
               2.12690794                4.01402360                5.99996421                0.00010000               -0.02962276               -0.05316316                0.15972925                0.04097492                1.37635421               -0.68109324
               3.12755359                4.00381246                5.98818131                0.00010000                0.04534170                0.28945243               -0.17736444                0.40626326                3.22488813               -0.04960613
               4.12781478                3.99871326                5.98802144                0.00010000                0.00904797                0.18556761               -0.20605522                0.71686891                3.73201242               -0.31597453
               5.12773455                3.99393703                5.98825268                0.00010000               -0.02788306                0.16146734               -0.24609534                0.76154064                3.67106628               -0.20684972
               6.12725712                3.98957882                5.98838699                0.00010000               -0.06267665                0.09314795               -0.28696053                0.74637791                3.63334433                0.01041314
               7.12648102                3.98548150                5.98882310                0.00010000               -0.11463125                0.06481209               -0.34135555                0.63370379                3.71907273                0.39948716
               8.12496449                3.98166339                5.99103337                0.18579479                0.01164411                0.18300211               -0.41114645                0.24356703                1.93114544                0.99612292
               9.12671390                3.97337184                5.95569541                1.00000000                0.24593287                0.26733585               -0.84757792               -0.01751753                0.02997610                0.29466513
              10.12988315                3.96575214                5.91990718                1.00000000                0.31692451                0.36313519               -1.26296078               -0.03524118               -0.00095555               -0.24216794
               0.14037364                5.03257148                6.07068604                1.00000000               -0.23697865               -0.31545515                1.06545493               -0.05497638                0.05952253                0.57612975
               1.13800385                5.02342406                6.02911318                0.90785561               -0.15343650               -0.15100846                0.51141976               -0.03639121                0.08534457               -0.05871856
               2.13730491                5.01378376                5.98780333                0.00010000                0.04736334                0.00533858               -0.03323427                0.12323378                2.01657829               -0.64070120
               3.13895112                5.00665395                5.98501261                0.00010000                0.10856905                0.23615590               -0.18553743                0.41258647                3.98414813               -0.26631747
               4.13947629                5.00073719                5.98507564                0.00010000                0.01781711                0.20940242               -0.25317766                0.54878298                4.17959119               -0.28171544
               5.13930746                4.99555403                5.98807828                0.00010000               -0.06209323                0.16948946               -0.24957701                0.58900076                4.32210186               -0.16608215
               6.13823442                4.99071383                5.99253348                0.00010000               -0.15681295                0.12238646               -0.22417682                0.57203100                4.40984935                0.07304602
               7.13617120                4.98642416                5.99843856                0.00010000               -0.26408051                0.09560392               -0.19763751                0.53270696                4.54098509                0.40991098
               8.13295281                4.98316998                6.00611220                0.19782948               -0.10672339                0.11815970               -0.18159870                0.21723755                2.32369840                0.77537614
               9.13403673                4.97576532                5.96784673                0.99086274                0.18650482                0.20806825               -0.64948978               -0.01957991                0.01809792                0.25206822
              10.13668291                4.96908889                5.92934493                1.00000000                0.26461768                0.30686648               -1.09807203               -0.03581973               -0.00031762               -0.27412980
               0.14813058                6.02956918                6.06408481                1.00000000               -0.19246334               -0.28113639                0.94920380               -0.05846254                0.06695676                0.52927823
               1.14620595                6.02216203                6.01937543                0.72686160               -0.09939280               -0.10006499                0.33664116               -0.04354824                0.13122276               -0.10766966
               2.14614272                6.01413037                5.97569893                0.00010000                0.13229734                0.06413623               -0.25785982                0.11568993                2.42719298               -0.68735877
               3.14885189                6.00853558                5.97709589                0.00010000                0.18738164                0.20628414               -0.30194420                0.34535507                4.70119557               -0.54978315
               4.14989036                6.00290131                5.98110051                0.00010000                0.03430173                0.22668508               -0.28959811                0.39348477                4.85759187               -0.38380712
               5.14953793                5.99732682                5.98774679                0.00010000               -0.10313768                0.18508279               -0.23693267                0.40313963                5.01690402               -0.17826007
               6.14782760                5.99202655                5.99665803                0.00010000               -0.24294629                0.13189718               -0.15199474                0.39762386                5.15503037                0.07827885
               7.14467900                5.98739358                6.00750711                0.00010000               -0.39297609                0.08398257               -0.05223251                0.39345603                5.30691020                0.37592823
               8.13996808                5.98402658                6.02025291                0.21435791               -0.21378042                0.04943304                0.04771388                0.15669347                2.71243065                0.70044945
               9.14040339                5.97753321                5.97951656                0.89416856                0.12757602                0.14724734               -0.44913854               -0.02292888                0.03153438                0.21930034
              10.14251960                5.97188947                5.93851601                1.00000000                0.21162079                0.25310514               -0.93563540               -0.03323728                0.01360827               -0.29001432
               0.15401868                7.02694875                6.05713809                1.00000000               -0.14469844               -0.23877327                0.82334349               -0.05929885                0.04723909                0.49637819
               1.15257169                7.02142276                6.00908570                0.62533182               -0.03867586               -0.04681224                0.14083062               -0.05070549                0.13334171               -0.13693829
               2.15324516                7.01506648                5.96250753                0.00010000                0.22577940                0.13286879               -0.52663042                0.08683738                2.76011896               -0.74179629
               3.15708728                7.01077963                5.96725717                0.00010000                0.26547878                0.26609583               -0.46616265                0.20989444                5.36565359               -0.84217005
               4.15855474                7.00527089                5.97526694                0.00010000                0.05788637                0.24915008               -0.34906922                0.16909126                5.58035316               -0.53307013
               5.15824501                6.99925568                5.98668588                0.00010000               -0.12172948                0.18964637               -0.23051729                0.19954739                5.76885120               -0.20499974
               6.15612015                6.99335177                6.00038444                0.00010000               -0.31023603                0.12980560               -0.07862495                0.21484271                5.89966761                0.06618568
               7.15204029                6.98810381                6.01611911                0.00010000               -0.50865476                0.05398670                0.09770803                0.22117872                6.05452039                0.34237093
               8.14594705                6.98415864                6.03386270                0.23404619               -0.31625119               -0.03078390                0.28616390                0.07049808                3.10146845                0.64626440
               9.14571526                6.97871027                5.99092252                0.81860319                0.06792908                0.08839604               -0.24926509               -0.02600919                0.04669499                0.19858841
              10.14730563                6.97415100                5.94737881                0.99246170                0.15903689                0.20355652               -0.78056243               -0.03478230                0.01286298               -0.30060968
               0.15799660                8.02479371                6.05000724                0.98598379               -0.09224893               -0.19428744                0.68667975               -0.05663121                0.04032333                0.48132058
               1.15707411                8.02122579                5.99876400                0.60070262                0.02629996                0.01369773               -0.07479627               -0.04650534                0.12864345               -0.13351253
               2.15852260                8.01678775                5.94906659                0.00010000                0.28856343                0.22741905               -0.84138095                0.05910687                2.83992331               -0.70292745
               3.16284538                8.01385749                5.95240809                0.00010000                0.31367674                0.30141710               -0.50581978               -0.13801887                5.96641437               -1.52977623
               4.16479613                8.00788431                5.96732730                0.00010000                0.13013090                0.21272220               -0.42499566               -0.12016214                6.51310996               -0.59101800
               5.16544799                8.00111975                5.98504806                0.00010000               -0.07599000                0.16099207               -0.24228214                0.01793696                6.57583479               -0.19470054
               6.16327633                7.99462266                6.00363335                0.00010000               -0.35761455                0.13680208               -0.00955255                0.05927636                6.62596575                0.05293375
               7.15829570                7.98847331                6.02416660                0.00010000               -0.62523710                0.03699381                0.25052434                0.00912026                6.79333058                0.28356888
               8.15077159                7.98341090                6.04706676                0.25592067               -0.42024224               -0.12672850                0.54767999               -0.04616759                3.49715913                0.58282675
               9.14989086                7.97930113                6.00207245                0.80342219                0.00854525                0.02575992               -0.04907002               -0.02195491                0.06300700                0.19158427
              10.15094249                7.97596060                5.95603160                0.94146562                0.10516353                0.16519273               -0.63201086               -0.03821175                0.00841441               -0.30671223
               0.16002190                9.02306300                6.04275865                0.97043330               -0.03743509               -0.15596803                0.54388481               -0.04751785                0.05294899                0.39437297
               1.15964755                9.02169671                5.98850632                0.64357829                0.08868438                0.08560059               -0.30543528               -0.02486254                0.17210906               -0.11780228
               2.16179559                9.01961486                5.93646723                0.04578664                0.17913938                0.33119987               -1.15813423               -0.02982804                2.46660083               -0.48924953
               3.16323034                9.01680797                5.92853724                0.00010000                0.35468219                0.23807465               -0.35482487               -0.36340169                6.60284850               -1.37557932
               4.16888924                9.00952533                5.95972287                0.00010000                0.43175267                0.06824738               -0.51656247               -0.22869192                7.87884110               -0.42317644
               5.17186539                9.00247553                5.98343783                0.00010000                0.05314387                0.11763662               -0.26088427               -0.03770843                7.31050222               -0.11434017
               6.16995211                8.99608781                6.00638421                0.00010000               -0.42154718                0.14017368                0.05070248               -0.01572452                7.28132083                0.03473523
               7.16343445                8.98884369                6.03118658                0.00010000               -0.78781155                0.11863863                0.39924365               -0.14658611                7.50585459                0.16778462
               8.15419588                8.98162408                6.05953748                0.27336054               -0.53539919               -0.22187560                0.81467851               -0.22098448                3.94069637                0.41346666
               9.15272647                8.97922546                6.01324359                0.84743292               -0.04867169               -0.04464057                0.15826418               -0.01140738                0.10626399                0.17601789
              10.15322245                8.97745485                5.96454045                0.91831374                0.04959815                0.13474893               -0.47967656               -0.03833603               -0.01416113               -0.25818078
               0.15977883               10.02167435                6.03371662                0.98247894                0.02461707               -0.13886524                0.36978961                0.10203706                0.28484934                0.32291352
               1.16002500               10.02293780                5.97851675                0.85970698                0.15179725                0.12410880               -0.51873254                0.12461407                0.50175424               -0.11123645
               2.16281477               10.02341174                5.92757772                0.54729872                0.28209378                0.37968793               -1.35072994               -0.11402253                2.78853052               -0.33286729
               3.16566687               10.01861899                5.91859685                0.30344757                0.58699849                0.18110120               -0.53581736               -0.46447102                7.10565324               -0.81256571
               4.17455474               10.00924926                5.95509594                0.29860564                0.62322364               -0.02760768               -0.55530896               -0.19077446                8.51709982               -0.25687847
               5.17813135               10.00347248                5.98270860                0.32138164                0.10194685                0.09969580               -0.27185745                0.03543925                7.84440479               -0.04631203
               6.17659368                9.99742614                6.00854750                0.36758209               -0.41518136                0.13383230                0.09788202                0.03283669                7.79359190                0.03831784
               7.16982772                9.99084608                6.03638280                0.45429526               -1.03117783                0.20023968                0.50871097               -0.28331023                8.10552585                0.11261544
               8.15597012                9.97897339                6.06908568                0.64207470               -0.79978922               -0.26506821                1.00258632               -0.44446422                4.45807087                0.29308028
               9.15383193                9.97840832                6.02396992                0.95116960               -0.11265619               -0.08171464                0.36138756                0.09465634                0.35623216                0.16574484
              10.15371700                9.97865558                5.97411191                0.96356395               -0.01149360                0.12007311               -0.30180554                0.07418160                0.12412790               -0.21021562
               0.10621670                0.06597216                7.12027337                1.00000000               -0.41739047               -0.47043198                1.61029355               -0.08607823               -0.34453479                0.40004786
               1.10204279                0.04661216                7.08829458                1.00000000               -0.34591264               -0.35827538                1.24694028               -0.06292852               -0.38469053               -0.01041993
               2.09929845                0.02694527                7.05537019                1.00000000               -0.19049394               -0.25300828                0.85962285               -0.04926493               -0.32706682               -0.20338611
               3.09823292                0.00775940                7.02447103                0.55034085                0.28345692               -0.17940027                0.50779229                0.30166203                0.47710290               -0.23256394
               4.10496758               -0.00368841                7.00756436                0.55281001                0.52770506               -0.21527547                0.24182006                0.04127779                1.18169210               -0.01768011
               5.10878702               -0.01022851                6.99010975                0.59233007                0.25007543               -0.02962693               -0.11036290               -0.01509103                0.98298221                0.00336947
               6.10996909               -0.01609077                6.96983891                0.61756395                0.05795419                0.12114262               -0.48205927                0.00405416                0.86168120                0.01525526
               7.10994610               -0.02458019                6.94999828                0.78571008                0.06752338                0.24167556               -0.82293854                0.06948951                0.57830568                0.02932199
               8.11131956               -0.03709522                6.92382859                1.00000000                0.24553669                0.34435920               -1.15780405                0.02238650                0.05987687                0.28209779
               9.11485683               -0.05141877                6.89375487                1.00000000                0.41825104                0.42705245               -1.48656592               -0.05042853               -0.17738237                0.03009670
              10.11968458               -0.06567263                6.86295327                1.00000000                0.48277474                0.52553959               -1.80646290               -0.07836779               -0.21873985               -0.23899237
               0.12471592                1.06126785                7.11015345                1.00000000               -0.37889595               -0.45287648                1.46877229               -0.03822097               -0.01813224                0.54920439
               1.12092696                1.04302941                7.07772975                1.00000000               -0.32418709               -0.33550653                1.10327582               -0.01989338                0.05104653               -0.00769727
               2.11823218                1.02441518                7.04654498                0.69389735               -0.21802920               -0.22463660                0.74463451               -0.00787297                0.29021191               -0.48134348
               3.11656638                1.00596540                7.01893470                0.00010000               -0.19289280               -0.17033374                0.39467970                0.34772236                1.23860037               -0.56565780
               4.11437432                0.99415883                7.00695803                0.00010000               -0.08645443               -0.02679425                0.21397196                0.66450428                1.78854296               -0.33931973
               5.11483729                0.98947522                6.99199468                0.04135374                0.14055758                0.03123315               -0.10496562                0.73950836                1.44843530               -0.07901258
               6.11718547                0.98512065                6.97401437                0.00378536                0.31529671               -0.02454810               -0.44897201                0.60887705                1.29637038               -0.17533600
               7.12114322                0.97783657                6.95637158                0.24636431                0.38886216                0.27707251               -0.74476126                0.39162227                1.14626321                0.44865778
               8.12496272                0.96634837                6.93504017                1.00000000                0.37490156                0.31849636               -1.03274368                0.10720468                0.55811385                0.35047201
               9.12864125                0.95285176                6.90502644                1.00000000                0.40960243                0.40556206               -1.34577714               -0.00478715                0.08343952                0.07533875
              10.13315476                0.93958277                6.87415417                1.00000000                0.45135125                0.50456157               -1.66558307               -0.03012992                0.03662528               -0.28048522
               0.14192915                2.05691464                7.10279678                1.00000000               -0.34315616               -0.41862674                1.35815020               -0.04720648                0.03763895                0.70817953
               1.13849759                2.03990203                7.06713204                1.00000000               -0.28620778               -0.29133246                0.96295046               -0.03306557                0.08144039               -0.02536523
               2.13620500                2.02245253                7.03216896                0.28367381               -0.15269383               -0.16820392                0.58611533               -0.04294464                0.59798044               -0.82314490
               3.13544371                2.00435273                7.00686561                0.00010000               -0.07285709               -0.13275525                0.24932172                0.49882056                1.97198262               -1.09848127
               4.13474785                1.99577570                6.99958927                0.00010000               -0.14141750                0.15869666                0.30791352                1.16942135                2.73505341               -0.69593059
               5.13261536                1.99039615                6.99206692                0.00010000               -0.04812845                0.05379422                0.14270726                1.16932358                2.03935029               -0.35192682
               6.13378529                1.98341826                6.97453394                0.00010000                0.19677336               -0.01408425               -0.63092424                1.16859940                2.23265058               -0.07995855
               7.13655083                1.98096126                6.97131683                0.00010000                0.23315903                0.06665819               -0.57757637                0.76392773                2.03490143                0.29763254
               8.13844847                1.96927470                6.94761929                0.39359708                0.24879315                0.27331370               -0.88518260                0.08979571                0.69748336                0.67911714
               9.14152669                1.95669247                6.91726791                1.00000000                0.35857480                0.36762960               -1.20105750                0.00159829                0.25168116                0.28742984
              10.14561996                1.94441860                6.88468168                1.00000000                0.40932681                0.46154954               -1.53745281               -0.02924495                0.13566784               -0.29329200
               0.15779699                3.05289531                7.09569728                1.00000000               -0.30692443               -0.38522001                1.24969179               -0.05080776                0.03259575                0.71982061
               1.15472775                3.03720276                7.05614312                1.00000000               -0.24372030               -0.24708360                0.81634633               -0.03611051                0.03933591               -0.04419210
               2.15292259                3.02105110                7.01653026                0.07190108               -0.07540660               -0.10995615                0.38278098               -0.08850970                0.73025469               -0.84609036
               3.15321962                3.00331030                6.99085189                0.00010000               -0.06016305                0.10545799                0.04249506                0.45902432                2.73568330               -0.73162737
               4.15171933                2.99733276                6.99155067                0.00010000               -0.13192113                0.17579163               -0.04230825                1.00539470                3.65061163               -0.61146121
               5.15058120                2.99055110                6.98683352                0.00010000               -0.08634892                0.09289394               -0.18432417                1.07908077                3.28598246               -0.47259191
               6.14999235                2.98483897                6.98191345                0.00010000               -0.00079294                0.11415869               -0.32477145                1.02404572                3.10229251                0.10569286
               7.15056534                2.97916973                6.97457824                0.00010000                0.05175350               -0.06675196               -0.51627837                0.74954352                2.85963151                0.04753431
               8.15102742                2.97181464                6.96539561                0.17757343                0.14819916                0.24331237               -0.71082428                0.27481875                1.60496120                1.13189465
               9.15352932                2.96020435                6.93280586                1.00000000                0.30450937                0.32545186               -1.02282214                0.00528946                0.21316239                0.40530963
              10.15711761                2.94881376                6.89584018                1.00000000                0.35882869                0.41524254               -1.39704310               -0.03358323               -0.01320266               -0.25293964
               0.17229810                4.04921024                7.08852015                1.00000000               -0.26785104               -0.35344702                1.13951186               -0.04950030                0.03423293                0.70353369
               1.16961959                4.03496036                7.04514960                1.00000000               -0.19854150               -0.20103821                0.66433747               -0.03170491                0.04127887               -0.04174826
               2.16832727                4.02025341                7.00171895                0.00010000               -0.06385238               -0.05092828                0.18870179                0.04289996                1.44215215               -0.76548160
               3.16834254                4.00646189                6.98646003                0.00010000               -0.03561620                0.32955493               -0.18214565                0.43298530                3.53726520               -0.08236967
               4.16761494                3.99929153                6.98608444                0.00010000               -0.08258812                0.21104703               -0.18302467                0.82244080                4.18549349               -0.36499779
               5.16669078                3.99225403                6.98584037                0.00010000               -0.09836858                0.17661845               -0.23477054                0.86111003                4.09514092               -0.23124751
               6.16564757                3.98570144                6.98543563                0.00010000               -0.10623749                0.11021571               -0.29713059                0.85262055                4.03144158                0.00003651
               7.16456603                3.97962622                6.98522252                0.00010000               -0.13686735                0.07796039               -0.37004189                0.75280244                4.08633822                0.45079316
               8.16291022                3.97414095                6.98675478                0.17764866                0.00336708                0.19436703               -0.43819938                0.31372245                2.09700451                1.12809271
               9.16463337                3.96320151                6.94725777                1.00000000                0.24096271                0.27064239               -0.83921569               -0.00601759                0.02376143                0.33673248
              10.16772948                3.95272345                6.90738925                1.00000000                0.30961099                0.36455502               -1.24194188               -0.03309935               -0.00145437               -0.26110413
               0.18530674                5.04582637                7.08113665                1.00000000               -0.22562604               -0.32226870                1.02486727               -0.05073844                0.05990649                0.66852593
               1.18305048                5.03318200                7.03422175                0.89192696               -0.15138387               -0.15251967                0.50920766               -0.03261364                0.08816396               -0.06758047
               2.18227906                5.02003254                6.98766679                0.00010000               -0.01046385                0.00770053                0.00371483                0.14985042                2.20578340               -0.74175961
               3.18284120                5.00990139                6.98323549                0.00010000                0.00484718                0.28555382               -0.16927663                0.46195157                4.39061997               -0.26140629
               4.18237600                5.00155371                6.98258906                0.00010000               -0.07238541                0.23759736               -0.24288956                0.62731773                4.66130258               -0.29730933
               5.18139349                4.99408347                6.98558464                0.00010000               -0.13517186                0.19385574               -0.24665510                0.67306240                4.83824937               -0.17616595
               6.17967257                4.98704328                6.99018873                0.00010000               -0.21058096                0.14533279               -0.23900624                0.66026808                4.91904732                0.08665714
               7.17718187                4.98072894                6.99626621                0.00010000               -0.29729928                0.11196840               -0.22714811                0.63083646                5.02728531                0.46397822
               8.17372658                4.97570198                7.00413643                0.19004026               -0.11777032                0.11962527               -0.20740525                0.27503780                2.54832321                0.88653639
               9.17482647                4.96561720                6.96135127                0.98955006                0.18425764                0.21013000               -0.64748845               -0.01093987                0.01007271                0.29711022
              10.17741173                4.95610486                6.91844402                1.00000000                0.25852673                0.31273875               -1.08114916               -0.03369422               -0.00164858               -0.29725378
               0.19657208                6.04276486                7.07333984                1.00000000               -0.18109306               -0.28479410                0.90270881               -0.05366836                0.06722949                0.62287773
               1.19476114                6.03190997                7.02273102                0.71147516               -0.09835995               -0.10014112                0.33424294               -0.04007582                0.13718889               -0.13333215
               2.19460488                6.02040742                6.97331834                0.00010000                0.06496289                0.06946779               -0.21844270                0.15647226                2.69793685               -0.82929101
               3.19606040                6.01217296                6.97409948                0.00010000                0.06871721                0.23710341               -0.28305937                0.41933724                5.24431634               -0.63395599
               4.19597922                6.00404348                6.97819195                0.00010000               -0.06989776                0.25887108               -0.28166149                0.46938066                5.44565774               -0.41759755
               5.19466245                5.99613114                6.98534885                0.00010000               -0.18858781                0.21502477               -0.23725600                0.47636405                5.62333040               -0.18972980
               6.19220746                5.98860809                6.99503474                0.00010000               -0.30691965                0.15947709               -0.16721138                0.47001654                5.76868653                0.09640352
               7.18852405                5.98186559                7.00679373                0.00010000               -0.43423710                0.10133484               -0.08168884                0.46853849                5.90832494                0.43443642
               8.18352272                5.97653346                7.02058492                0.20650635               -0.22561792                0.04500097                0.02140360                0.20111107                2.99912115                0.81442293
               9.18401170                5.96740411                6.97498213                0.89640775                0.12787735                0.14917619               -0.45338390               -0.01528841                0.02584043                0.26139850
              10.18608027                5.95897823                6.92921943                1.00000000                0.20685733                0.26147760               -0.92028643               -0.03180544                0.01262949               -0.32446286
               0.20594316                7.04013049                7.06508960                1.00000000               -0.13367567               -0.23775817                0.76947874               -0.05337612                0.04493956                0.58708214
               1.20460640                7.03117917                7.01049135                0.60994583               -0.03988249               -0.04562838                0.14140198               -0.04440120                0.13427039               -0.17945393
               2.20514551                7.02142189                6.95748639                0.00010000                0.14927417                0.13823824               -0.47570387                0.13553106                3.11725403               -0.92856266
               3.20759188                7.01464346                6.96280208                0.00010000                0.13299653                0.27586951               -0.41737356                0.30920761                6.07499966               -0.90502345
               4.20780544                7.00673113                6.97182876                0.00010000               -0.06178620                0.26999331               -0.32526732                0.25763791                6.30571850               -0.58680246
               5.20635616                6.99838397                6.98438055                0.00010000               -0.22334940                0.22379633               -0.22288694                0.26410796                6.48834739               -0.23390395
               6.20333845                6.99023282                6.99950227                0.00010000               -0.38644398                0.16272433               -0.09194293                0.26727768                6.62735908                0.07989172
               7.19862728                6.98275563                7.01690150                0.00010000               -0.55640839                0.07431229                0.06684935                0.26772708                6.77834378                0.40471725
               8.19221028                6.97660200                7.03658992                0.22629585               -0.32756770               -0.03434184                0.25583789                0.09971360                3.45138749                0.77089920
               9.19207593                6.96860072                6.98835306                0.81899876                0.07085529                0.09058496               -0.26029091               -0.01727177                0.04010341                0.23554223
              10.19362739                6.96133441                6.93964447                0.99176968                0.15514617                0.21193018               -0.76348474               -0.03248334                0.01235151               -0.34899668
               0.21340718                8.03800970                7.05654879                0.98212833               -0.08254669               -0.18771393                0.62642468               -0.05050657                0.03446095                0.56906295
               1.21258172                8.03099740                6.99805592                0.58151215                0.02220135                0.01373340               -0.06563640               -0.03924381                0.11736547               -0.19116460
               2.21385121                8.02317219                6.94105593                0.00010000                0.21768035                0.22189931               -0.76325021                0.10774993                3.37241768               -0.91886190
               3.21693532                8.01769035                6.94800084                0.00010000                0.17701332                0.27079637               -0.41975209                0.06259606                6.87154784               -1.37117069
               4.21739148                8.00944335                6.96361656                0.00010000               -0.02462061                0.22183784               -0.33246708               -0.00168799                7.32957945               -0.66486405
               5.21644291                8.00060707                6.98270757                0.00010000               -0.21050631                0.20126787               -0.21461687                0.07680546                7.41685973               -0.23462212
               6.21318135                7.99186258                7.00344076                0.00010000               -0.44667461                0.17444499               -0.02083546                0.08869123                7.48356681                0.06071535
               7.20750942                7.98335184                7.02646398                0.00010000               -0.67547194                0.06392918                0.21511799                0.02738645                7.65003982                0.34587410
               8.19967191                7.97584662                7.05227786                0.24825966               -0.42877820               -0.12042937                0.49497159               -0.03135651                3.91213516                0.71753339
               9.19893385                7.96921581                7.00147732                0.80369665                0.01456558                0.02941238               -0.06799201               -0.01388775                0.05122895                0.22693181
              10.19996322                7.96321683                6.94982106                0.94275106                0.10293684                0.16957770               -0.61191254               -0.03458188                0.00691995               -0.36252174
               0.21895762                9.03637621                7.04783572                0.96742938               -0.02985856               -0.14324682                0.47888023               -0.04334874                0.04059054                0.46848151
               1.21865904                9.03145384                6.98555740                0.61634942                0.08249644                0.08150399               -0.28364469               -0.02135330                0.15358698               -0.17490877
               2.22060755                9.02585988                6.92541474                0.01121131                0.19568033                0.30982103               -1.05489583               -0.00033605                3.35948518               -0.65358987
               3.22257264                9.02005939                6.92764161                0.00010000                0.21237064                0.11365612               -0.06936818               -0.14680172                7.77255745               -1.22944661
               4.22485496                9.01116788                6.95550479                0.00010000                0.14501964                0.11206299               -0.34823898               -0.12048923                8.64172680               -0.47207981
               5.22547304                9.00240932                6.98102480                0.00010000               -0.12437275                0.15718775               -0.21127733                0.00516528                8.28711009               -0.14310585
               6.22236751                8.99372172                7.00678249                0.00010000               -0.51410327                0.18036020                0.03940002               -0.00754333                8.26897149                0.03873109
               7.21519097                8.98403422                7.03490174                0.00010000               -0.83241649                0.15308499                0.35093857               -0.14497231                8.50664217                0.21302828
               8.20571918                8.97419341                7.06721329                0.26737517               -0.53815055               -0.20122972                0.72976659               -0.21679693                4.43140209                0.51304698
               9.20442796                8.96918897                7.01466276                0.84636468               -0.03927369               -0.03660780                0.12718279               -0.00669422                0.09262144                0.20878459
              10.20493371                8.96472596                6.95987696                0.91930663                0.05057457                0.13380437               -0.45866941               -0.03417217               -0.01762393               -0.30480656
               0.22238494               10.03514476                7.03708545                0.98141903                0.02860351               -0.12314481                0.31090156                0.09100387                0.30789682                0.38124947
               1.22267098               10.03262748                6.97348509                0.84481083                0.14269982                0.11736379               -0.48606554                0.11238637                0.54613405               -0.16101620
               2.22523894               10.02936861                6.91459112                0.52472641                0.30101530                0.35087259               -1.24376434               -0.17006127                3.79481091               -0.44185866
               3.22869128               10.01996348                6.91639818                0.30283432                0.36964089               -0.00959126               -0.11959118               -0.27233586                8.44959122               -0.83361021
               4.23263176               10.01168461                6.95064855                0.29893726                0.26505457                0.05167237               -0.37039110               -0.03295330                9.41346462               -0.22542378
               5.23399238               10.00375082                6.98019102                0.32184873               -0.06130850                0.13415011               -0.21791475                0.04119281                8.91393102               -0.05029485
               6.23140559                9.99546978                7.00938326                0.36797525               -0.49270477                0.17480610                0.08172575                0.03694338                8.88436066                0.04940515
               7.22413828                9.98641354                7.04111059                0.45523206               -1.06121818                0.23793167                0.44802122               -0.28765704                9.22147492                0.14495113
               8.21018122                9.97182202                7.07855646                0.64111699               -0.79354297               -0.23713900                0.90224542               -0.45028968                5.04365005                0.35826774
               9.20826742                9.96848365                7.02733398                0.95048361               -0.09877191               -0.07053141                0.31486233                0.08749079                0.38305713                0.19364552
              10.20820579                9.96589292                6.97118189                0.96430602               -0.00616354                0.11669551               -0.28994464                0.06813459                0.14215471               -0.24465242
               0.13634135                0.08102248                8.13619152                1.00000000               -0.41008042               -0.45963997                1.57490038               -0.08175862               -0.38788280                0.44303564
               1.13224055                0.05781263                8.10069529                1.00000000               -0.34001271               -0.35341415                1.23178621               -0.05925332               -0.44200549               -0.00595272
               2.12954110                0.03429610                8.06397081                1.00000000               -0.18663759               -0.25251656                0.85811879               -0.04638406               -0.37875167               -0.20358439
               3.12850780                0.01136039                8.02964039                0.56973176                0.29577479               -0.18347056                0.52195968                0.33168779                0.47803312               -0.26886097
               4.13545659               -0.00308955                8.00998942                0.58364525                0.52294249               -0.19456336                0.24120684                0.02522633                1.16213460               -0.00960796
               5.13896665               -0.01209721                7.98903342                0.62650230                0.23269872               -0.02055025               -0.10571833               -0.01061500                0.91769596                0.00615806
               6.14011057               -0.02032085                7.96508170                0.64290578                0.06041390                0.11524200               -0.47021455                0.00371191                0.79612007                0.00705440
               7.14017492               -0.03105132                7.94178923                0.80223029                0.06783347                0.23329805               -0.81752422                0.06762327                0.52396046                0.02925435
               8.14146724               -0.04603532                7.91227136                1.00000000                0.23817444                0.34335479               -1.15116291                0.03044498                0.01291815                0.29565040
               9.14493841               -0.06309843                7.87894059                1.00000000                0.41241460                0.42339685               -1.47488874               -0.04992951               -0.21602934                0.02893625
              10.14971553               -0.08013594                7.84499052                1.00000000                0.47771171                0.51826836               -1.78723796               -0.07857994               -0.25234662               -0.27174760
               0.15873362                1.07642608                8.12465294                1.00000000               -0.37224075               -0.44316954                1.43353105               -0.03560915               -0.02727539                0.60725265
               1.15501121                1.05427849                8.08869617                1.00000000               -0.32151180               -0.33104591                1.08941775               -0.01627159                0.04279807               -0.00037595
               2.15230338                1.03177093                8.05401807                0.72622998               -0.22468561               -0.22490014                0.74698148               -0.00132524                0.28640547               -0.49974830
               3.15051750                1.00952568                8.02295473                0.00010000               -0.24328620               -0.17555474                0.40640380                0.40390010                1.31623491               -0.61142566
               4.14743766                0.99496482                8.00910073                0.03881215               -0.15206734                0.00195615                0.21235472                0.68024740                1.87184479               -0.19685462
               5.14747615                0.98769729                7.99096447                0.08638413                0.10935448                0.08378006               -0.10184744                0.66885119                1.45312695                0.06751925
               6.14962474                0.98083157                7.96958425                0.03783466                0.31161213               -0.05845186               -0.43779203                0.54877189                1.30784040               -0.28511540
               7.15370839                0.97128166                7.94895195                0.26833080                0.40852476                0.27235933               -0.73829752                0.42244814                1.17389159                0.48887253
               8.15779524                0.95739823                7.92473346                1.00000000                0.38905161                0.31764186               -1.02595906                0.12781068                0.57269955                0.37320958
               9.16148942                0.94113554                7.89162758                1.00000000                0.40859991                0.40285992               -1.33324974               -0.00312271                0.08340657                0.07542236
              10.16596724                0.92504675                7.85760883                1.00000000                0.44778145                0.49563181               -1.64533680               -0.03044770                0.03416913               -0.31903049
               0.17992435                2.07215909                8.11618948                1.00000000               -0.33540834               -0.41203024                1.32278953               -0.04240942                0.03480404                0.78419977
               1.17657027                2.05119172                8.07670663                1.00000000               -0.28284751               -0.28849486                0.95164318               -0.02671713                0.08652162               -0.01800208
               2.17426740                2.02979809                8.03812041                0.30807441               -0.15891793               -0.16978527                0.60052554               -0.03169044                0.62742457               -0.88573484
               3.17339191                2.00784929                8.00946856                0.00010000               -0.16887330               -0.14438773                0.26800121                0.59213746                2.27344364               -1.18142263
               4.17088993                1.99694958                8.00403108                0.00010000               -0.34574936                0.16683124                0.55887922                1.32927641                2.92398927               -0.72674640
               5.16647692                1.98957839                7.99394557                0.00010000               -0.16941485                0.07010536                0.13578063                1.21917328                1.75556996               -0.40525882
               6.16750164                1.97851011                7.96833473                0.00010000                0.27901532               -0.03842687               -0.55144113                1.21725891                2.11326131               -0.02222057
               7.17205723                1.97439586                7.96545472                0.00010000                0.33339651                0.04456249               -0.59460328                0.86955886                2.24048703                0.31998128
               8.17416957                1.96031751                7.93877574                0.39034146                0.25851033                0.28070630               -0.88015977                0.13055478                0.73477947                0.71774394
               9.17722744                1.94495877                7.90532176                1.00000000                0.35572964                0.36996948               -1.18783366                0.01321376                0.27138138                0.30492548
              10.18128416                1.92977670                7.86942151                1.00000000                0.40567260                0.45065431               -1.51673847               -0.02578728                0.14571429               -0.33229623
               0.19982018                3.06818548                8.10800850                1.00000000               -0.29823173               -0.38247531                1.21446284               -0.04585443                0.02952409                0.79921118
               1.19683786                3.04850859                8.06426729                1.00000000               -0.24040947               -0.24615561                0.80810375               -0.03038453                0.03432625               -0.04154736
               2.19501199                3.02837523                8.02046484                0.08754222               -0.08145504               -0.11103280                0.40160684               -0.08487570                0.77036431               -0.93014100
               3.19520876                3.00663793                7.99147105                0.00010000               -0.13589534                0.09660805                0.07589629                0.52338608                2.94026566               -0.86830565
               4.19229408                2.99830144                7.99129232                0.00010000               -0.24548406                0.17126703               -0.01159560                1.18579213                3.95168296               -0.84718890
               5.19029908                2.98909940                7.98523073                0.00010000               -0.15708157                0.04912820               -0.13270942                1.27854209                3.52745308               -0.66766230
               6.18915245                2.98006303                7.97862729                0.00010000               -0.05034583                0.13970794               -0.33348537                1.20378329                3.30954425                0.20959615
               7.18929216                2.97217291                7.96933900                0.00010000                0.03454882               -0.07932344               -0.52512299                0.88903664                3.03927060                0.05726139
               8.18984343                2.96301235                7.95815497                0.16990142                0.15011741                0.25834512               -0.72650395                0.35308921                1.73018932                1.23616726
               9.19229451                2.94853493                7.92263938                1.00000000                0.29861019                0.33011557               -1.01051773                0.01873550                0.25025507                0.43951628
              10.19581563                2.93405983                7.88198080                1.00000000                0.35211204                0.40747571               -1.37683724               -0.03216186               -0.01298754               -0.27967322
               0.21836103                4.06450959                8.09972802                1.00000000               -0.25881997               -0.35315794                1.10349002               -0.04502873                0.03052177                0.78381928
               1.21577283                4.04626860                8.05176632                1.00000000               -0.19602384               -0.20087822                0.65855671               -0.02665076                0.03540417               -0.04238155
               2.21444055                4.02757744                8.00373825                0.00010000               -0.09197089               -0.05130228                0.21288477                0.04538457                1.47018454               -0.84148378
               3.21393341                4.00978146                7.98453839                0.00010000               -0.11481216                0.35742219               -0.20407558                0.47149803                3.81847976               -0.12671459
               4.21214431                4.00037492                7.98436095                0.00010000               -0.18236166                0.21910243               -0.16153882                0.94193040                4.62630094               -0.42084635
               5.21028618                3.99056096                7.98355727                0.00010000               -0.18202580                0.17114161               -0.22011368                0.95515221                4.48465611               -0.27179323
               6.20850379                3.98130427                7.98244438                0.00010000               -0.16987692                0.13924167               -0.29755279                0.95148935                4.39206696               -0.00760963
               7.20688864                3.97280940                7.98142226                0.00010000               -0.18172317                0.09798048               -0.38462637                0.88285941                4.42835656                0.50247532
               8.20486933                3.96548442                7.98226938                0.17020627               -0.01669891                0.20291106               -0.45475123                0.38712399                2.26682876                1.26543246
               9.20655466                3.95156108                7.93891110                1.00000000                0.23608933                0.27241191               -0.82984127                0.00389396                0.02804068                0.37530719
              10.20959112                3.93792622                7.89506834                1.00000000                0.30364545                0.36268988               -1.22337097               -0.03104748               -0.00156390               -0.27992881
               0.23540157                5.06112232                8.09118338                1.00000000               -0.21645756               -0.32179017                0.98590769               -0.04653991                0.06187790                0.74742920
               1.23323700                5.04449103                8.03929734                0.87624548               -0.14973707               -0.15214078                0.50554351               -0.02873731                0.09346362               -0.07865440
               2.23240683                5.02734918                7.98787763                0.00010000               -0.06978760                0.00737557                0.03618335                0.17938925                2.37004169               -0.83431452
               3.23184124                5.01378637                7.98162708                0.00010000               -0.10268201                0.32542057               -0.15617629                0.51327574                4.75839069               -0.23538432
               4.23035319                5.00268349                7.98021785                0.00010000               -0.16842351                0.24673693               -0.22999058                0.70728474                5.11494404               -0.31509875
               5.22847277                4.99252223                7.98314518                0.00010000               -0.22096937                0.20876824               -0.23805774                0.75199679                5.32219250               -0.18692285
               6.22593380                4.98284786                7.98775336                0.00010000               -0.28517843                0.16684060               -0.24301949                0.74314743                5.39399694                0.09999842
               7.22276920                4.97413252                7.99389560                0.00010000               -0.35497900                0.13188102               -0.24143572                0.73146968                5.48960667                0.51941320
               8.21883422                4.96707057                8.00196410                0.18299443               -0.14193058                0.11885696               -0.22306974                0.33717141                2.77116513                0.99778221
               9.21993059                4.95398317                7.95489696                0.98787487                0.18150978                0.20991512               -0.64256146               -0.00129574                0.00821615                0.33909913
              10.22246442                4.94131363                7.90772194                1.00000000                0.25338245                0.31367799               -1.06425428               -0.03163028               -0.00186652               -0.31547957
               0.25069281                6.05807378                8.08213898                1.00000000               -0.17215865               -0.28204410                0.85925199               -0.04917953                0.06748100                0.69739239
               1.24897122                6.04322579                8.02606029                0.69744911               -0.09799071               -0.09911266                0.33174414               -0.03627555                0.14288169               -0.16156196
               2.24873299                6.02772495                7.97133008                0.00010000               -0.00533047                0.07042308               -0.18097400                0.19683794                2.94451346               -0.95912243
               3.24886461                6.01628987                7.97143470                0.00010000               -0.05894238                0.24957162               -0.24937356                0.49941822                5.74898115               -0.69450913
               4.24755415                6.00530966                7.97546728                0.00010000               -0.18514345                0.27133667               -0.26020130                0.55919542                5.99567968               -0.43517231
               5.24516174                5.99473632                7.98300167                0.00010000               -0.28988466                0.23483287               -0.22794287                0.55985483                6.19716633               -0.19177303
               6.24175645                5.98464108                7.99331381                0.00010000               -0.39332098                0.18478617               -0.17148452                0.54616333                6.34506351                0.11802149
               7.23729532                5.97544702                8.00587333                0.00010000               -0.49971737                0.11976944               -0.09712834                0.54853931                6.48131175                0.49314329
               8.23176211                5.96786156                8.02068098                0.19953319               -0.25048187                0.04065538                0.00001238                0.25006947                3.27711580                0.92420468
               9.23228569                5.95575939                7.97044888                0.89858188                0.12677388                0.14713749               -0.45099587               -0.00647954                0.02267746                0.30120423
              10.23429758                5.94419978                7.92011029                1.00000000                0.20118971                0.26279003               -0.89831031               -0.03068947                0.01256746               -0.34739156
               0.26411397                7.05548144                8.07252766                1.00000000               -0.12536533               -0.23224627                0.72143662               -0.04832798                0.04274577                0.65568419
               1.26286032                7.04250878                8.01191374                0.59662731               -0.04172310               -0.04446673                0.14364925               -0.03903664                0.13472775               -0.22149101
               2.26327951                7.02875764                7.95299345                0.00010000                0.06922921                0.13786034               -0.42479604                0.17810297                3.45012400               -1.09132609
               3.26424490                7.01877781                7.95890969                0.00010000               -0.00944334                0.26523416               -0.36578863                0.41018360                6.73795264               -0.93001953
               4.26309064                7.00811023                7.96876159                0.00010000               -0.19532284                0.28006726               -0.28923471                0.37839652                6.97520794               -0.59255980
               5.26033844                6.99721889                7.98222814                0.00010000               -0.34721331                0.25233680               -0.20479468                0.36163038                7.16148087               -0.23657950
               6.25614638                6.98654359                7.99854558                0.00010000               -0.49094642                0.19578340               -0.09376160                0.33719102                7.30674572                0.10116003
               7.25051952                6.97652791                8.01745610                0.00010000               -0.63115665                0.09717692                0.04869618                0.32520809                7.46328315                0.46458851
               8.24352324                6.96788368                8.03897946                0.21935340               -0.35283664               -0.03616794                0.22357010                0.13184289                3.78412872                0.88371773
               9.24346278                6.95692592                7.98571670                0.81969284                0.07233026                0.08853396               -0.26340866               -0.01138470                0.03371386                0.27037054
              10.24496985                6.94656943                7.93210912                0.99050413                0.15070645                0.21389504               -0.74137839               -0.03085746                0.01259714               -0.38215896
               0.27567157                8.05342886                8.06253573                0.97921308               -0.07572848               -0.17927318                0.57548881               -0.04542089                0.03013058                0.63382436
               1.27491429                8.04233645                7.99745128                0.56602873                0.01772279                0.01302924               -0.05467526               -0.03333728                0.10772919               -0.24445962
               2.27602603                8.03048216                7.93380158                0.00010000                0.14007074                0.21251145               -0.69082578                0.14398328                3.85767151               -1.10050833
               3.27771570                8.02159455                7.94401304                0.00010000                0.03274848                0.25219489               -0.39036179                0.23876927                7.72350099               -1.16615754
               4.27668100                8.01091100                7.96067796                0.00010000               -0.18773543                0.24707594               -0.27689828                0.17192270                8.06352324               -0.63996293
               5.27396099                7.99978306                7.98075572                0.00010000               -0.37448702                0.24555339               -0.17840534                0.18185972                8.17328190               -0.23885273
               6.26919126                7.98855675                8.00321664                0.00010000               -0.57507993                0.21881739               -0.01855037                0.14578604                8.27167649                0.07721382
               7.26245939                7.97739055                8.02846896                0.00010000               -0.75951514                0.09648683                0.19097451                0.05992117                8.45278981                0.40032443
               8.25400095                7.96713820                8.05696620                0.24173406               -0.45435763               -0.11386318                0.44678981               -0.01604147                4.30086609                0.82833940
               9.25337224                7.95753006                8.00071261                0.80358383                0.01962274                0.03092899               -0.08324035               -0.01040377                0.03978731                0.25947760
              10.25439341                7.94847768                7.94379335                0.94518370                0.10211665                0.17142301               -0.59592053               -0.03165271                0.00579132               -0.40252093
               0.28539036                9.05189597                8.05233626                0.96533137               -0.02500888               -0.13144939                0.42663447               -0.03936511                0.03103307                0.52317649
               1.28514027                9.04276936                7.98283343                0.59549597                0.07553576                0.07628158               -0.26046318               -0.01801880                0.13693725               -0.22594240
               2.28690108                9.03300787                7.91536931                0.00010000                0.17255847                0.28698240               -0.95734602                0.04121081                4.18310485               -0.79091880
               3.28859144                9.02382170                7.92714987                0.00010000                0.07197554                0.14195496               -0.13814031                0.04647217                8.75981077               -0.96205721
               4.28834059                9.01305175                7.95275809                0.00010000               -0.11307756                0.17711252               -0.25100734                0.03292261                9.25883714               -0.43768379
               5.28632989                9.00212996                7.97921228                0.00010000               -0.34429932                0.21755425               -0.15823673                0.07912290                9.12446985               -0.14955617
               6.28145460                8.99091993                8.00717221                0.00010000               -0.65966996                0.23279789                0.04423127                0.02488786                9.16564524                0.04884035
               7.27313649                8.97845764                8.03820535                0.00010000               -0.91958486                0.19684280                0.31737602               -0.13444492                9.43148516                0.24782506
               8.26306290                8.96560642                8.07413281                0.26323823               -0.56106312               -0.18428936                0.66076596               -0.21471805                4.88498137                0.58989290
               9.26191523                8.95754450                8.01578724                0.84476302               -0.03106667               -0.02956340                0.09944450               -0.00565565                0.08070099                0.23721794
              10.26244157                8.94999789                7.95536706                0.92076582                0.05263411                0.13374997               -0.44686555               -0.03111756               -0.02064837               -0.33851852
               0.29313749               10.05079987                8.03993465                0.98067705                0.03045204               -0.10961046                0.26404188                0.08093458                0.32484854                0.42548114
               1.29344201               10.04386208                7.96879544                0.83344970                0.13302045                0.10927224               -0.45153430                0.10127074                0.57835718               -0.20503558
               2.29579790               10.03622180                7.90270243                0.50895414                0.25796283                0.32139333               -1.13688296               -0.08173928                4.78999212               -0.53106062
               3.29860127               10.02443365                7.91620503                0.30279215                0.16166474                0.06119464               -0.10529882               -0.08744495                9.52879750               -0.56070740
               4.29903120               10.01445325                7.94768811                0.29929162               -0.04630041                0.14015057               -0.27102771                0.05408559               10.08182014               -0.19932803
               5.29767526               10.00413414                7.97835030                0.32217592               -0.28349358                0.20041890               -0.15905175                0.07250977                9.83437006               -0.04209484
               6.29336132                9.99321271                8.01018201                0.36833762               -0.62956240                0.22927721                0.08502562                0.05033565                9.87386432                0.06190015
               7.28508401                9.98132741                8.04534322                0.45633566               -1.13707941                0.28697672                0.40819637               -0.29326271               10.25155789                0.17248830
               8.27061974                9.96345241                8.08713059                0.64087117               -0.81081808               -0.21540067                0.82024394               -0.46374748                5.57700714                0.40150143
               9.26886765                9.95693880                8.03026717                0.95006585               -0.08777344               -0.06057026                0.27421351                0.08025547                0.40453531                0.21684542
              10.26886427                9.95115268                7.96831302                0.96494726               -0.00033839                0.11547822               -0.28735333                0.06365762                0.15586434               -0.27030730
               0.16945150                0.09791004                9.15177138                1.00000000               -0.40281052               -0.44950955                1.54292029               -0.07862280               -0.43023582                0.48362560
               1.16542340                0.07049135                9.11293031                1.00000000               -0.33365940               -0.34808016                1.21478187               -0.05710983               -0.50109853               -0.00024251
               2.16277831                0.04277905                9.07253257                1.00000000               -0.18242112               -0.25084365                0.85275503               -0.04455060               -0.43462234               -0.19970272
               3.16177497                0.01575351                9.03491022                0.58621851                0.30194703               -0.18447920                0.52897456                0.35923100                0.46219281               -0.30503644
               4.16881725               -0.00210321                9.01238850                0.60865999                0.51368409               -0.17167117                0.23855280                0.01237420                1.13059142                0.00168031
               5.17204866               -0.01396745                8.98799538                0.65399738                0.21592137               -0.01190980               -0.10175880               -0.00581401                0.85276577                0.01042052
               6.17313568               -0.02495479                8.96043462                0.66299431                0.05934932                0.11201061               -0.45914118                0.00425796                0.72687696               -0.00036915
               7.17323564               -0.03832054                8.93364779                0.81429531                0.06454398                0.22690574               -0.80919217                0.06603884                0.46447532                0.02906414
               8.17442656               -0.05610641                8.90080534                1.00000000                0.22907237                0.34146010               -1.14034603                0.03677621               -0.03410375                0.30747888
               9.17781709               -0.07621403                8.86425709                1.00000000                0.40556141                0.41930657               -1.46060310               -0.05019653               -0.25286736                0.02706949
              10.18253779               -0.09634420                8.82720851                1.00000000                0.47206998                0.51153695               -1.76908212               -0.07923056               -0.28384696               -0.30354996
               0.19608396                1.09341494                9.13882407                1.00000000               -0.36661657               -0.43334813                1.40295102               -0.03346745               -0.03668675                0.66219311
               1.19241779                1.06701055                9.09951810                1.00000000               -0.31911137               -0.32602409                1.07481621               -0.01353157                0.03204241                0.00803290
               2.18970173                1.04027062                9.06148461                0.75527067               -0.23046880               -0.22439916                0.74414742                0.00557062                0.27563188               -0.51038067
               3.18780841                1.01390872                9.02706277                0.00010000               -0.29501246               -0.17727789                0.41257658                0.45682068                1.37481430               -0.65429375
               4.18380148                0.99618008                9.01120512                0.07529754               -0.21960528                0.05761987                0.20825349                0.59690517                1.94226469                0.06115592
               5.18341631                0.98591345                8.98995773                0.12518631                0.07766612                0.09960828               -0.09939185                0.56798424                1.45907047                0.16160622
               6.18535480                0.97616531                8.96525853                0.06701855                0.30277658               -0.05571968               -0.42757125                0.47203750                1.31788168               -0.33173260
               7.18947184                0.96394852                8.94160563                0.28728110                0.41931337                0.26471852               -0.73001927                0.44133985                1.19809147                0.51646895
               8.19374107                0.94730819                8.91452099                1.00000000                0.39810881                0.31572446               -1.01528622                0.14404892                0.58693336                0.39424426
               9.19743402                0.92797904                8.87836145                1.00000000                0.40672925                0.39966065               -1.31942520               -0.00227771                0.08461341                0.07506656
              10.20187565                0.90877117                8.84124744                1.00000000                0.44416378                0.48724506               -1.62755702               -0.03093882                0.03309311               -0.35719986
               0.22159093                2.08924307                9.12925257                1.00000000               -0.32938391               -0.40369734                1.29202860               -0.03792310                0.03238732                0.85598986
               1.21829709                2.06397087                9.08616490                1.00000000               -0.27996855               -0.28492138                0.93989431               -0.02059307                0.09282343               -0.00947778
               2.21599156                2.03829107                9.04417947                0.33205999               -0.16475835               -0.17200833                0.60830813               -0.01692664                0.64947718               -0.93939404
               3.21500192                2.01220795                9.01222563                0.00010000               -0.36204642               -0.15171847                0.28080032                0.70735803                2.66496955               -1.25601897
               4.20875063                1.99904919                9.01076686                0.00010000               -0.57894072                0.19395186                0.66222093                1.45042933                3.04535331               -0.78371475
               5.20342311                1.98802471                8.99478254                0.00010000               -0.21046362                0.08363530                0.04114831                1.26302992                1.52881069               -0.46048150
               6.20454136                1.97393081                8.96350511                0.00010000                0.37482274               -0.06220370               -0.44808209                1.28346434                2.13468262                0.03386847
               7.21091956                1.96697383                8.95942476                0.00010000                0.43678330                0.01994489               -0.60830167                0.93142468                2.37898878                0.33964755
               8.21327702                1.95020808                8.93001610                0.39152012                0.26944937                0.28680760               -0.87046138                0.16975525                0.78297268                0.74869108
               9.21630855                1.93177919                8.89351124                1.00000000                0.35288615                0.37131472               -1.17428331                0.02335991                0.29253606                0.32152736
              10.22033475                1.91340070                8.85434691                1.00000000                0.40261953                0.44011449               -1.49935983               -0.02288056                0.15661154               -0.37102664
               0.24586990                3.08534099                9.11998654                1.00000000               -0.29119633               -0.37656684                1.18313647               -0.04083678                0.02753172                0.87271068
               1.24295793                3.06131212                9.07230519                1.00000000               -0.23718917               -0.24440939                0.79927311               -0.02450964                0.03080453               -0.03832095
               2.24112611                3.03683045                9.02456239                0.10451899               -0.08802395               -0.11400603                0.41561990               -0.07352240                0.80524840               -1.00783554
               3.24119745                3.01087435                8.99236981                0.00010000               -0.20664023                0.07818063                0.09993658                0.61580903                3.12702362               -1.02458353
               4.23699331                3.00005912                8.99131876                0.00010000               -0.37010855                0.14499425                0.01821178                1.45416276                4.25831237               -1.19507782
               5.23379528                2.98758615                8.98417933                0.00010000               -0.24591721                0.04394991               -0.09879165                1.48697366                3.73375038               -0.83219010
               6.23207497                2.97492124                8.97524374                0.00010000               -0.09861067                0.12461827               -0.33453635                1.39219139                3.47591513                0.27387123
               7.23182307                2.96434742                8.96407578                0.00010000                0.01279293               -0.09273537               -0.52363317                1.02558465                3.22413196                0.08639091
               8.23233082                2.95304434                8.95086553                0.16451266                0.14427583                0.27161986               -0.72314270                0.42694273                1.85478005                1.32543641
               9.23470859                2.93540533                8.91259550                1.00000000                0.29220921                0.33354445               -0.99863813                0.03078998                0.29392467                0.47152490
              10.23817501                2.91757346                8.86830343                1.00000000                0.34664207                0.39915173               -1.36013359               -0.03073857               -0.01215200               -0.30570460
               0.26883193                4.08171174                9.11058996                1.00000000               -0.25144897               -0.34885013                1.07074239               -0.04058043                0.02796196                0.85507397
               1.26631744                4.05908268                9.05832073                1.00000000               -0.19365238               -0.19985908                0.65212603               -0.02166084                0.03091989               -0.04347809
               2.26495888                4.03601095                9.00597665                0.00010000               -0.11140034               -0.05380145                0.23259487                0.04564586                1.46245601               -0.90920711
               3.26408944                4.01377157                8.98237852                0.00010000               -0.19184013                0.37115228               -0.22272479                0.52047306                4.07612251               -0.17896711
               4.26112208                4.00194907                8.98285366                0.00010000               -0.28944871                0.20431373               -0.14190496                1.06478080                5.06278233               -0.48918712
               5.25830046                3.98890371                8.98143810                0.00010000               -0.27490813                0.16572305               -0.20326614                1.04903265                4.84293823               -0.33421786
               6.25562392                3.97642318                8.97948458                0.00010000               -0.24961532                0.16262941               -0.29271350                1.04712712                4.72118857               -0.00469578
               7.25330816                3.96511913                8.97753000                0.00010000               -0.24329772                0.11593555               -0.38921243                1.00787469                4.75027015                0.55958592
               8.25075797                3.95564047                8.97765975                0.16373264               -0.04564633                0.21008443               -0.46364821                0.45743235                2.43850488                1.39483158
               9.25239523                3.93845007                8.93066095                1.00000000                0.23128762                0.27280315               -0.82040835                0.01338111                0.04011024                0.41071708
              10.25538372                3.92138374                8.88292183                1.00000000                0.29884890                0.35899283               -1.20727619               -0.02916230               -0.00108741               -0.29718851
               0.29031639                5.07836399                9.10085481                1.00000000               -0.20908878               -0.31716525                0.95040712               -0.04254688                0.06512518                0.81358535
               1.28822551                5.05731494                9.04433262                0.86120097               -0.14831226               -0.15101798                0.50134619               -0.02496638                0.10077144               -0.09141884
               2.28735015                5.03575442                8.98839045                0.00010000               -0.12783577                0.00491011                0.06389136                0.20721474                2.50910803               -0.91796178
               3.28566879                5.01829740                8.98011197                0.00010000               -0.20966830                0.36143008               -0.15513171                0.56021764                5.09219054               -0.18023795
               4.28315678                5.00414539                8.97798925                0.00010000               -0.26834785                0.24236090               -0.21636499                0.79034923                5.54532316               -0.32968715
               5.28030183                4.99090061                8.98082349                0.00010000               -0.31773465                0.21545067               -0.22511005                0.82436123                5.77562160               -0.19627374
               6.27680209                4.97817383                8.98532834                0.00010000               -0.37692822                0.18765635               -0.23903032                0.81893342                5.83780335                0.11698498
               7.27276327                4.96666613                8.99143750                0.00010000               -0.43267830                0.15244135               -0.24664597                0.82735795                5.92972538                0.57803690
               8.26814852                4.95724603                8.99967504                0.17661469               -0.17651624                0.11808590               -0.23329571                0.39633969                2.99008513                1.10290087
               9.26923294                4.94086140                8.94850004                0.98628161                0.17879560                0.20791879               -0.63596886                0.00740027                0.00979618                0.37879833
              10.27172444                4.92475332                8.89715894                1.00000000                0.24914912                0.31297414               -1.04832931               -0.02955340               -0.00259320               -0.32596993
               0.31007909                6.07536843                9.09052487                1.00000000               -0.16514048               -0.27582845                0.82049837               -0.04513446                0.06769317                0.75635669
               1.30842769                6.05606232                9.02936590                0.68468936               -0.09791824               -0.09782899                0.32948542               -0.03248100                0.14856861               -0.19077308
               2.30812073                6.03610915                8.96969886                0.00010000               -0.07624348                0.06847230               -0.14753373                0.23698637                3.17101459               -1.07690113
               3.30690282                6.02100017                8.96911201                0.00010000               -0.18974392                0.25836683               -0.21950417                0.58005718                6.21355866               -0.72606597
               4.30432585                6.00679629                8.97298792                0.00010000               -0.30717825                0.27619305               -0.23793242                0.65234607                6.50544223               -0.43240203
               5.30075925                5.99321272                8.98078999                0.00010000               -0.40443881                0.24988552               -0.21336189                0.64399858                6.73161997               -0.18171163
               6.29623707                5.98017630                8.99160505                0.00010000               -0.49880698                0.20896833               -0.16736026                0.61992747                6.88581953                0.14654467
               7.29078311                5.96816795                9.00485116                0.00010000               -0.58737890                0.13928232               -0.10404602                0.62608420                7.02434390                0.55271067
               8.28448949                5.95800219                9.02058516                0.19325353               -0.28735843                0.03725590               -0.01640432                0.29621136                3.54557556                1.02334558
               9.28503594                5.94260845                8.96596221                0.88934341                0.12596556                0.14415000               -0.44903854                0.00143139                0.02518376                0.33993280
              10.28700881                5.92764322                8.91125322                1.00000000                0.19728613                0.26274240               -0.88014078               -0.02801980                0.01810245               -0.35996379
               0.32802592                7.07284742                9.07951834                0.99625910               -0.11907511               -0.22454203                0.68003197               -0.04392507                0.04069064                0.70763863
               1.32683517                7.05535836                9.01336434                0.58517263               -0.04369431               -0.04369045                0.14667513               -0.03403966                0.13523796               -0.26139109
               2.32715203                7.03712387                8.94899047                0.00010000               -0.01261875                0.13385042               -0.37863235                0.22142569                3.75840695               -1.23285282
               3.32658279                7.02346473                8.95548631                0.00010000               -0.15804414                0.25634281               -0.32513233                0.50857654                7.34997988               -0.94054342
               4.32399115                7.00966925                8.96604407                0.00010000               -0.33904999                0.29256515               -0.25924453                0.50135033                7.59002398               -0.57132732
               5.31980179                6.99589833                8.98028465                0.00010000               -0.48728710                0.28165770               -0.18518267                0.46472800                7.78119873               -0.21606661
               6.31424541                6.98235319                8.99762704                0.00010000               -0.61713629                0.23019589               -0.08795301                0.41090094                7.93875975                0.13295813
               7.30745907                6.96945178                9.01787542                0.00010000               -0.73065763                0.12205592                0.03849402                0.38352491                8.10619974                0.52341789
               8.29963225                6.95799115                9.04106132                0.21321938               -0.39192624               -0.03710681                0.19607634                0.16243531                4.10100649                0.98332775
               9.29962054                6.94374440                8.98308489                0.82093380                0.07311221                0.08631845               -0.26480899               -0.00582390                0.03248213                0.30144872
              10.30109450                6.93000817                8.92481690                0.98916768                0.14739569                0.21326262               -0.72371844               -0.02818447                0.01624794               -0.40920420
               0.34417871                8.07087759                9.06805857                0.97699619               -0.07082582               -0.17032984                0.53309963               -0.04100678                0.02653937                0.68187490
               1.34347045                8.05518852                8.99696241                0.55363791                0.01320815                0.01162351               -0.04306834               -0.02809367                0.09941394               -0.29206594
               2.34444287                8.03878616                8.92723941                0.00010000                0.05292557                0.20083933               -0.62537353                0.18698405                4.28905268               -1.25320162
               3.34452896                8.02612702                8.94019361                0.00010000               -0.12618043                0.25807657               -0.38082899                0.38293620                8.50157049               -1.03191909
               4.34191926                8.01264759                8.95807859                0.00010000               -0.35795445                0.28674021               -0.25446126                0.33485016                8.74238218               -0.58078722
               5.33736987                7.99884588                8.97913946                0.00010000               -0.55088117                0.29626477               -0.15160628                0.29395710                8.85982533               -0.21355859
               6.33090164                7.98478022                9.00306975                0.00010000               -0.72771073                0.26899816               -0.01028894                0.21025659                8.99276225                0.10487843
               7.32281566                7.97060907                9.03028347                0.00010000               -0.87280286                0.13323419                0.17572419                0.09404224                9.19801630                0.45102529
               8.31344558                7.95726005                9.06121366                0.23633437               -0.49566059               -0.10821336                0.40644747               -0.00347969                4.66465011                0.92215734
               9.31290245                7.94433482                8.99981251                0.80359843                0.02359968                0.03171868               -0.09504332               -0.00821959                0.03018886                0.28693094
              10.31391758                7.93190847                8.93790265                0.94880818                0.10151296                0.17138775               -0.58277143               -0.02930409                0.00452134               -0.43515652
               0.35858393                9.06944083                9.05636841                0.96383491               -0.02192072               -0.12099946                0.38441600               -0.03591780                0.02343658                0.56388521
               1.35836473                9.05559083                8.98034813                0.57936196                0.06846354                0.07071209               -0.23718630               -0.01501439                0.12295087               -0.26980826
               2.35995320                9.04114065                8.90626782                0.00010000                0.10076769                0.26474946               -0.86821014                0.11108760                4.83843436               -0.90323616
               3.36038008                9.02862626                8.92487881                0.00010000               -0.09919521                0.22560012               -0.29317339                0.20079985                9.66607111               -0.76410424
               4.35796930                9.01540406                8.95048464                0.00010000               -0.34158865                0.25952011               -0.23284688                0.17004893                9.88667663               -0.37914194
               5.35354831                9.00182362                8.97786006                0.00010000               -0.56409786                0.28935048               -0.12444591                0.15725522                9.86459217               -0.13246477
               6.34668734                8.98773316                9.00766712                0.00010000               -0.83441140                0.29539840                0.05428263                0.06405778                9.97419034                0.06569070
               7.33686008                8.97211646                9.04124926                0.00010000               -1.04252144                0.24892442                0.29617790               -0.12505364               10.28086077                0.27771021
               8.32583691                8.95582688                9.08042861                0.26020097               -0.60261740               -0.17017810                0.60416398               -0.21929273                5.30462481                0.65022309
               9.32480773                8.94437877                9.01665165                0.84293436               -0.02379023               -0.02370552                0.07514514               -0.00588540                0.07071286                0.26176677
              10.32536111                8.93343592                8.95093965                0.92252632                0.05533782                0.13431850               -0.44169312               -0.02859526               -0.02312039               -0.36437275
               0.37116034               10.06845760                9.04236629                0.98013893                0.03099989               -0.09832233                0.22663313                0.07215574                0.33708309                0.45853937
               1.37147033               10.05660276                8.96445440                0.82474741                0.12344282                0.10119242               -0.41804626                0.09173808                0.60282038               -0.24151191
               2.37362919               10.04408115                8.89185346                0.49798418                0.14056095                0.29404955               -1.03891002                0.06941220                5.60187148               -0.60105243
               3.37428155               10.03063903                8.91429220                0.30319997               -0.07531538                0.20127628               -0.28227463                0.07798977               10.51615474               -0.38961230
               4.37212288               10.01783800                8.94522800                0.29964225               -0.30478382                0.24339402               -0.25376590                0.11505137               10.73381649               -0.15886835
               5.36818588               10.00463289                8.97700998                0.32238495               -0.51164653                0.28092658               -0.12267922                0.10626663               10.64588212               -0.02743607
               6.36188995                9.99068819                9.01108377                0.36859443               -0.79825077                0.29550343                0.09489629                0.06799480               10.76687383                0.07659812
               7.35222086                9.97558756                9.04927451                0.45741075               -1.25462677                0.34711003                0.38363577               -0.30550666               11.19697773                0.19556823
               8.33679742                9.95385649                9.09496134                0.64082606               -0.85225833               -0.19703861                0.75322278               -0.49029222                6.06451346                0.43267135
               9.33517570                9.94386071                9.03281825                0.94984127               -0.07830257               -0.05180604                0.23855380                0.07371389                0.42260858                0.23612842
              10.33523137                9.93459484                8.96543482                0.96540177                0.00556719                0.11589222               -0.29077871                0.06043913                0.16648403               -0.29038414
               0.20541878                0.11658961               10.16704993                1.00000000               -0.39613903               -0.44008459                1.51443039               -0.07643575               -0.47050131                0.52117209
               1.20145739                0.08463220               10.12499093                1.00000000               -0.32750198               -0.34276381                1.19782755               -0.05616818               -0.55922161                0.00610724
               2.19886874                0.05239797               10.08102591                1.00000000               -0.17808318               -0.24815537                0.84507408               -0.04362087               -0.49097252               -0.19339716
               3.19789572                0.02095456               10.04021988                0.59960250                0.30572625               -0.18301620                0.53050050                0.38539714                0.43734934               -0.33868726
               4.20498326               -0.00068918               10.01476047                0.62840637                0.50400579               -0.15012363                0.23673540                0.00207082                1.09245486                0.01471037
               5.20797584               -0.01581348                9.98699824                0.67593190                0.20062175               -0.00442529               -0.09727030               -0.00151261                0.78888188                0.01568925
               6.20899570               -0.02997605                9.95589887                0.67896393                0.05589393                0.11024770               -0.44751027                0.00526600                0.65553104               -0.00694542
               7.20909372               -0.04638572                9.92560539                0.82323904                0.05900826                0.22197869               -0.79759468                0.06435463                0.40227931                0.02925986
               8.21017586               -0.06731705                9.88946444                1.00000000                0.21920864                0.33894003               -1.12643513                0.04122202               -0.08039666                0.31895728
               9.21347789               -0.09076574                9.84972853                1.00000000                0.39799465                0.41484701               -1.44403231               -0.05065117               -0.28827796                0.02490730
              10.21813576               -0.11428478                9.80960888                1.00000000                0.46578653                0.50491330               -1.75011311               -0.07976789               -0.31400570               -0.33464674
               0.23661183                1.11218876               10.15271196                1.00000000               -0.36203031               -0.42365910                1.37641753               -0.03198716               -0.04577136                0.71297539
               1.23299152                1.08120456               10.11019250                1.00000000               -0.31702398               -0.32085646                1.06049521               -0.01149511                0.01991108                0.01678647
               2.23027135                1.04991641               10.06890102                0.78067481               -0.23491270               -0.22327709                0.73773146                0.01236575                0.26066450               -0.51554935
               3.22829327                1.01912440               10.03120626                0.02516652               -0.34416761               -0.17663429                0.41444149                0.50506818                1.42003767               -0.69331307
               4.22338799                0.99780958               10.01326580                0.10709127               -0.28445604                0.09254111                0.20467127                0.46373483                2.00449177                0.31014072
               5.22260415                0.98414226                9.98897663                0.15857857                0.04732397                0.09803234               -0.09660833                0.48279414                1.46645826                0.21315736
               6.22433447                0.97112643                9.96103283                0.09213725                0.29018075               -0.04108397               -0.41755072                0.41245878                1.32662563               -0.34806113
               7.22840776                0.95583407                9.93435156                0.30403816                0.42218104                0.25521905               -0.71981859                0.44891139                1.22046810                0.53429107
               8.23277809                0.93607235                9.90442774                1.00000000                0.40237409                0.31319242               -1.00278592                0.15576720                0.60170423                0.41488859
               9.23645524                0.91338273                9.86523908                1.00000000                0.40395125                0.39605021               -1.30463946               -0.00192751                0.08668526                0.07457893
              10.24085712                0.89076435                9.82505769                1.00000000                0.44018744                0.47924768               -1.61033899               -0.03137378                0.03287586               -0.39493131
               0.26674743                2.10811642               10.14203005                1.00000000               -0.32476029               -0.39432284                1.26533918               -0.03405114                0.03071868                0.92189359
               1.26349983                2.07821507               10.09550452                1.00000000               -0.27756098               -0.28091093                0.92806082               -0.01487098                0.10020310               -0.00083122
               2.26119621                2.04793243               10.05028658                0.35514940               -0.16979551               -0.17475364                0.61114619               -0.00060991                0.66670303               -0.98509105
               3.26010392                2.01742188               10.01508457                0.00010000               -0.59780574               -0.15655151                0.28974872                0.79644069                3.02808366               -1.32399318
               4.24924010                2.00116164               10.01727549                0.00010000               -0.78945198                0.22517500                0.58054250                1.54940520                3.21667648               -0.87419690
               5.24431488                1.98614716                9.99476854                0.00010000               -0.18435158                0.08288872               -0.02205377                1.32427939                1.39335157               -0.47359151
               6.24555307                1.96920227                9.95937309                0.00010000                0.44055709               -0.07827164               -0.40049587                1.35056644                2.22371460                0.05375288
               7.25312602                1.95871866                9.95328869                0.00010000                0.50947406               -0.00192884               -0.61558941                0.97448920                2.48772237                0.36045946
               8.25574255                1.93894680                9.92136651                0.39586179                0.28106599                0.29025378               -0.85946319                0.20389098                0.84090897                0.78031412
               9.25874734                1.91715526                9.88183609                1.00000000                0.35012465                0.37164943               -1.16097962                0.03166131                0.31438050                0.33757279
              10.26274504                1.89530017                9.83943431                1.00000000                0.39976992                0.43032404               -1.48371592               -0.02052901                0.16798410               -0.40919070
               0.29573351                3.10430230               10.13167123                1.00000000               -0.28554116               -0.36868122                1.15561931               -0.03603202                0.02665750                0.93882548
               1.29287810                3.07558634               10.08025275                1.00000000               -0.23405855               -0.24217281                0.79014974               -0.01881266                0.02891939               -0.03541494
               2.29105234                3.04642134               10.02877724                0.12211869               -0.09426159               -0.11835949                0.42535473               -0.05786488                0.83548926               -1.07889923
               3.29099287                3.01599337                9.99346978                0.00010000               -0.27007638                0.05190394                0.11674016                0.71833350                3.30602856               -1.19530898
               4.28565081                3.00231308                9.99165655                0.00010000               -0.49718800                0.13795238                0.03728299                1.74534753                4.54252493               -1.55261068
               5.28104911                2.98580004                9.98325490                0.00010000               -0.34382561                0.05426399               -0.09672842                1.67235302                3.92808533               -0.94969921
               6.27877430                2.96956099                9.97193656                0.00010000               -0.14480448                0.09617423               -0.32698475                1.56390278                3.63872263                0.31017166
               7.27815302                2.95579549                9.95886633                0.00010000               -0.01774932               -0.10396305               -0.51658412                1.14546399                3.40709283                0.12625041
               8.27841931                2.94187743                9.94369212                0.16095444                0.12910403                0.28123703               -0.70919141                0.48930768                1.97699654                1.40567949
               9.28073510                2.92081572                9.90266662                1.00000000                0.28687058                0.33578127               -0.98769659                0.04204282                0.33633503                0.50197585
              10.28415673                2.89937083                9.85477813                1.00000000                0.34216268                0.39133849               -1.34602251               -0.02936013               -0.01081016               -0.33046034
               0.32345871                4.10074280               10.12114287                1.00000000               -0.24541770               -0.34215978                1.04171281               -0.03637179                0.02651519                0.91685661
               1.32100454                4.07337161               10.06480884                1.00000000               -0.19134136               -0.19844266                0.64537001               -0.01694419                0.02778025               -0.04541466
               2.31963189                4.04556524               10.00839015                0.00379052               -0.12128441               -0.05768041                0.24802079                0.04228220                1.42826914               -0.96918968
               3.31857885                4.01845996                9.98008390                0.00010000               -0.26457522                0.37273763               -0.22844316                0.57244224                4.31049603               -0.24026761
               4.31434038                4.00392069                9.98152285                0.00010000               -0.40324090                0.18212048               -0.12787851                1.18349031                5.49517374               -0.57566946
               5.31051403                3.98723244                9.97949195                0.00010000               -0.37523581                0.17224116               -0.18928657                1.14010340                5.17570377               -0.40074915
               6.30683566                3.97112575                9.97659011                0.00010000               -0.33975810                0.17530492               -0.28516314                1.13542611                5.02711218                0.00346513
               7.30371887                3.95663940                9.97363801                0.00010000               -0.31635951                0.12882982               -0.38636618                1.11548915                5.05656812                0.61935743
               8.30050847                3.94457154                9.97299642                0.15820469               -0.08120377                0.21628765               -0.46703402                0.51927787                2.60880863                1.51319289
               9.30209479                3.92387089                9.92250293                1.00000000                0.22695688                0.27210780               -0.81205217                0.02314588                0.05710079                0.44460548
              10.30504761                3.90312694                9.87092281                1.00000000                0.29528204                0.35460023               -1.19448756               -0.02749382               -0.00017986               -0.31117022
               0.34974845                5.09745911               10.11019153                1.00000000               -0.20316695               -0.31027057                0.91907503               -0.03886622                0.06940915                0.86823611
               1.34771678                5.07161749               10.04932426                0.84704000               -0.14694027               -0.14965019                0.49682617               -0.02136484                0.10968939               -0.10546736
               2.34680964                5.04526773                9.98915546                0.00010000               -0.18152586                0.00108388                0.08653621                0.23029613                2.61893724               -0.99300364
               3.34408626                5.02344812                9.97852445                0.00010000               -0.31307546                0.39671247               -0.17364722                0.59778180                5.39878050               -0.10377049
               4.34054813                5.00595549                9.97589055                0.00010000               -0.37200748                0.23430543               -0.20602096                0.87206844                5.96459358               -0.34191403
               5.33664611                4.98924486                9.97864298                0.00010000               -0.42361353                0.22042416               -0.21188494                0.88872926                6.20443570               -0.20447116
               6.33207586                4.97306709                9.98297275                0.00010000               -0.48145473                0.20737619               -0.23107863                0.88516190                6.25519814                0.13846643
               7.32701702                4.95837209                9.98896268                0.00010000               -0.52512384                0.17119499               -0.24625295                0.91096538                6.34879151                0.63912358
               8.32157338                4.94620318                9.99729818                0.17081557               -0.21872007                0.11853236               -0.24160962                0.44699401                3.20464733                1.20332057
               9.32264261                4.92625787                9.94217758                0.98493948                0.17606810                0.20511514               -0.62873618                0.01430823                0.01541873                0.41474901
              10.32509475                4.90646283                9.88675536                1.00000000                0.24521321                0.31078003               -1.03255927               -0.02800438               -0.00272305               -0.33349418
               0.37436462                6.09453739               10.09854895                1.00000000               -0.15960133               -0.26792958                0.78688696               -0.04151116                0.06789812                0.80264930
               1.37276861                6.07037861               10.03264999                0.67308126               -0.09787257               -0.09665230                0.32733313               -0.02871520                0.15429595               -0.22002401
               2.37240717                6.04558691                9.96837940                0.00010000               -0.14609435                0.06461497               -0.11883347                0.27658135                3.37776136               -1.18318614
               3.36984672                6.02639420                9.96704462                0.00010000               -0.32110803                0.27186104               -0.20024030                0.65622612                6.64229675               -0.72961358
               4.36598501                6.00860680                9.97070864                0.00010000               -0.43348544                0.28187572               -0.22237755                0.73956830                6.98210161               -0.41516810
               5.36117702                5.99164092                9.97873443                0.00010000               -0.52866697                0.26516135               -0.19902413                0.71999075                7.23397650               -0.16264571
               6.35541167                5.97527328                9.98996660                0.00010000               -0.61874642                0.23354785               -0.15953149                0.68386585                7.39527392                0.18100319
               7.34880209                5.96006330               10.00379241                0.00010000               -0.69245517                0.15959345               -0.10584067                0.69305609                7.54043545                0.61334487
               8.34156257                5.94694219               10.02035290                0.18753620               -0.33403937                0.03592797               -0.02968625                0.33352078                3.80394014                1.11475412
               9.34212130                5.92797319                9.96146811                0.87608535                0.12575164                0.14233590               -0.44939883                0.00572936                0.02867132                0.37600201
              10.34407760                5.90934254                9.90250747                1.00000000                0.19563027                0.26365442               -0.87053213               -0.02626342                0.02363690               -0.36954812
               0.39723578                7.09210052               10.08612830                0.99367874               -0.11428340               -0.21605521                0.64505178               -0.04010481                0.03881571                0.74683257
               1.39609295                7.06968444               10.01484724                0.57520679               -0.04550538               -0.04336346                0.14982566               -0.02936848                0.13579772               -0.29836095
               2.39632567                7.04656003                9.94542080                0.00010000               -0.09510232                0.12769287               -0.33843348                0.26848069                4.04164422               -1.35557833
               3.39419090                7.02888534                9.95240705                0.00010000               -0.31164471                0.25847342               -0.29676305                0.60470878                7.91509609               -0.94978554
               4.39009278                7.01159301                9.96357670                0.00010000               -0.49057271                0.31239425               -0.23902210                0.61302579                8.16036466               -0.54097301
               5.38437945                6.99454809                9.97852449                0.00010000               -0.63809885                0.31477771               -0.16943776                0.55671841                8.35965605               -0.18315247
               6.37733080                6.97773805                9.99678652                0.00010000               -0.75851078                0.26704813               -0.08017724                0.47533444                8.53092473                0.17238175
               7.36920923                6.96156396               10.01822598                0.00010000               -0.84984452                0.14869612                0.03340161                0.43287055                8.71214923                0.58199188
               8.36033391                6.94692174               10.04290098                0.20779106               -0.44261915               -0.03640671                0.17449088                0.18714876                4.40356257                1.07178111
               9.36035685                6.92910459                9.98042052                0.81371631                0.07484349                0.08643637               -0.27177279               -0.00100439                0.03364449                0.33182434
              10.36183078                6.91173592                9.91763475                0.98817973                0.14739337                0.21546277               -0.71964585               -0.02556926                0.01957861               -0.42861513
               0.41839467                8.09021628               10.07319773                0.97529011               -0.06729503               -0.16172797                0.49827956               -0.03730107                0.02358121                0.71759100
               1.41772172                8.06951134                9.99658991                0.54353504                0.00906059                0.00983807               -0.03194086               -0.02342889                0.09224782               -0.33372420
               2.41857589                8.04814077                9.92129411                0.00010000               -0.04068987                0.18845313               -0.56812265                0.24328740                4.66702164               -1.38061890
               3.41690793                8.03156367                9.93639646                0.00010000               -0.29965504                0.27778381               -0.37745014                0.51095269                9.21278086               -0.96647490
               4.41258279                8.01485468                9.95558874                0.00010000               -0.53707920                0.33632487               -0.24733338                0.46864458                9.38736906               -0.52619650
               5.40616634                7.99793648                9.97772360                0.00010000               -0.73401473                0.35310240               -0.13646352                0.39096847                9.50320536               -0.17601894
               6.39790249                7.98061424               10.00301086                0.00010000               -0.89452672                0.32408405               -0.00278737                0.26595776                9.66261034                0.14018007
               7.38827581                7.96303722               10.03198345                0.00010000               -1.00687897                0.17284214                0.16618600                0.11913960                9.89402284                0.49990460
               8.37776491                7.94621405               10.06509514                0.23178575               -0.54943906               -0.10292700                0.37348737                0.00418968                5.00857868                1.00328625
               9.37728703                7.92970192                9.99881175                0.80385514                0.02693218                0.03347540               -0.10605542               -0.00503260                0.02503483                0.31034931
              10.37830355                7.91365180                9.93213792                0.97070412                0.10165278                0.17211720               -0.57589192               -0.02639308                0.00702055               -0.46117380
               0.43789965                9.08886596               10.06002458                0.96276033               -0.01997658               -0.11206977                0.35072690               -0.03306243                0.01743059                0.59433900
               1.43769988                9.06988120                9.97808970                0.56664434                0.06197209                0.06539802               -0.21584528               -0.01236669                0.11153836               -0.30677753
               2.43913909                9.05032910                9.89800511                0.00010000               -0.00019184                0.24443478               -0.79070853                0.19907306                5.35869085               -0.99417896
               3.43769604                9.03444102                9.92128641                0.00010000               -0.30231116                0.31254692               -0.38938703                0.33161557               10.50372487               -0.66278173
               4.43309286                9.01831950                9.94810115                0.00010000               -0.56283929                0.34672438               -0.24753780                0.27880376               10.54569353               -0.32882806
               5.42643926                9.00161013                9.97672336                0.00010000               -0.77718265                0.36745512               -0.11083295                0.22355063               10.56075726               -0.10575341
               6.41754921                8.98421973               10.00825787                0.00010000               -1.02235231                0.36485616                0.06141473                0.09712225               10.71977183                0.08744402
               7.40599221                8.96502080               10.04412891                0.00010000               -1.18981004                0.30755204                0.28197093               -0.12431717               11.06778806                0.30497415
               8.39375301                8.94486320               10.08621609                0.25767801               -0.65868803               -0.15868358                0.55883864               -0.23226690                5.69673633                0.70007801
               9.39281845                8.92977410               10.01729015                0.84100442               -0.01749225               -0.01868734                0.05402374               -0.00628080                0.06287891                0.28164114
              10.39340317                8.91517827                9.94653319                0.92474620                0.05847149                0.13514246               -0.44171602               -0.02672123               -0.02516288               -0.38656936
               0.45570293               10.08797489               10.04446731                0.97975264                0.03083207               -0.08910678                0.19721815                0.06476960                0.34598343                0.48343451
               1.45601125               10.07081930                9.96043451                0.81800099                0.11473010                0.09380964               -0.38808389                0.08386601                0.62177211               -0.27139455
               2.45799753               10.05302947                9.88192423                0.49030640               -0.02307103                0.27003717               -0.95398325                0.23560995                6.23926849               -0.65587907
               3.45554983               10.03781461                9.91055953                0.30388476               -0.35038930                0.33735917               -0.42138170                0.22336378               11.43785751               -0.31389507
               4.45098975               10.02178917                9.94261280                0.29997910               -0.54063496                0.34696659               -0.27483989                0.16323662               11.42716518               -0.12767661
               5.44473713               10.00528558                9.97589672                0.32249369               -0.72777378                0.36754466               -0.10899415                0.13589700               11.40837016               -0.00971335
               6.43643427                9.98791136               10.01207994                0.36872093               -0.97955673                0.36916346                0.10177721                0.08364006               11.59162993                0.09200764
               7.42514600                9.96918827               10.05301594                0.45837229               -1.40339978                0.41674644                0.36721389               -0.32817071               12.07258926                0.21535193
               8.40836627                9.94304038               10.10219505                0.64070301               -0.91498271               -0.18228182                0.70057743               -0.53167826                6.51540243                0.45603708
               9.40684634                9.92932817               10.03503825                0.94976239               -0.07027392               -0.04459278                0.20811621                0.06850239                0.43817617                0.25201782
              10.40696080                9.91635465                9.96249745                0.97817093                0.01144542                0.11763778               -0.29910316                0.05841033                0.17479690               -0.30616426
               0.24415947                0.13700941               11.18205999                1.00000000               -0.38964896               -0.43150824                1.48909665               -0.07510414               -0.50774896                0.55581534
               1.24026298                0.10021037               11.13688686                1.00000000               -0.32147802               -0.33776754                1.18170789               -0.05602872               -0.61538176                0.01265639
               2.23772991                0.06316089               11.08943405                1.00000000               -0.17377899               -0.24619222                0.84022137               -0.04303353               -0.54755063               -0.18659618
               3.23678740                0.02700701               11.04552023                0.60997802                0.30790430               -0.18292379                0.53332649                0.40667095                0.40791320               -0.37017382
               4.24388800                0.00118034               11.01712321                0.64370320                0.49502458               -0.13124634                0.23633021               -0.00757814                1.05131820                0.02831431
               5.24668789               -0.01761045               10.98604998                0.69338748                0.18755803                0.00167475               -0.09196187                0.00195867                0.72559429                0.02174656
               6.24763916               -0.03536161               10.95148442                0.69176597                0.05138823                0.10914835               -0.43497732                0.00646077                0.58321995               -0.01286705
               7.24771566               -0.05522769               10.91769590                0.83018215                0.05281636                0.21787260               -0.78288045                0.06245073                0.33822566                0.03002653
               8.24869548               -0.07965386               10.87827663                1.00000000                0.20957184                0.33577519               -1.10996161                0.04375044               -0.12670009                0.33053778
               9.25190709               -0.10673698               10.83537645                1.00000000                0.39007461                0.41000379               -1.42547741               -0.05097711               -0.32313315                0.02276536
              10.25649698               -0.13393475               10.79220625                1.00000000                0.45898817                0.49818679               -1.72951284               -0.07987967               -0.34359041               -0.36530178
               0.28020747                1.13269433               11.16635242                1.00000000               -0.35805126               -0.41438639                1.35309842               -0.03131795               -0.05379633                0.75965407
               1.27662695                1.09683270               11.12072801                1.00000000               -0.31531065               -0.31581899                1.04696645               -0.01068553                0.00692731                0.02522900
               2.27390125                1.06069897               11.07623924                0.80229736               -0.23912833               -0.22239287                0.73133042                0.01803703                0.24350838               -0.51727811
               3.27184439                1.02517778               11.03535160                0.04754408               -0.38901535               -0.17712225                0.41689167                0.54780913                1.45761901               -0.72931845
               4.26612095                0.99986787               11.01529855                0.13466839               -0.34329675                0.09970824                0.20228704                0.33703583                2.06054713                0.49086597
               5.26497845                0.98240630               10.98802556                0.18745699                0.01957188                0.09425321               -0.09357862                0.41833282                1.47403416                0.24422175
               6.26651238                0.96572987               10.95690752                0.11400826                0.27539188               -0.02681301               -0.40764170                0.37005389                1.33404657               -0.35561084
               7.27048629                0.94695104               10.92720926                0.31926238                0.41876255                0.24479690               -0.70792656                0.44694755                1.24104885                0.54566567
               8.27488764                0.92370389               10.89446527                1.00000000                0.40257405                0.31019196               -0.98942682                0.16321693                0.61645759                0.43570168
               9.27853777                0.89736306               10.85226866                1.00000000                0.40041583                0.39200425               -1.28917056               -0.00177564                0.08915891                0.07428757
              10.28289595                0.87104711               10.80904066                1.00000000                0.43581808                0.47156000               -1.59278346               -0.03154359                0.03306475               -0.43220922
               0.31525637                2.12872168               11.15455935                1.00000000               -0.32117419               -0.38448187                1.24198483               -0.03114207                0.02978052                0.98176995
               1.31204463                2.09389399               11.10472612                1.00000000               -0.27554009               -0.27665958                0.91648187               -0.01026453                0.10852900                0.00719225
               2.30974557                2.05871303               11.05640240                0.37700051               -0.17349761               -0.17750356                0.61037320                0.01440968                0.68160692               -1.02398636
               3.30857468                2.02346457               11.01802061                0.00010000               -0.81726897               -0.16044674                0.29541887                0.85278975                3.30895746               -1.38729302
               4.29340019                2.00317450               11.02237771                0.00010000               -0.96910651                0.24458396                0.44834987                1.63738975                3.42897907               -0.94822364
               5.28919255                1.98427462               10.99434146                0.00010000               -0.14523477                0.07312291               -0.05283915                1.40130792                1.33485939               -0.47147841
               6.29049550                1.96410213               10.95549520                0.00010000                0.47440211               -0.09111142               -0.38217886                1.40596149                2.32153914                0.06104356
               7.29868059                1.94966825               10.94711297                0.00010000                0.55261545               -0.02139667               -0.61708501                1.00854681                2.58962398                0.38454428
               8.30154780                1.92654998               10.91282683                0.40177950                0.29238854                0.29120620               -0.84906241                0.23088453                0.90558785                0.81611759
               9.30452836                1.90110310               10.87029164                1.00000000                0.34750921                0.37074766               -1.14823926                0.03789837                0.33666648                0.35369028
              10.30849799                1.87549645               10.82467259                1.00000000                0.39696280                0.42143178               -1.46887513               -0.01867451                0.17964688               -0.44665797
               0.34924000                3.12500469               11.14309893                1.00000000               -0.28096904               -0.35965536                1.13147888               -0.03182244                0.02683325                0.99751181
               1.34643031                3.09129950               11.08810819                1.00000000               -0.23105669               -0.23955531                0.78088684               -0.01373260                0.02860209               -0.03313917
               2.34461887                3.05714889               11.03306949                0.13981558               -0.09958000               -0.12320457                0.43146929               -0.04135106                0.86157259               -1.14365599
               3.34443871                3.02196884               10.99470461                0.00010000               -0.32800868                0.02234909                0.12756684                0.81013171                3.47025022               -1.37040544
               4.33805870                3.00475955               10.99206442                0.00010000               -0.61808661                0.15135933                0.03579093                2.00586148                4.79796687               -1.84969080
               5.33207698                2.98386876               10.98224476                0.00010000               -0.44103581                0.06130125               -0.10700763                1.83514093                4.12067432               -1.02873590
               6.32923798                2.96390765               10.96870405                0.00010000               -0.19338020                0.06770802               -0.32067533                1.70894756                3.80608851                0.33363121
               7.32820938                2.94652310               10.95374410                0.00010000               -0.05837535               -0.11291594               -0.50759962                1.24864956                3.58710732                0.17211507
               8.32807047                2.92952802               10.93668170                0.15876921                0.10699479                0.28741413               -0.69470222                0.53881618                2.09771066                1.48329931
               9.33034927                2.90477801               10.89284157                1.00000000                0.28326518                0.33640582               -0.97788205                0.05151119                0.37489558                0.53182873
              10.33373578                2.87947575               10.84138298                1.00000000                0.33865036                0.38433311               -1.33384786               -0.02810778               -0.00907439               -0.35429660
               0.38203029                4.12152857               11.13142421                1.00000000               -0.24045203               -0.33410281                1.01625103               -0.03261328                0.02610289                0.96979512
               1.37962577                4.08910288               11.07122813                1.00000000               -0.18905401               -0.19675301                0.63837796               -0.01272900                0.02590757               -0.04822041
               2.37824921                4.05624894               11.01093706                0.01787608               -0.12295581               -0.06219016                0.25945893                0.03592517                1.37935108               -1.02223112
               3.37716666                4.02391155               10.97780966                0.00010000               -0.33158532                0.36462106               -0.21976071                0.62116700                4.52037797               -0.31589833
               4.37161750                4.00620169               10.98029609                0.00010000               -0.52096919                0.16808851               -0.12204344                1.29302568                5.91485587               -0.66759061
               5.36674727                3.98550064               10.97765236                0.00010000               -0.47987031                0.18499756               -0.18152412                1.22429850                5.49177017               -0.45815944
               6.36202010                3.96545629               10.97378131                0.00010000               -0.43570310                0.18295096               -0.27711677                1.21288335                5.31978025                0.01596707
               7.35803321                3.94740993               10.96980267                0.00010000               -0.39754380                0.13855491               -0.37991114                1.20231330                5.35004521                0.67954213
               8.35406922                3.93229826               10.96831907                0.15361265               -0.12111791                0.22139723               -0.46734143                0.56886927                2.77571314                1.62253398
               9.35561085                3.90783122               10.91441990                1.00000000                0.22355646                0.27065938               -0.80547811                0.03098601                0.07664889                0.47854996
              10.35854035                3.88318311               10.85903207                1.00000000                0.29295006                0.35115139               -1.18540230               -0.02587864                0.00048813               -0.32081568
               0.41343911                5.11832263               11.11923631                1.00000000               -0.19837472               -0.30219641                0.89185727               -0.03558502                0.07450575                0.91295456
               1.41145537                5.08736444               11.05426914                0.83387529               -0.14552033               -0.14820110                0.49196143               -0.01800782                0.11983207               -0.12039944
               2.41052871                5.05590509               10.99012118                0.00010000               -0.22730306               -0.00344296                0.10415572                0.24644669                2.69265919               -1.06018157
               3.40690930                5.02926126               10.97663902                0.00010000               -0.40992934                0.43068725               -0.21479490                0.62345459                5.68274514               -0.01922861
               4.40233012                5.00812132               10.97386883                0.00010000               -0.48004791                0.23025454               -0.20158012                0.94840046                6.38697409               -0.35278836
               5.39730835                4.98756871               10.97658579                0.00010000               -0.53718821                0.22888306               -0.20169771                0.94394444                6.61628867               -0.20990248
               6.39158636                4.96756667               10.98070677                0.00010000               -0.59473380                0.22631556               -0.22231694                0.93949832                6.65298624                0.16372893
               7.38541367                4.94929420               10.98651244                0.00010000               -0.62798934                0.18808098               -0.24294693                0.97808064                6.74949103                0.70170717
               8.37902657                4.93395596               10.99484284                0.16564606               -0.26647619                0.11981049               -0.24828463                0.48601873                3.41482021                1.30036022
               9.38008415                4.91019120               10.93592531                0.97746707                0.17439284                0.20271647               -0.62572093                0.01933815                0.02641958                0.44977283
              10.38251443                4.88649878               10.87650775                1.00000000                0.24302790                0.30948780               -1.02266853               -0.02611857                0.00103212               -0.33765953
               0.44323497                6.11548464               11.10626261                1.00000000               -0.15518123               -0.25936662                0.75818272               -0.03831621                0.06810830                0.83874060
               1.44168316                6.08613886               11.03591256                0.66253430               -0.09768208               -0.09566070                0.32504408               -0.02506551                0.16009856               -0.24872979
               2.44128133                6.05618008               10.96732219                0.00010000               -0.21318192                0.05962489               -0.09514990                0.31414190                3.56347875               -1.27901188
               3.43741952                6.03252530               10.96510721                0.00010000               -0.45016287                0.29279586               -0.19484957                0.72231036                7.03873231               -0.70342825
               4.43227807                6.01080678               10.96854037                0.00010000               -0.56193501                0.29241848               -0.21614772                0.81519441                7.43643354               -0.38906641
               5.42618082                5.99007830               10.97680951                0.00010000               -0.65967493                0.28387026               -0.18811953                0.78262886                7.71457570               -0.13852121
               6.41908457                5.96998260               10.98841442                0.00010000               -0.74876457                0.25949521               -0.15132628                0.73346527                7.88127128                0.21937822
               7.41120553                5.95117155               11.00273435                0.00010000               -0.80959837                0.18031897               -0.10508868                0.74428946                8.03363056                0.67501506
               8.40289260                5.93469447               11.01999144                0.18236576               -0.38753637                0.03642794               -0.04188411                0.35981973                4.05482710                1.20280629
               9.40345480                5.91188555               10.95697423                0.86217078                0.12551081                0.14230230               -0.45130952                0.00769559                0.03534623                0.40784484
              10.40540282                5.88937286               10.89384258                1.00000000                0.19480209                0.26533171               -0.86792598               -0.02410885                0.03045517               -0.38123064
               0.47136435                7.11313530               11.09241937                0.99155444               -0.11057322               -0.20757535                0.61588026               -0.03685710                0.03712524                0.77634889
               1.47025862                7.08545123               11.01636085                0.56640599               -0.04696206               -0.04336467                0.15257581               -0.02509227                0.13642701               -0.33222407
               2.47042511                7.05709759               10.94222180                0.00010000               -0.17649031                0.12046983               -0.30458196                0.31806863                4.30004313               -1.46220553
               3.46672881                7.03511718               10.94955105                0.00010000               -0.46720545                0.26964362               -0.27940379                0.69712685                8.43887061               -0.95867880
               4.46108100                7.01396969               10.96126362                0.00010000               -0.64718575                0.33962200               -0.22744790                0.70951881                8.69877903               -0.50871078
               5.45378510                6.99324611               10.97689590                0.00010000               -0.79592953                0.35241616               -0.15873834                0.63089594                8.90988952               -0.14585554
               6.44516241                6.97275657               10.99602349                0.00010000               -0.90987552                0.30649366               -0.07322289                0.52319476                9.09456853                0.21542831
               7.43558759                6.95290058               11.01854346                0.00010000               -0.98267234                0.17663425                0.03081900                0.46671279                9.28985971                0.64020282
               8.42550896                6.93468452               11.04455114                0.20296962               -0.50139612               -0.03418998                0.15697650                0.20164566                4.69398511                1.15353626
               9.42555967                6.91303724               10.97764943                0.79953398                0.07743266                0.08933160               -0.28414119                0.00132297                0.03480599                0.36040314
              10.42705762                6.89180541               10.91042398                0.98767842                0.14979516                0.22068431               -0.72702749               -0.02304219                0.02161311               -0.44578248
               0.49786597                8.11133314               11.07802416                0.97395957               -0.06469452               -0.15386388                0.47001828               -0.03426003                0.02112275                0.74434941
               1.49721902                8.08527157               10.99632359                0.53508330                0.00553917                0.00797260               -0.02215076               -0.01936595                0.08611137               -0.36997701
               2.49797675                8.05858948               10.91587696                0.00010000               -0.13645340                0.17646812               -0.51988655                0.30759041                5.00092696               -1.48722412
               3.49448995                8.03791817               10.93264460                0.00010000               -0.48186187                0.30451906               -0.37126817                0.63197309                9.86648940               -0.94295305
               4.48833951                8.01759922               10.95313193                0.00010000               -0.72390474                0.39168731               -0.24439032                0.57868350               10.00710141               -0.48517824
               5.48001186                7.99712662               10.97641019                0.00010000               -0.92227577                0.41446595               -0.12861831                0.46674481               10.12039449               -0.13746089
               6.46989400                7.97611248               11.00301400                0.00010000               -1.07000138                0.38281937                0.00213834                0.30462168               10.29901571                0.17802700
               7.45861183                7.95470424               11.03360719                0.00010000               -1.15525706                0.21414355                0.15947080                0.12841146               10.55383818                0.54703937
               8.44678885                7.93401067               11.06868341                0.22785576               -0.61257318               -0.09779914                0.34758788                0.00346928                5.33793653                1.07503131
               9.44636037                7.91367218               10.99769140                0.79564657                0.03083915                0.03739250               -0.12059449               -0.00177920                0.02339268                0.33289737
              10.44740564                7.89378655               10.92638481                0.97113118                0.10452716                0.17697973               -0.58293166               -0.02285617                0.01169455               -0.48164235
               0.52280229                9.11005802               11.06338295                0.96198605               -0.01873259               -0.10461560                0.32415862               -0.03075220                0.01265052                0.61746994
               1.52261496                9.08561068               10.97603123                0.55636253                0.05640161                0.06068430               -0.19749587               -0.01006187                0.10239593               -0.33792825
               2.52393032                9.06062695               10.89045365                0.00010000               -0.11282137                0.22679197               -0.72604439                0.29548352                5.79069896               -1.06808078
               3.52035853                9.04120756               10.91709107                0.00010000               -0.52420524                0.39483523               -0.42852795                0.45183375               11.27611723               -0.61704215
               4.51344622                9.02180344               10.94553388                0.00010000               -0.78758986                0.43309791               -0.26139950                0.36586821               11.21595702               -0.29431244
               5.50460674                9.00153543               10.97564340                0.00010000               -0.98844908                0.44826430               -0.10754106                0.27418999               11.23803545               -0.07939269
               6.49367723                8.98041296               11.00889541                0.00010000               -1.21745587                0.43858618                0.06433486                0.11786793               11.42763349                0.11038938
               7.48025762                8.95718345               11.04688868                0.00010000               -1.35334147                0.37081544                0.27120555               -0.13693535               11.81032761                0.33021536
               8.46661040                8.93272854               11.09160538                0.25539374               -0.72547077               -0.14956764                0.52393155               -0.25520280                6.06925218                0.74289694
               9.46574820                8.91378509               11.01773212                0.83912478               -0.01193247               -0.01336574                0.03506378               -0.00535403                0.05866455                0.29761112
              10.46637175                8.89534501               10.94210533                0.92745331                0.06235506                0.13782503               -0.44920052               -0.02384552               -0.02439832               -0.40649919
               0.54614560               10.10924083               11.04631066                0.97947875                0.03032512               -0.08171964                0.17443429                0.05877440                0.35261439                0.50253436
               1.54644885               10.08648526               10.95669273                0.81267518                0.10719689                0.08745738               -0.36262446                0.07761365                0.63699705               -0.29603070
               2.54828954               10.06312532               10.87277380                0.48487410               -0.20493559                0.24983644               -0.88312176                0.40240286                6.75918702               -0.69924578
               3.54235014               10.04581487               10.90586457                0.30471481               -0.64802677                0.46073121               -0.48664726                0.35595368               12.29632194               -0.28197729
               4.53532900               10.02626118               10.93973120                0.30029828               -0.77320019                0.44577385               -0.29544157                0.20213080               12.14888170               -0.10822459
               5.52688614               10.00609191               10.97483010                0.32252236               -0.93628356                0.45564788               -0.10677177                0.15909120               12.15332648                0.00609001
               6.51660333                9.98488420               11.01311931                0.36871905               -1.16642981                0.44712424                0.10429834                0.09404163               12.37608210                0.10659565
               7.50355754                9.96212054               11.05661879                0.45920231               -1.57600872                0.49370913                0.35470291               -0.36325176               12.89874345                0.23231234
               8.48508316                9.93101932               11.10897289                0.64042868               -0.99603624               -0.17092174                0.66116363               -0.58850847                6.94056037                0.47548912
               9.48363682                9.91340487               11.03698057                0.94980108               -0.06371291               -0.03802268                0.18206115                0.06504778                0.45179062                0.26417704
              10.48380890                9.89654305               10.95945276                0.97851430                0.01720839                0.11980448               -0.31078164                0.05753305                0.18077806               -0.32117025
               0.28561005                0.15912104               12.19683186                1.00000000               -0.38343659               -0.42385580                1.46661149               -0.07433168               -0.54290884                0.58789661
               1.28177569                0.11720303               12.14862509                1.00000000               -0.31628505               -0.33331495                1.16693147               -0.05651093               -0.66665345                0.01960161
               2.27928435                0.07505568               12.09783034                1.00000000               -0.17054277               -0.24531686                0.83967077               -0.04237762               -0.59993076               -0.18456779
               3.27836483                0.03388835               12.05088641                0.61773172                0.30977656               -0.18506898                0.54027058                0.42568860                0.37208724               -0.40451710
               4.28547988                0.00352643               12.01948708                0.65536549                0.48808421               -0.11540253                0.23727983               -0.01639390                1.00521612                0.04232697
               5.28812651               -0.01932972               11.98515900                0.70724740                0.17671457                0.00649346               -0.08600446                0.00463353                0.66320531                0.02829271
               6.28901417               -0.04107959               11.94719933                0.70207476                0.04697498                0.10830212               -0.42196313                0.00764374                0.51110527               -0.01829888
               7.28906601               -0.06481191               11.90994778                0.83579406                0.04735695                0.21422184               -0.76602766                0.06029821                0.27295264                0.03136089
               8.28996131               -0.09308357               11.86726521                1.00000000                0.20097983                0.33197529               -1.09159229                0.04450668               -0.17398420                0.34222693
               9.29308561               -0.12409485               11.82121898                1.00000000                0.38215156                0.40481346               -1.40538211               -0.05106061               -0.35824545                0.02087807
              10.29760434               -0.15525963               11.77501862                1.00000000                0.45187327                0.49134529               -1.70727004               -0.07947126               -0.37311481               -0.39561163
               0.32678474                1.15488248               12.17977393                1.00000000               -0.35414803               -0.40578582                1.33245582               -0.03128651               -0.06105652                0.80281132
               1.32324326                1.11386988               12.13113182                1.00000000               -0.31334099               -0.31121507                1.03428609               -0.01141488               -0.00542496                0.03359349
               2.32051792                1.07260251               12.08352763                0.82038675               -0.24284587               -0.22166143                0.72710942                0.02086411                0.22778382               -0.52002516
               3.31838634                1.03203766               12.03954409                0.06711106               -0.42964699               -0.17826721                0.42170026                0.58564129                1.48970182               -0.76661118
               4.31192498                1.00237240               12.01731154                0.15858541               -0.39552397                0.09524319                0.20055316                0.23582482                2.10932738                0.61202051
               5.31047586                0.98073521               11.98710506                0.21262484               -0.00466365                0.09140571               -0.09071381                0.36995440                1.48144321                0.26567231
               6.31183170                0.96000343               11.95287999                0.13331241                0.25975628               -0.01468996               -0.39823330                0.33966290                1.34060397               -0.36065622
               7.31567099                0.93733031               11.92019303                0.33335313                0.41080728                0.23433081               -0.69513504                0.43768005                1.25973902                0.55333514
               8.32004785                0.91023618               11.88463920                1.00000000                0.39960256                0.30681452               -0.97571646                0.16686468                0.63041616                0.45678481
               9.32366304                0.87995328               11.83945567                1.00000000                0.39632817                0.38755037               -1.27330076               -0.00165336                0.09165768                0.07453021
              10.32797441                0.84965382               11.79320202                1.00000000                0.43113767                0.46421582               -1.57468721               -0.03135981                0.03336130               -0.46887776
               0.36700951                2.15100532               12.16686975                1.00000000               -0.31821495               -0.37474011                1.22135375               -0.02931283                0.02947438                1.03639671
               1.36382736                2.11097873               12.11383416                1.00000000               -0.27378250               -0.27241724                0.90540084               -0.00732755                0.11701344                0.01462706
               2.36153386                2.07062245               12.06249404                0.39743950               -0.17598004               -0.17944750                0.60693928                0.02568593                0.69439500               -1.05850044
               3.36030776                2.03032300               12.02099294                0.00010000               -1.00175179               -0.16207241                0.29769673                0.89127234                3.51925893               -1.44770105
               4.34149882                2.00543129               12.02624249                0.00010000               -1.12065912                0.25142385                0.34571262                1.71602070                3.63810085               -0.99821228
               5.33789458                1.98249839               11.99371175                0.00010000               -0.11432440                0.05896010               -0.06828592                1.47712124                1.32762826               -0.47041378
               6.33921234                1.95862661               11.95172951                0.00010000                0.48461429               -0.10279654               -0.37337644                1.44706697                2.41470475                0.06827197
               7.34758686                1.93987471               11.94094699                0.00010000                0.57316482               -0.03911070               -0.61473090                1.03363187                2.69075450                0.41267647
               8.35067563                1.91305272               11.90438526                0.40856929                0.30240229                0.29074952               -0.83989968                0.25048297                0.97414537                0.85574391
               9.35363491                1.88365616               11.85887130                1.00000000                0.34502222                0.36853744               -1.13617683                0.04203248                0.35949092                0.37071288
              10.35757608                1.85402468               11.81005681                1.00000000                0.39411683                0.41357995               -1.45446270               -0.01724771                0.19156809               -0.48318967
               0.40625166                3.14738768               12.15430081                1.00000000               -0.27720762               -0.35019999                1.11024737               -0.02844281                0.02777961                1.04968289
               1.40347958                3.10842154               12.09587049                1.00000000               -0.22821452               -0.23662426                0.77160489               -0.00958219                0.02957445               -0.03146197
               2.40168737                3.06901356               12.03740663                0.15727174               -0.10383195               -0.12767607                0.43464840               -0.02609028                0.88387875               -1.20231864
               3.40140294                3.02879621               11.99602112                0.00010000               -0.38086811               -0.00577130                0.13366019                0.88534717                3.61516819               -1.53903230
               4.39407000                3.00740088               11.99237237                0.00010000               -0.72899859                0.16665881                0.02535701                2.22070867                5.03038849               -2.07804437
               5.38682297                2.98191442               11.98111474                0.00010000               -0.53366366                0.06149155               -0.11773121                1.97581265                4.31364996               -1.08484376
               6.38339673                2.95794750               11.96552306                0.00010000               -0.24527280                0.04078814               -0.31591178                1.82511532                3.97684115                0.35597585
               7.38191751                2.93654810               11.94871434                0.00010000               -0.10603345               -0.12063988               -0.49884474                1.33494126                3.76435731                0.22419137
               8.38127606                2.91605117               11.92979807                0.15756612                0.08071064                0.29041753               -0.68416257                0.57529046                2.21766328                1.56221632
               9.38353173                2.88732403               11.88310898                1.00000000                0.28081731                0.33509939               -0.96919869                0.05770510                0.41105561                0.56264126
              10.38689241                2.85792542               11.82810117                1.00000000                0.33606817                0.37805867               -1.32325477               -0.02701352               -0.00717425               -0.37728794
               0.44437293                4.14400132               12.14146789                1.00000000               -0.23630906               -0.32539407                0.99396589               -0.02944558                0.02658459                1.01513046
               1.44200984                4.10624625               12.07757640                1.00000000               -0.18677714               -0.19482341                0.63118029               -0.00917125                0.02514455               -0.05170965
               2.44063738                4.06806893               12.01357932                0.03179912               -0.11912287               -0.06672901                0.26733029                0.02834551                1.32590626               -1.06931128
               3.43962738                4.03020758               11.97568868                0.00010000               -0.39212959                0.34848959               -0.20054783                0.66430585                4.70528300               -0.41436512
               4.43279479                4.00876447               11.97908198                0.00010000               -0.63815833                0.16272832               -0.12364838                1.38957459                6.31474664               -0.75333884
               5.42686421                3.98372822               11.97586147                0.00010000               -0.58569148                0.19876251               -0.17819906                1.29944392                5.79891362               -0.50202709
               6.42108096                3.95944237               11.97104778                0.00010000               -0.53410991                0.18805323               -0.27031938                1.27729478                5.60488460                0.03355608
               7.41618201                3.93746191               11.96603979                0.00010000               -0.48377288                0.14632301               -0.37288224                1.26859736                5.63429619                0.74091772
               8.41140550                3.91886107               11.96364959                0.14981099               -0.16336237                0.22434210               -0.46637580                0.60385439                2.93961055                1.72778853
               9.41291477                3.89035814               11.90639337                1.00000000                0.22137651                0.26874848               -0.80085618                0.03495783                0.09745125                0.51202476
              10.41583303                3.86158586               11.84721477                1.00000000                0.29182687                0.34868593               -1.17948504               -0.02432384                0.00063181               -0.32925739
               0.48117289                5.14087980               12.12802867                1.00000000               -0.19443402               -0.29360925                0.86832420               -0.03277382                0.08019362                0.94947866
               1.47922855                5.10452507               12.05916349                0.82169459               -0.14399721               -0.14669705                0.48668723               -0.01498227                0.13084236               -0.13585073
               2.47829294                5.06767898               11.99123857                0.00010000               -0.26175179               -0.00814337                0.11710493                0.25428256                2.72315246               -1.12046722
               3.47399351                5.03576600               11.97422855                0.00010000               -0.49760481                0.46030177               -0.27509019                0.63761417                5.94614966                0.05956667
               4.46834085                5.01065545               11.97185895                0.00010000               -0.59297849                0.23331021               -0.20326963                1.01701267                6.82452259               -0.36187123
               5.46213394                4.98588967               11.97460903                0.00010000               -0.65659546                0.24160836               -0.19568465                0.98916929                7.01810654               -0.21095437
               6.45520894                4.96170856               11.97852641                0.00010000               -0.71315913                0.24508720               -0.21460291                0.98080934                7.03815791                0.19285608
               7.44787076                4.93947456               11.98410374                0.00010000               -0.73760125                0.20353374               -0.23878043                1.02725586                7.13654948                0.76576240
               8.44045691                4.92053802               11.99233249                0.16111690               -0.31823317                0.12144738               -0.25309292                0.51190847                3.62034169                1.39557000
               9.44150610                4.89269900               11.92966316                0.96342643                0.17467959                0.20239136               -0.63026452                0.02117176                0.04006366                0.48544689
              10.44395051                4.86489914               11.86630199                1.00000000                0.24444088                0.31079221               -1.02442570               -0.02413787                0.00746936               -0.34232536
               0.51642690                6.13812914               12.11371261                1.00000000               -0.15158881               -0.25069247                0.73382151               -0.03556096                0.06831160                0.86683060
               1.51491101                6.10331231               12.03915088                0.65294414               -0.09723962               -0.09480719                0.32235729               -0.02162821                0.16597420               -0.27653775
               2.51448210                6.06790606               11.96647640                0.00010000               -0.27539090                0.05410885               -0.07650435                0.34723484                3.72552670               -1.36556494
               3.50940319                6.03941361               11.96314763                0.00010000               -0.57353614                0.32041843               -0.20560259                0.77287939                7.40609332               -0.64376424
               4.50301138                6.01343067               11.96638568                0.00010000               -0.69043549                0.30858929               -0.21908593                0.87647199                7.87919278               -0.35704448
               5.49559448                5.98856039               11.97497204                0.00010000               -0.79495613                0.30703148               -0.18159801                0.82984327                8.18308793               -0.11125052
               6.48711226                5.96434412               11.98694008                0.00010000               -0.88484009                0.28692329               -0.14449472                0.76689349                8.35156796                0.26029933
               7.47789768                5.94153258               12.00169064                0.00010000               -0.93465156                0.20103095               -0.10370679                0.77769614                8.50974368                0.73769943
               8.46841923                5.92129002               12.01951522                0.17776285               -0.44602993                0.03812388               -0.05233616                0.37620560                4.30024392                1.28912348
               9.46897708                5.89440597               11.95244192                0.84809770                0.12653902                0.14482414               -0.45873025                0.00928532                0.04420965                0.43890666
              10.47095001                5.86780170               11.88514895                1.00000000                0.19729277                0.26894535               -0.87687667               -0.02225542                0.03640030               -0.39564300
               0.55009533                7.13586595               12.09844591                0.98979437               -0.10762653               -0.19947191                0.59172531               -0.03413349                0.03561669                0.79867984
               1.54901906                7.10262893               12.01789876                0.55854892               -0.04794961               -0.04354412                0.15451874               -0.02123226                0.13717967               -0.36314472
               2.54913634                7.06876115               11.93932916                0.00010000               -0.25462883                0.11291900               -0.27709615                0.36683780                4.53489286               -1.55542583
               3.54392649                7.04217437               11.94681897                0.00010000               -0.62064122                0.28754914               -0.27220716                0.78228175                8.92713029               -0.96202423
               4.53672351                7.01682723               11.95902775                0.00010000               -0.80545598                0.37250918               -0.22309782                0.79018854                9.21491495               -0.47424313
               5.52781737                6.99203030               11.97534972                0.00010000               -0.95744474                0.39396826               -0.15256441                0.68587363                9.44228634               -0.10744381
               6.51757462                6.96744703               11.99532206                0.00010000               -1.06692923                0.34793730               -0.06806885                0.55192131                9.63961464                0.25968813
               7.50647878                6.94349517               12.01884236                0.00010000               -1.12334880                0.20501023                0.02903474                0.48194754                9.84773293                0.69809038
               8.49510764                6.92130049               12.04604051                0.19870638               -0.56493292               -0.03147948                0.14157578                0.20602550                4.97565328                1.23236922
               9.49518012                6.89559548               11.97473770                0.78553535                0.08031499                0.09356002               -0.29797920                0.00269728                0.03573222                0.38685146
              10.49671394                6.87027804               11.90309420                0.98764070                0.15338169                0.22679510               -0.73980766               -0.02171318                0.02248351               -0.46346625
               0.58221826                8.13413970               12.08259809                0.97291946               -0.06271073               -0.14685429                0.44724506               -0.03178881                0.01907542                0.76474210
               1.58159116                8.10244142               11.99614689                0.52783841                0.00275773                0.00622892               -0.01415690               -0.01586118                0.08089905               -0.40168557
               2.58227342                8.07016444               11.91089638                0.00010000               -0.23042048                0.16547431               -0.48057548                0.37400313                5.30060688               -1.57733027
               3.57698275                8.04516460               11.92897110                0.00010000               -0.66570949                0.33529192               -0.36392432                0.74640430               10.47308315               -0.93708649
               4.56895923                8.02088086               11.95070093                0.00010000               -0.91452944                0.45033745               -0.24196927                0.67056585               10.60529356               -0.45353154
               5.55869216                7.99643976               11.97515123                0.00010000               -1.11367110                0.47860366               -0.12431974                0.52215394               10.72031525               -0.10130949
               6.54668581                7.97130286               12.00305363                0.00010000               -1.25044952                0.44375874                0.00490602                0.32375119               10.91469092                0.21553021
               7.53368317                7.94563279               12.03517286                0.00010000               -1.31231891                0.25591644                0.15405185                0.11837875               11.19014308                0.59261591
               8.52043943                7.92066043               12.07204690                0.22442331               -0.68148453               -0.09344194                0.32714070               -0.00843245                5.65756516                1.14145271
               9.52005348                7.89627717               11.99639986                0.78154377                0.03555998                0.04208353               -0.13853631               -0.00055755                0.02203277                0.35615192
              10.52115063                7.87233760               11.92047929                0.97179572                0.10971511                0.18511469               -0.60111014               -0.02121428                0.01374178               -0.49952517
               0.61285610                9.13292886               12.06650775                0.96143016               -0.01789993               -0.09847705                0.30337064               -0.02889477                0.00880759                0.63548170
               1.61267710                9.10275351               11.97413979                0.54782636                0.05185646                0.05671300               -0.18246305               -0.00806629                0.09515219               -0.36446273
               2.61389323                9.07207064               11.88348422                0.00010000               -0.22694726                0.21199071               -0.67377569                0.39313572                6.16631950               -1.12896733
               3.60813815                9.04888021               11.91271585                0.00010000               -0.75167791                0.47317318               -0.43719149                0.56497320               11.99158772               -0.59608573
               4.59885967                9.02583398               11.94287316                0.00010000               -1.01498566                0.51745950               -0.26673467                0.43823902               11.87958537               -0.27087394
               5.58783844                9.00160237               11.97457254                0.00010000               -1.20015303                0.52971159               -0.10662552                0.31058056               11.90330216               -0.05637898
               6.57485661                8.97632221               12.00954456                0.00010000               -1.41748247                0.51463043                0.06478329                0.12462749               12.11363246                0.13230092
               7.55948879                8.94861350               12.04955302                0.00010000               -1.52809991                0.43707472                0.26238132               -0.16532139               12.52504422                0.35384199
               8.54429461                8.91943165               12.09669472                0.25330318               -0.79984954               -0.14226383                0.49770495               -0.29000354                6.43069222                0.78195744
               9.54349180                8.89643716               12.01799142                0.83186946               -0.00629080               -0.00811750                0.01604609               -0.00512542                0.05724414                0.31227674
              10.54416879                8.87398034               11.93754918                0.93043187                0.06769937                0.14493878               -0.46688219               -0.02161417               -0.02369351               -0.42291212
               0.64199107               10.13217016               12.04795599                0.97928867                0.02969749               -0.07587041                0.15700630                0.05405065                0.35777475                0.51763582
               1.64228805               10.10357568               11.95318202                0.80837858                0.10091771                0.08221779               -0.34176379                0.07280006                0.64984078               -0.31670522
               2.64400943               10.07440425               11.86426180                0.48095568               -0.38845913                0.23336123               -0.82568067                0.56423911                7.20603863               -0.73428926
               3.63451887               10.05462806               11.90082659                0.30558064               -0.95037903                0.57478508               -0.50575706                0.47936126               13.09678918               -0.26730512
               4.62500185               10.03123005               11.93670396                0.30059849               -1.00516607                0.53960647               -0.30405848                0.23451451               12.87413635               -0.09626902
               5.61441555               10.00703399               11.97376128                0.32249038               -1.14173140                0.54316196               -0.10650988                0.17598189               12.88856839                0.01872431
               6.60216722                9.98159547               12.01416591                0.36860193               -1.35741283                0.52732666                0.10431713                0.09807613               13.13723219                0.11942190
               7.58726729                9.95437428               12.06010999                0.45992355               -1.76757578                0.57607802                0.34426923               -0.41116598               13.69383206                0.24687646
               8.56681570                9.91781515               12.11541832                0.64006599               -1.09325020               -0.16165017                0.63153829               -0.66086349                7.35157109                0.49466199
               9.56540228                9.89611482               12.03867947                0.94995808               -0.05918624               -0.03223337                0.15928188                0.06210986                0.46800405                0.27282680
              10.56563198                9.87523638               11.95628181                0.97901561                0.02296948                0.12560408               -0.32833495                0.05847437                0.19155921               -0.33204048
               0.32971484                0.18288320               13.21139222                1.00000000               -0.37834049               -0.41705338                1.44682241               -0.07385533               -0.57563228                0.61788732
               1.32593143                0.13558893               13.16022549                1.00000000               -0.31224347               -0.32934335                1.15397425               -0.05708025               -0.71250618                0.02613789
               2.32346997                0.08807495               13.10622747                1.00000000               -0.16795123               -0.24401864                0.83812984               -0.04191201               -0.64643687               -0.18612665
               3.32257241                0.04160131               13.05632564                0.62317413                0.31248804               -0.18622899                0.54493143                0.44335947                0.33281475               -0.43914319
               4.32971973                0.00637794               13.02186880                0.66409862                0.48336697               -0.10250716                0.23953515               -0.02422078                0.95454447                0.05646367
               5.33223975               -0.02093670               12.98432989                0.71819054                0.16763788                0.01036980               -0.07980570                0.00656914                0.60157298                0.03514255
               6.33307249               -0.04708892               12.94304515                0.71035294                0.04345381                0.10754839               -0.40919935                0.00868678                0.44012456               -0.02335965
               7.33310883               -0.07509098               12.90237535                0.84041763                0.04360534                0.21095025               -0.74851497                0.05788423                0.20713218                0.03325564
               8.33394460               -0.10755730               12.85644479                1.00000000                0.19399743                0.32768418               -1.07230299                0.04378153               -0.22273205                0.35395618
               9.33698877               -0.14279279               12.80726881                1.00000000                0.37454015                0.39941311               -1.38437929               -0.05089072               -0.39410847                0.01935071
              10.34143540               -0.17821378               12.75806085                1.00000000                0.44466240                0.48451557               -1.68386488               -0.07859118               -0.40286028               -0.42560760
               0.37627055                1.17871266               13.19300154                1.00000000               -0.35057959               -0.39802298                1.31429511               -0.03160624               -0.06768589                0.84306033
               1.37276476                1.13229550               13.14141373                1.00000000               -0.31129461               -0.30705326                1.02261751               -0.01243634               -0.01654102                0.04157744
               2.37004466                1.08563476               13.09078143                0.83507018               -0.24551230               -0.22054614                0.72313851                0.02241174                0.21375269               -0.52427112
               3.36785451                1.03973902               13.04378561                0.08403184               -0.46490643               -0.17838947                0.42502809                0.61785487                1.51664454               -0.80321325
               4.36074653                1.00535287               13.01930961                0.17935864               -0.44078206                0.08857440                0.19914869                0.15758197                2.15196563                0.69521384
               5.35903887                0.97916699               12.98621128                0.23472459               -0.02550197                0.08966793               -0.08826562                0.33260218                1.48872924                0.28280292
               6.36023649                0.95398657               12.94894285                0.15055036                0.24414954               -0.00432890               -0.38975836                0.31666991                1.34696690               -0.36471570
               7.36392186                0.92701853               12.91330656                0.34654180                0.39984138                0.22457211               -0.68246013                0.42320388                1.27677427                0.55920910
               8.36823332                0.89571954               12.87495094                1.00000000                0.39431233                0.30316458               -0.96207206                0.16723067                0.64318324                0.47810867
               9.37180811                0.86120134               12.82680264                1.00000000                0.39185773                0.38284234               -1.25734334               -0.00151534                0.09395368                0.07552518
              10.37607047                0.82663137               12.77754691                1.00000000                0.42623677                0.45736400               -1.55622161               -0.03084898                0.03361089               -0.50482153
               0.42191705                2.17492274               13.17898642                1.00000000               -0.31564373               -0.36562294                1.20316226               -0.02820320                0.02960201                1.08670311
               1.41876061                2.12944787               13.12283413                1.00000000               -0.27211826               -0.26837394                0.89489909               -0.00537424                0.12500486                0.02163229
               2.41647468                2.08366403               13.06854118                0.41639850               -0.17746026               -0.18087630                0.60200239                0.03434048                0.70516120               -1.08990606
               3.41521140                2.03803352               13.02397454                0.00010000               -1.15156412               -0.16232826                0.29801042                0.92036093                3.68264908               -1.50495652
               4.39344340                2.00814943               13.02929196                0.00010000               -1.24766549                0.25031555                0.28003897                1.78247210                3.82859604               -1.03727379
               5.39025809                1.98085665               12.99297574                0.00010000               -0.09445227                0.04275872               -0.07652871                1.54177513                1.34984134               -0.47182649
               6.39155435                1.95282450               12.94802767                0.00010000                0.47909175               -0.11388348               -0.36817325                1.47412619                2.50181055                0.07856306
               7.39983993                1.92940047               12.93481836                0.00010000                0.57760222               -0.05521977               -0.61045801                1.04905674                2.79195241                0.44485116
               8.40310640                1.89850599               12.89602884                0.41600136                0.31033516                0.28942364               -0.83191381                0.26296854                1.04456417                0.89826200
               9.40604663                1.86486405               12.84756811                1.00000000                0.34259735                0.36537172               -1.12482425                0.04433421                0.38297742                0.38927738
              10.40995834                1.83093350               12.79558334                1.00000000                0.39117124                0.40703281               -1.44047363               -0.01618447                0.20374942               -0.51869611
               0.46665623                3.17140021               13.16530387                1.00000000               -0.27402482               -0.34097109                1.09159765               -0.02582282                0.02921606                1.09650610
               1.46391598                3.12692802               13.10354028                1.00000000               -0.22552088               -0.23360869                0.76250733               -0.00631748                0.03149757               -0.03021589
               2.46214581                3.08201724               13.04176246                0.17432420               -0.10698269               -0.13166287                0.43559001               -0.01275952                0.90271364               -1.25541955
               3.46177633                3.03649246               12.99737782                0.00010000               -0.42864860               -0.03083516                0.13645167                0.94500989                3.74374497               -1.69452672
               4.45357284                3.01035918               12.99257156                0.00010000               -0.82885176                0.17494534                0.01651007                2.39129829                5.24603190               -2.25658915
               5.44519929                2.98002217               12.97989014                0.00010000               -0.61988194                0.05545799               -0.12539733                2.09256845                4.50557494               -1.12725766
               6.44117520                2.95170890               12.96238581                0.00010000               -0.29888926                0.01497760               -0.31174314                1.91385381                4.14938906                0.38187061
               7.43922151                2.92591413               12.94376721                0.00010000               -0.15730498               -0.12807898               -0.49131448                1.40382527                3.93857207                0.28283229
               8.43802910                2.90150801               12.92299845                0.15706781                0.05228860                0.29068126               -0.67726541                0.59980503                2.33661149                1.64374040
               9.44026728                2.86850877               12.87345759                1.00000000                0.27893951                0.33267377               -0.96169341                0.06060430                0.44648410                0.59555108
              10.44360789                2.83477203               12.81491789                1.00000000                0.33406126                0.37318257               -1.31401590               -0.02608202               -0.00535143               -0.39956948
               0.51034496                4.16810332               13.15130353                1.00000000               -0.23277338               -0.31663584                0.97446337               -0.02690621                0.02777957                1.05423830
               1.50801723                4.12477569               13.08385174                1.00000000               -0.18449540               -0.19275331                0.62383277               -0.00631076                0.02530117               -0.05570151
               2.50665505                4.08103077               13.01628367                0.04533470               -0.11237834               -0.07092848                0.27212105                0.02110035                1.27490792               -1.11149046
               3.50576966                4.03741682               12.97379870                0.00010000               -0.44576999                0.32505959               -0.17621610                0.70265762                4.86792554               -0.54335544
               4.49773965                4.01164833               12.97782312                0.00010000               -0.75049582                0.16105075               -0.12878051                1.47081226                6.69175923               -0.83074696
               5.49075974                3.98196581               12.97408838                0.00010000               -0.69000937                0.21084383               -0.17696383                1.36397201                6.10174271               -0.53369847
               6.48393947                3.95312406               12.96837493                0.00010000               -0.63212133                0.19112957               -0.26485240                1.32763352                5.88535219                0.05687468
               7.47811732                3.92683889               12.96234503                0.00010000               -0.57158044                0.15222353               -0.36674125                1.31563169                5.91199237                0.80513772
               8.47250786                3.90431961               12.95899155                0.14662588               -0.20613089                0.22468628               -0.46557543                0.62617592                3.10147959                1.83320593
               9.47399470                3.87151753               12.89840278                1.00000000                0.22011647                0.26714065               -0.79835545                0.03630895                0.11933552                0.54443077
              10.47691019                3.83839715               12.83544237                1.00000000                0.29154868                0.34730288               -1.17635017               -0.02312419                0.00063159               -0.34011481
               0.55277335                5.16506749               13.13660279                1.00000000               -0.19110391               -0.28496470                0.84791223               -0.03046865                0.08624186                0.97950034
               1.55086232                5.12307295               13.06400289                0.81038084               -0.14233300               -0.14514278                0.48093189               -0.01236039                0.14241216               -0.15156634
               2.54992669                5.08059867               12.99246328                0.00010000               -0.28251987               -0.01262913                0.12585648                0.25303735                2.70650603               -1.17500517
               3.54521192                5.04299365               12.97113722                0.00010000               -0.57433011                0.48213841               -0.34450915                0.64219843                6.18913567                0.12045744
               4.53844009                5.01358019               12.96980344                0.00010000               -0.71044532                0.24243790               -0.20969928                1.07716269                7.28463498               -0.36972880
               5.53100301                4.98423904               12.97267210                0.00010000               -0.77926461                0.25733913               -0.19311428                1.02398655                7.41475406               -0.20719082
               6.52285480                4.95553149               12.97641471                0.00010000               -0.83322139                0.26344429               -0.20869860                1.00887115                7.41566546                0.22605654
               7.51433858                4.92895860               12.98173683                0.00010000               -0.84904101                0.21740165               -0.23511693                1.05890960                7.51415541                0.83192457
               8.50587398                4.90600174               12.98978099                0.15716904               -0.37113298                0.12246526               -0.25777369                0.52656646                3.82119338                1.49124915
               9.50691592                4.87385159               12.92332002                0.94873160                0.17560934                0.20358091               -0.63804487                0.02134530                0.05335775                0.52041793
              10.50938617                4.84171809               12.85601924                1.00000000                0.24702424                0.31353203               -1.03188287               -0.02302107                0.01362589               -0.35087032
               0.59372466                6.16240402               13.12093904                1.00000000               -0.14858178               -0.24220393                0.71315679               -0.03323711                0.06845868                0.88886857
               1.59223884                6.12187284               13.04235971                0.64417345               -0.09647769               -0.09403183                0.31903927               -0.01845979                0.17185141               -0.30327368
               2.59179511                6.08077819               12.96579210                0.00010000               -0.33033685                0.04852137               -0.06277015                0.37314048                3.86006904               -1.44417020
               3.58563210                6.04705959               12.96099515                0.00010000               -0.68787969                0.35297878               -0.23387654                0.80399120                7.74735557               -0.54921341
               4.57803751                6.01649709               12.96415865                0.00010000               -0.81719617                0.32946931               -0.22954015                0.92307334                8.32052780               -0.32067592
               5.56928818                5.98711260               12.97317755                0.00010000               -0.93200898                0.33395024               -0.17917794                0.86146743                8.64666998               -0.08144401
               6.55939733                5.95839294               12.98552452                0.00010000               -1.02314608                0.31526468               -0.13973959                0.78407947                8.81209452                0.30341928
               7.54882526                5.93118692               13.00066021                0.00010000               -1.06255642                0.22107830               -0.10287595                0.79305951                8.97414803                0.80170702
               8.53814620                5.90676892               13.01894471                0.17371275               -0.50600016                0.03992400               -0.06201248                0.38274694                4.54106827                1.37463957
               9.53870526                5.87558915               12.94779963                0.83372028                0.12852777                0.14823740               -0.47008891                0.01017853                0.05249707                0.47179630
              10.54071676                5.84466779               12.87630505                1.00000000                0.20115028                0.27438307               -0.89115393               -0.02172967                0.03855879               -0.40895286
               0.63317098                7.16022341               13.10425388                0.98832187               -0.10520271               -0.19189424                0.57177763               -0.03184886                0.03427972                0.81581530
               1.63211896                7.12119232               13.01945123                0.55146611               -0.04841143               -0.04380044                0.15541042               -0.01772225                0.13810002               -0.39143177
               2.63220275                7.08156910               12.93667987                0.00010000               -0.32730590                0.10548142               -0.25571790                0.41152408                4.74693397               -1.63765551
               3.62557284                7.05005322               12.94410691                0.00010000               -0.76771017                0.31099877               -0.27615444                0.85577219                9.38505764               -0.95287076
               4.61684855                7.02016958               12.95680167                0.00010000               -0.96181638                0.40930400               -0.22540178                0.85462833                9.71701528               -0.43485751
               5.60633651                6.99091805               12.97384461                0.00010000               -1.11932422                0.43825097               -0.15024779                0.72222438                9.96423472               -0.06812751
               6.59446207                6.96183678               12.99466212                0.00010000               -1.22563570                0.39038175               -0.06499857                0.56154844               10.17309625                0.30462850
               7.58182380                6.93338017               13.01912415                0.00010000               -1.26676872                0.23294871                0.02685224                0.47797966               10.39188750                0.75631554
               8.56912669                6.90680022               13.04738265                0.19495671               -0.63015859               -0.02916996                0.12734880                0.20015622                5.25210571                1.31032892
               9.56922062                6.87681633               12.97168985                0.77165395                0.08337969                0.09761748               -0.31205015                0.00344557                0.03830115                0.41316211
              10.57079429                6.84720575               12.89562783                0.98780162                0.15736615                0.23366358               -0.75502244               -0.02081571                0.02404059               -0.48004723
               0.67114987                8.15856614               13.08696906                0.97210182               -0.06111570               -0.14068293                0.42893883               -0.02976203                0.01737476                0.78067431
               1.67053871                8.12099683               12.99604046                0.52151026                0.00074054                0.00469911               -0.00811077               -0.01278725                0.07654071               -0.42973513
               2.67116468                8.08288782               12.90626545                0.00010000               -0.31958237                0.15565462               -0.44949849                0.43803150                5.57322047               -1.65466894
               3.66414706                8.05327956               12.92536612                0.00010000               -0.84497131                0.36885672               -0.35959196                0.85119329               11.04178958               -0.93386794
               4.65426525                8.02468317               12.94829254                0.00010000               -1.10407988                0.51066729               -0.24077758                0.74653655               11.18573941               -0.42459204
               5.64206547                7.99587762               12.97392379                0.00010000               -1.30495354                0.54398757               -0.12214355                0.55911364               11.30788162               -0.06674425
               6.62816618                7.96620058               13.00311212                0.00010000               -1.43220255                0.50549573                0.00600357                0.32378081               11.51738973                0.25233101
               7.61342142                7.93584589               13.03668823                0.00010000               -1.47265097                0.29714962                0.14885213                0.08847484               11.81169428                0.63776201
               8.59871316                7.90618552               13.07522622                0.22139427               -0.75263898               -0.09019734                0.30938313               -0.03226212                5.97144458                1.20736376
               9.59836864                7.87754150               12.99492068                0.76748600                0.04042242                0.04673421               -0.15711901               -0.00132298                0.02079602                0.37966414
              10.59952161                7.84934106               12.91436261                0.97256053                0.11529754                0.19392439               -0.62234168               -0.02063972                0.01381133               -0.51798031
               0.70771436                9.15740975               13.06945036                0.96103456               -0.01728273               -0.09345452                0.28714297               -0.02738648                0.00568529                0.64995537
               1.70754153                9.12128630               12.97238196                0.54056823                0.04831445                0.05349270               -0.17065695               -0.00632053                0.08949286               -0.38746610
               2.70868065                9.08468219               12.87697813                0.00010000               -0.33700930                0.19982799               -0.63257718                0.48725632                6.50462232               -1.18017142
               3.70080135                9.05743036               12.90834724                0.00010000               -0.97497105                0.54838634               -0.43386536                0.66987157               12.66120996               -0.58291606
               4.68918123                9.03038292               12.94019919                0.00010000               -1.23999850                0.59955089               -0.26640907                0.49896132               12.52880513               -0.25249934
               5.67600138                9.00179780               12.97351089                0.00010000               -1.41059123                0.61056505               -0.10559406                0.33469340               12.55751725               -0.03591843
               6.66096940                8.97194670               13.01019108                0.00010000               -1.61965142                0.59146886                0.06407180                0.11792203               12.78591067                0.15296624
               7.64360835                8.93932316               13.05213630                0.00010000               -1.70917787                0.50491150                0.25435930               -0.20950346               13.22376621                0.37695955
               8.62678585                8.90499627               13.10155948                0.25136435               -0.87848632               -0.13600782                0.47662580               -0.33700995                6.78763563                0.82119721
               9.62603862                8.87775102               13.01805305                0.81770683               -0.00017440               -0.00280934               -0.00461972               -0.00736347                0.05777602                0.32905604
              10.62678236                8.85108424               12.93276768                0.93362655                0.07437365                0.15479593               -0.49192869               -0.02098899               -0.02414144               -0.43915179
               0.74284904               10.15669705               13.04945078                0.97916212                0.02908212               -0.07127042                0.14376856                0.05043188                0.36203772                0.53002645
               1.74313987               10.12206668               12.94985745                0.80484191                0.09583509                0.07803836               -0.32515550                0.06919959                0.66127650               -0.33447412
               2.74476575               10.08688438               12.85626018                0.47805342               -0.56480537                0.22021877               -0.78016957                0.71753998                7.60688699               -0.76343790
               3.73184376               10.06424729               12.89574943                0.30640297               -1.24443542                0.68169309               -0.50391342                0.59373178               13.84956475               -0.25823034
               4.71987704               10.03667419               12.93365003                0.30087951               -1.23240971                0.62912643               -0.30380131                0.26166224               13.58853091               -0.08785523
               5.70719556               10.00808892               12.97269990                0.32241411               -1.34388871                0.62911160               -0.10526060                0.18720689               13.61332299                0.02897917
               6.69299926                9.97802995               13.01520566                0.36838631               -1.55068966                0.60832584                0.10313385                0.09574627               13.88306814                0.13053753
               7.67618177                9.94594412               13.06350418                0.46057298               -1.97270782                0.66209638                0.33448307               -0.47088731               14.46995665                0.25995179
               8.65354511                9.90346536               13.12160365                0.63969503               -1.20241851               -0.15309070                0.60626557               -0.74701472                7.75862707                0.51511313
               9.65213340                9.87748531               13.04016621                0.94404106               -0.05548581               -0.02657075                0.13737895                0.05805863                0.49083275                0.28444871
              10.65243539                9.85243698               12.95288606                0.97968589                0.03019906                0.13527437               -0.35646968                0.06047035                0.20675609               -0.34363069
               0.37643086                0.20826013               14.22576831                1.00000000               -0.37405499               -0.41106565                1.42947083               -0.07350342               -0.60544930                0.64584886
               1.37269031                0.15534932               14.17170457                1.00000000               -0.30877018               -0.32565246                1.14214777               -0.05752124               -0.75372034                0.03188321
               2.37025546                0.10222523               14.11459294                1.00000000               -0.16552616               -0.24218587                0.83422085               -0.04162439               -0.68836029               -0.18847902
               3.36937979                0.05018556               14.06178504                0.62667383                0.31555352               -0.18610619                0.54556990                0.45856911                0.29377761               -0.47072193
               4.37656653                0.00977409               14.02427778                0.67048916                0.48009178               -0.09205665                0.24219480               -0.03155269                0.90212429                0.07055443
               5.37898162               -0.02238966               13.98356289                0.72675765                0.16023388                0.01350810               -0.07387601                0.00774453                0.54047639                0.04230671
               6.37977121               -0.05334217               13.93901534                0.71695548                0.04137007                0.10687794               -0.39745971                0.00947817                0.37073789               -0.02813598
               7.37980903               -0.08600922               13.89497748                0.84425420                0.04210033                0.20807057               -0.73165377                0.05520660                0.14139588                0.03573120
               8.38061321               -0.12301675               13.84581915                1.00000000                0.18891777                0.32310580               -1.05307526                0.04190784               -0.27289220                0.36569265
               9.38358738               -0.16277551               13.79353140                1.00000000                0.36749196                0.39399928               -1.36317619               -0.05048212               -0.43090801                0.01814947
              10.38796305               -0.20274391               13.74134133                1.00000000                0.43756710                0.47788093               -1.65995541               -0.07733676               -0.43298647               -0.45540572
               0.42860665                1.20414948               14.20605984                1.00000000               -0.34740937               -0.39115425                1.29837834               -0.03190513               -0.07353751                0.88060828
               1.42513255                1.15209279               14.15158418                1.00000000               -0.30927773               -0.30322470                1.01179582               -0.01318616               -0.02637124                0.04889631
               2.42242109                1.09980337               14.09799040                0.84665365               -0.24707533               -0.21909668                0.71823702                0.02364619                0.20117615               -0.52926760
               3.42019105                1.04832450               14.04804466                0.09855737               -0.49412395               -0.17769484                0.42587613                0.64401678                1.54011092               -0.83791338
               4.41253861                1.00885353               14.02129452                0.19742928               -0.47869214                0.08248858                0.19788898                0.09619670                2.19021228                0.75652969
               5.41061720                0.97774542               13.98533975                0.25424708               -0.04314228                0.08863370               -0.08627195                0.30235741                1.49589107                0.29837522
               6.41167577                0.94772660               13.94508482                0.16608806                0.22905885                0.00485427               -0.38249745                0.29803964                1.35359691               -0.36816098
               7.41519838                0.91607148               13.90654383                0.35898998                0.38698333                0.21601529               -0.67065139                0.40517064                1.29257017                0.56442732
               8.41941543                0.88021430               13.86539776                1.00000000                0.38738796                0.29936040               -0.94888170                0.16484757                0.65471029                0.49959330
               9.42294614                0.84116448               13.81430880                1.00000000                0.38713277                0.37811293               -1.24163389               -0.00134173                0.09592853                0.07725283
              10.42715809                0.80203490               13.76207759                1.00000000                0.42119495                0.45118487               -1.53770995               -0.03008149                0.03374108               -0.54018133
               0.47990613                2.20043705               14.19093299                1.00000000               -0.31334358               -0.35743923                1.18716530               -0.02739738                0.03006793                1.13332934
               1.47677270                2.14928482               14.13173214                1.00000000               -0.27047295               -0.26465878                0.88501809               -0.00376804                0.13243333                0.02817276
               2.47449667                2.09784329               14.07453409                0.43397614               -0.17813662               -0.18203441                0.59620163                0.04149271                0.71450219               -1.11871947
               3.47320997                2.04663166               14.02695315                0.00010000               -1.27135661               -0.16214909                0.29693961                0.94291305                3.81710171               -1.55964875
               4.44906954                2.01142387               14.03184327                0.00010000               -1.35271352                0.24422027                0.24015306                1.83455281                4.00084337               -1.07211809
               5.44615570                1.97938301               13.99218118                0.00010000               -0.08318045                0.02556022               -0.08113929                1.59170293                1.38785370               -0.47381788
               6.44740593                1.94675491               13.94436605                0.00010000                0.46345215               -0.12444755               -0.36493323                1.48798727                2.58421833                0.09268166
               7.45542474                1.91831108               13.92873783                0.00010000                0.57056145               -0.06967067               -0.60566053                1.05467404                2.89292118                0.48064084
               8.45881716                1.88297045               13.88774698                0.42397332                0.31576086                0.28744809               -0.82491190                0.26890682                1.11560662                0.94293873
               9.46173996                1.84478675               13.83637482                1.00000000                0.34017181                0.36179483               -1.11422938                0.04525776                0.40711059                0.40947866
              10.46562060                1.80627978               13.78124733                1.00000000                0.38806438                0.40200498               -1.42703896               -0.01536155                0.21615241               -0.55339940
               0.53036316                3.19700069               14.17613276                1.00000000               -0.27122075               -0.33249403                1.07529548               -0.02380965                0.03108218                1.13897129
               1.52765095                3.14679962               14.11112064                1.00000000               -0.22295253               -0.23076039                0.75384942               -0.00374957                0.03423850               -0.02930732
               2.52590410                3.09616268               14.04611843                0.19096529               -0.10911061               -0.13524983                0.43517346               -0.00130966                0.91871369               -1.30369915
               3.52546874                3.04508152               13.99875015                0.00010000               -0.47128915               -0.05252983                0.13724595                0.99058603                3.86082879               -1.83513889
               4.51647832                3.01373793               13.99270257                0.00010000               -0.91742592                0.17468952                0.01151544                2.52229288                5.44997836               -2.40435714
               5.50712022                2.97825662               13.97860680                0.00010000               -0.69854406                0.04446419               -0.12980818                2.18456449                4.69486292               -1.16046873
               6.50250744                2.94523765               13.95928820                0.00010000               -0.35219499               -0.01019718               -0.30799909                1.97734377                4.32212232                0.41307052
               7.50007632                2.91467807               13.93888805                0.00010000               -0.20947686               -0.13580200               -0.48528917                1.45530530                4.10924037                0.34769579
               8.49831790                2.88596327               13.91625276                0.15708404                0.02328243                0.28860983               -0.67298674                0.61412454                2.45426875                1.72838073
               9.50054197                2.84840038               13.86387511                1.00000000                0.27734437                0.32987911               -0.95539736                0.06112154                0.48203789                0.63048884
              10.50386479                2.81007500               13.80182086                1.00000000                0.33228248                0.37012122               -1.30585357               -0.02524448               -0.00353762               -0.42192536
               0.57983210                4.19378717               14.16095716                1.00000000               -0.22963780               -0.30832033                0.95745730               -0.02503670                0.02953620                1.08828959
               1.57753572                4.14466961               14.09005306                1.00000000               -0.18217584               -0.19069189                0.61636921               -0.00417561                0.02624260               -0.06017227
               2.57618858                4.09513830               14.01902174                0.05840716               -0.10446428               -0.07461200                0.27453059                0.01480408                1.23029062               -1.15002046
               3.57544643                4.04558107               13.97216436                0.00010000               -0.49241432                0.29485909               -0.15089262                0.73733454                5.01316660               -0.70534049
               4.56634029                4.01491766               13.97650637                0.00010000               -0.85495848                0.15937063               -0.13388022                1.53557891                7.04584198               -0.90254284
               5.55834726                3.98027229               13.97232219                0.00010000               -0.79044663                0.22000309               -0.17629775                1.41654215                6.40178238               -0.55600315
               6.55053136                3.94655097               13.96575073                0.00010000               -0.72710166                0.19212215               -0.26049163                1.36364126                6.16215560                0.08588552
               7.54380523                3.91559504               13.95870497                0.00010000               -0.65770098                0.15598959               -0.36207169                1.34514799                6.18424366                0.87320530
               8.53737734                3.88874265               13.95433808                0.14390506               -0.24772869                0.22232862               -0.46576140                0.63844875                3.26125892                1.94027953
               9.53885066                3.85138433               13.89042626                1.00000000                0.21945693                0.26550661               -0.79732329                0.03662950                0.14178220                0.57664124
              10.54176648                3.81368221               13.82368776                1.00000000                0.29158233                0.34720299               -1.17478958               -0.02222255                0.00041465               -0.35292802
               0.62809753                5.19083429               14.14498692                1.00000000               -0.18812247               -0.27658744                0.83018147               -0.02871862                0.09234411                1.00445914
               1.62621631                5.14298578               14.06878213                0.79974395               -0.14043994               -0.14355586                0.47439661               -0.01022931                0.15418145               -0.16736504
               2.62528873                5.09467044               13.99375570                0.00010000               -0.28901199               -0.01661201                0.13052443                0.24261890                2.64501250               -1.22508260
               3.62043607                5.05097870               13.96733837                0.00010000               -0.63950308                0.49392959               -0.40949221                0.63961121                6.41135082                0.15393918
               4.61249867                5.01692535               13.96766496                0.00010000               -0.83091591                0.25506339               -0.21867345                1.12886176                7.76817681               -0.37850264
               5.60381775                4.98265668               13.97074674                0.00010000               -0.90205773                0.27433513               -0.19270921                1.04847469                7.80877989               -0.19930363
               6.59445752                4.94908010               13.97435244                0.00010000               -0.95150782                0.28070648               -0.20462734                1.02406502                7.78798394                0.26335465
               7.58478759                4.91779786               13.97940140                0.00010000               -0.95799642                0.22921801               -0.23281520                1.07424800                7.88388618                0.90092572
               8.57529759                4.89040984               13.98717702                0.15371158               -0.42262969                0.12192467               -0.26322611                0.53182436                4.01783787                1.58811780
               9.57633500                4.85371051               13.91690227                0.93311557                0.17634995                0.20438707               -0.64517151                0.02126232                0.06689713                0.55490248
              10.57882459                4.81701906               13.84566433                1.00000000                0.24895888                0.31659234               -1.03844660               -0.02195270                0.02056448               -0.36149868
               0.67495474                6.18825542               14.12797574                1.00000000               -0.14597651               -0.23410266                0.69565315               -0.03125768                0.06845039                0.90647039
               1.67349498                6.14179850               14.04553166                0.63606374               -0.09533532               -0.09331171                0.31496980               -0.01553019                0.17759358               -0.32882332
               2.67304804                6.09480606               13.96522100                0.00010000               -0.37556132                0.04321283               -0.05375975                0.38958802                3.96235525               -1.51580687
               3.66598375                6.05545966               13.95847010                0.00010000               -0.79042475                0.38836478               -0.27936242                0.81413219                8.06536543               -0.42435483
               4.65723954                6.02001892               13.96179488                0.00010000               -0.94108732                0.35354238               -0.24509033                0.95633898                8.76993965               -0.28167238
               5.64716201                5.98575900               13.97138848                0.00010000               -1.06840294                0.36324077               -0.18000856                0.87850168                9.10965233               -0.04940983
               6.63587148                5.95216510               13.98414528                0.00010000               -1.16007792                0.34359525               -0.13720805                0.78599452                9.26633303                0.34888839
               7.62396045                5.92017940               13.99963312                0.00010000               -1.18851535                0.23978058               -0.10340759                0.79122252                9.42933538                0.86766773
               8.61210118                5.89118114               14.01827497                0.17016103               -0.56468805                0.04078631               -0.07217500                0.37895706                4.77776750                1.46137775
               9.61266669                5.85547207               13.94304014                0.81881798                0.13045825                0.15135826               -0.48160836                0.00994409                0.06077501                0.50592667
              10.61471034                5.82001406               13.86732587                1.00000000                0.20436550                0.28002414               -0.90411021               -0.02109193                0.03998325               -0.42241012
               0.72038623                7.18615223               14.10988146                0.98707553               -0.10311596               -0.18493591                0.55530790               -0.02985781                0.03311022                0.82921531
               1.71935507                7.14111954               14.02100697                0.54502076               -0.04834473               -0.04412570                0.15520946               -0.01434657                0.13921895               -0.41746027
               2.71941933                7.09553470               13.93421481                0.00010000               -0.39246112                0.09833709               -0.23972858                0.44952896                4.93566016               -1.71096817
               3.71150584                7.05874599               13.94129588                0.00010000               -0.90466096                0.33936249               -0.29252338                0.91345933                9.81676230               -0.92492182
               4.70132611                7.02399619               13.95451971                0.00010000               -1.11321171                0.44862850               -0.23410066                0.90261503               10.21268555               -0.38848699
               5.68924161                6.98992150               13.97234477                0.00010000               -1.27845556                0.48397960               -0.15129549                0.74120047               10.48092489               -0.02713274
               6.67575700                6.95595200               13.99402209                0.00010000               -1.38228076                0.43277133               -0.06415476                0.55348289               10.69909973                0.35076990
               7.66159600                6.92259347               14.01937940                0.00010000               -1.40864710                0.25982361                0.02339821                0.45580341               10.92607756                0.81595880
               8.64758406                6.89122557               14.04858749                0.19165936               -0.69475124               -0.02751355                0.11345515                0.18394478                5.52456838                1.38985299
               9.64770097                6.85673768               13.96849670                0.75781568                0.08673634                0.10175900               -0.32705925                0.00301467                0.04154343                0.44077333
              10.64931879                6.82261954               13.88799375                0.98797906                0.16178159                0.24120427               -0.77214338               -0.02018177                0.02540827               -0.49670590
               0.76442297                8.18455670               14.09117687                0.97144911               -0.05973854               -0.13529928                0.41416379               -0.02805380                0.01598986                0.79341774
               1.76382558                8.14091598               13.99598468                0.51591968               -0.00054014                0.00338232               -0.00395977               -0.00998952                0.07301998               -0.45493903
               2.76441217                8.09677280               13.90190641                0.00010000               -0.40170701                0.14688890               -0.42561518                0.49659967                5.82302654               -1.72225276
               3.75579144                8.06224691               13.92177926                0.00010000               -1.01479146                0.40462908               -0.36155659                0.94270728               11.57987948               -0.92411139
               4.74411634                8.02899149               13.94588538                0.00010000               -1.28806182                0.57151572               -0.24256280                0.80688407               11.75309166               -0.39302281
               5.73003021                7.99543859               13.97270836                0.00010000               -1.49235847                0.60931955               -0.12215697                0.57921580               11.88649449               -0.03178532
               6.71426917                7.96082052               14.00317370                0.00010000               -1.61136274                0.56679974                0.00534479                0.30648470               12.11130332                0.28939545
               7.69780295                7.92537588               14.03814990                0.00010000               -1.63166505                0.33716348                0.14275742                0.04050310               12.42303560                0.68410153
               8.68163587                7.89063087               14.07823456                0.21866313               -0.82349725               -0.08737000                0.29203582               -0.06610504                6.28171871                1.27588976
               9.68133301                7.85750725               13.99325748                0.75352834                0.04535601                0.05175336               -0.17596439               -0.00272920                0.02057729                0.40472778
              10.68254299                7.82483814               13.90803245                0.97337465                0.12099797                0.20271568               -0.64429143               -0.02001623                0.01406299               -0.53768982
               0.80710659                9.18344625               14.07225061                0.96075389               -0.01674106               -0.08934314                0.27436914               -0.02612987                0.00313094                0.66193140
               1.80693918                9.14118719               13.97072665                0.53428742                0.04569048                0.05096234               -0.16178226               -0.00475900                0.08518744               -0.40783375
               2.80802040                9.09847248               13.87083268                0.00010000               -0.43989422                0.18992976               -0.60076282                0.57472048                6.81667543               -1.22428747
               3.79814130                9.06683858               13.90403854                0.00010000               -1.18741432                0.62060810               -0.42852072                0.76414523               13.29490944               -0.56858206
               4.78427211                9.03542651               13.93754498                0.00010000               -1.45721991                0.67898852               -0.26472834                0.54874846               13.16259754               -0.23463968
               5.76899690                9.00210789               13.97246066                0.00010000               -1.61613521                0.68984820               -0.10500098                0.34788299               13.20119634               -0.01625293
               6.75194941                8.96728800               14.01082600                0.00010000               -1.82005952                0.66782705                0.06215921                0.09919965               13.44820547                0.17322247
               7.73259571                8.92933674               14.05464021                0.00010000               -1.89094145                0.57308498                0.24576306               -0.26721807               13.91237937                0.40105749
               8.71413058                8.88947817               14.10622724                0.24941017               -0.95782937               -0.13009003                0.45624864               -0.39368242                7.14276102                0.86328133
               9.71343912                8.85777275               14.01789903                0.80285191                0.00630539                0.00351097               -0.02709729               -0.01003931                0.05999226                0.34895904
              10.71425669                8.82667385               13.92771061                0.93686244                0.08175688                0.16444361               -0.51972888               -0.02066893               -0.02545319               -0.45811169
               0.84841849               10.18276984               14.05083137                0.97908296                0.02856875               -0.06764087                0.13364569                0.04772894                0.36579523                0.54056679
               1.84870418               10.14193523               13.94667891                0.80188371                0.09183506                0.07480397               -0.31227889                0.06657751                0.67196961               -0.35014551
               2.85025519               10.10057139               13.84865841                0.47587472               -0.72919302                0.20989187               -0.74475592                0.85967118                7.97747000               -0.78851014
               3.83412032               10.07465907               13.89074832                0.30717084               -1.52165996                0.78204951               -0.49522978                0.69789567               14.56495271               -0.24910720
               4.81982199               10.04257126               13.93062794                0.30114388               -1.44969690                0.71447569               -0.30021723                0.28381200               14.28720288               -0.08039210
               5.80512638               10.00923555               13.97165607                0.32230635               -1.53988413                0.71276627               -0.10389240                0.19323816               14.32632026                0.03800091
               6.78902431                9.97417706               14.01622858                0.36808834               -1.74289780                0.68890677                0.10055585                0.08759112               14.61665271                0.14053261
               7.77026842                9.93683758               14.06679966                0.46118733               -2.18490467                0.75008325                0.32362396               -0.54012794               15.23267207                0.27258874
               8.74532622                9.88802907               14.12754363                0.63925695               -1.31659436               -0.14490922                0.58079768               -0.84344150                8.16594008                0.53792162
               9.74393654                9.85757747               14.04142705                0.93646229               -0.04994094               -0.01952723                0.11192549                0.05463860                0.51828630                0.30080486
              10.74432740                9.82812701               13.94915242                0.98044987                0.03908618                0.14531612               -0.39042845                0.06202486                0.21964588               -0.35987516
               0.42573332                0.23521713               15.23998163                1.00000000               -0.37009238               -0.40569799                1.41378608               -0.07319330               -0.63251430                0.67173879
               1.42203240                0.17646740               15.18306844                1.00000000               -0.30555147               -0.32215340                1.13082041               -0.05789787               -0.79076916                0.03695955
               2.41962230                0.11751044               15.12291188                1.00000000               -0.16346407               -0.24021792                0.82938058               -0.04144683               -0.72642532               -0.19124085
               3.41876312                0.05966765               15.06723704                0.62859284                0.31810378               -0.18550026                0.54452247                0.47120462                0.25643156               -0.49916288
               4.42598437                0.01375555               15.02671270                0.67503778                0.47742988               -0.08375800                0.24470334               -0.03846482                0.84969864                0.08473294
               5.42831172               -0.02364428               14.98285237                0.73344093                0.15441433                0.01604902               -0.06885458                0.00815880                0.47987178                0.04976412
               6.42907266               -0.05979061               14.93509596                0.72220239                0.04106068                0.10632488               -0.38733520                0.00993069                0.30313634               -0.03271596
               7.42913293               -0.09750905               14.88774227                0.84744654                0.04300875                0.20557707               -0.71618850                0.05223663                0.07632319                0.03878837
               8.42993283               -0.13940067               14.83538328                1.00000000                0.18577546                0.31842409               -1.03457267                0.03919356               -0.32413191                0.37738056
               9.43284844               -0.18398461               14.78000528                1.00000000                0.36114889                0.38875857               -1.34232995               -0.04984665               -0.46866429                0.01710935
              10.43715581               -0.22879442               14.72486174                1.00000000                0.43073703                0.47161597               -1.63609077               -0.07578942               -0.46361332               -0.48527558
               0.48375112                1.23116015               15.21896911                1.00000000               -0.34443570               -0.38503632                1.28411728               -0.03208877               -0.07867940                0.91556971
               1.48030677                1.17324586               15.16164964                1.00000000               -0.30717104               -0.29962674                1.00152016               -0.01380515               -0.03494695                0.05555040
               2.47760770                1.11510826               15.10514617                0.85556672               -0.24770768               -0.21744139                0.71274359                0.02440984                0.19027448               -0.53508998
               3.47535261                1.05781264               15.05230313                0.11098131               -0.51760067               -0.17662982                0.42551549                0.66454210                1.56176303               -0.87136303
               4.46725569                1.01291797               15.02326739                0.21316757               -0.50931138                0.07717299                0.19695358                0.04757156                2.22520388                0.80570512
               5.46516638                0.97651621               14.98448585                0.27161261               -0.05756699                0.08787642               -0.08475153                0.27676740                1.50283325                0.31378292
               6.46610435                0.94127264               14.94129290                0.18024830                0.21469715                0.01326876               -0.37652742                0.28199622                1.36066407               -0.37123586
               7.46946033                0.90454672               14.89989353                0.37083886                0.37291010                0.20890543               -0.66003932                0.38477074                1.30745026                0.56948297
               8.47356255                0.86378357               14.85597331                1.00000000                0.37932615                0.29552151               -0.93645663                0.16024796                0.66505271                0.52106715
               9.47704685                0.81990297               14.80196996                1.00000000                0.38225860                0.37359676               -1.22649114               -0.00108900                0.09750528                0.07944327
              10.48120772                0.77592174               14.74679271                1.00000000                0.41608725                0.44583318               -1.51950362               -0.02909562                0.03370295               -0.57537887
               0.54092012                2.22751640               15.20272973                1.00000000               -0.31119352               -0.35023384                1.17295401               -0.02660378                0.03083194                1.17674222
               1.53780818                2.17047486               15.14053449                1.00000000               -0.26882044               -0.26124529                0.87567142               -0.00232322                0.13921348                0.03424088
               2.53554371                2.11316161               15.08046522                0.45041185               -0.17819645               -0.18263322                0.58968418                0.04715297                0.72258448               -1.14533539
               3.53424425                2.05613505               15.02991333                0.00010000               -1.36557349               -0.16170866                0.29425666                0.95967709                3.93433991               -1.61276697
               4.50823224                2.01529901               15.03409502                0.00010000               -1.43759301                0.23454848                0.21626958                1.87191360                4.15943668               -1.10441604
               5.50549239                1.97811325               14.99135296                0.00010000               -0.07750853                0.00777876               -0.08391263                1.62601528                1.43382560               -0.47461127
               6.50668207                1.94047477               14.94072900                0.00010000                0.44125097               -0.13435086               -0.36311656                1.48939289                2.66337095                0.11053925
               7.51431741                1.90666906               14.92270514                0.00010000                0.55497359               -0.08229043               -0.60128777                1.05082084                2.99315379                0.51934922
               8.51778154                1.86650976               14.87953060                0.43243395                0.31855405                0.28504780               -0.81884206                0.26915674                1.18653812                0.98902852
               9.52068849                1.82348732               14.82528352                1.00000000                0.33774107                0.35820696               -1.10454770                0.04527879                0.43174689                0.43097129
              10.52453636                1.78012224               14.76704256                1.00000000                0.38478683                0.39856776               -1.41437103               -0.01461172                0.22873571               -0.58772382
               0.59730212                3.22415547               15.18680978                1.00000000               -0.26870363               -0.32507237                1.06098147               -0.02226287                0.03347581                1.17787190
               1.59461509                3.16802096               15.11861727                1.00000000               -0.22057767               -0.22820513                0.74593519               -0.00152820                0.03797289               -0.02877105
               2.59289057                3.11145560               15.05046593                0.20728639               -0.11031653               -0.13842628                0.43396521                0.00816834                0.93242057               -1.34757530
               3.59240876                3.05457847               15.00012274                0.00010000               -0.50874025               -0.07066270                0.13670031                1.02287289                3.97034932               -1.96120827
               4.58271577                3.01760894               14.99280187                0.00010000               -0.99489128                0.16680391                0.00959263                2.61798675                5.64610237               -2.53327775
               5.57251093                2.97667178               14.97729397                0.00010000               -0.76896862                0.02962801               -0.13169100                2.25176610                4.88055304               -1.18653459
               6.56733639                2.93858562               14.95622583                0.00010000               -0.40345916               -0.03486239               -0.30471948                2.01734312                4.49334465                0.45016845
               7.56444175                2.90290091               14.93406142                0.00010000               -0.26044852               -0.14397072               -0.48087639                1.48981645                4.27568818                0.41815350
               8.56212742                2.86948453               14.90953871                0.15748946               -0.00509016                0.28455950               -0.67088183                0.61982006                2.57033400                1.81594691
               9.56433995                2.82706711               14.85434965                1.00000000                0.27591104                0.32679381               -0.95019143                0.06003672                0.51811154                0.66736137
              10.56764564                2.78389309               14.78880082                1.00000000                0.33056985                0.36864382               -1.29839071               -0.02444635               -0.00161039               -0.44436412
               0.65274389                4.22101495               15.17045268                1.00000000               -0.22663963               -0.30086908                0.94288791               -0.02403461                0.03195239                1.11808793
               1.65047749                4.16591076               15.09617912                1.00000000               -0.17971637               -0.18869540                0.60873071               -0.00298954                0.02827577               -0.06533225
               2.64914956                4.11039309               15.02177428                0.07104229               -0.09645608               -0.07789182                0.27635039                0.00955862                1.19362181               -1.18503134
               3.64854837                4.05472180               14.97078085                0.00010000               -0.53254483                0.25941114               -0.12655509                0.76814565                5.14582538               -0.89637535
               4.63849866                4.01863509               14.97514552                0.00010000               -0.94986695                0.15563453               -0.13689429                1.58317479                7.37875564               -0.97167543
               5.62955103                3.97870581               14.97056243                0.00010000               -0.88494306                0.22574480               -0.17527563                1.45613155                6.69850506               -0.57122630
               6.62079980                3.93977752               14.96316509                0.00010000               -0.81680973                0.19092010               -0.25712203                1.38536318                6.43481537                0.12026968
               7.61321484                3.90378964               14.95510359                0.00010000               -0.73940294                0.15740250               -0.35917804                1.35867092                6.45090188                0.94538129
               8.60601174                3.87220095               14.94967633                0.14152851               -0.28670867                0.21713415               -0.46727276                0.64180019                3.41892922                2.04996352
               9.60748066                3.83002320               14.88245632                1.00000000                0.21918619                0.26343219               -0.79655413                0.03603886                0.16473257                0.60904818
              10.61039547                3.78749512               14.81194658                1.00000000                0.29148045                0.34784568               -1.17298845               -0.02142340               -0.00000400               -0.36702646
               0.70702982                5.21813809               15.15320642                1.00000000               -0.18526575               -0.26880316                0.81530361               -0.02720703                0.09813842                1.02525947
               1.70517716                5.16424705               15.07349082                0.78952243               -0.13795576               -0.14196137                0.46639923               -0.00861826                0.16548780               -0.18318497
               2.70427070                5.10989776               14.99507376                0.00178840               -0.28237460               -0.01950720                0.13010313                0.22369291                2.54693204               -1.27041194
               3.69952967                5.05976669               14.96294738                0.00010000               -0.69377259                0.49465886               -0.45745511                0.63205163                6.61385999                0.15160711
               4.69039525                5.02072163               14.96542997                0.00010000               -0.95192698                0.26869050               -0.22770466                1.17196202                8.26927642               -0.39048571
               5.68049113                4.98118668               14.96881791                0.00010000               -1.02177169                0.29102848               -0.19318647                1.06310934                8.20051626               -0.18820824
               6.66995982                4.94240402               14.97232216                0.00010000               -1.06496985                0.29617717               -0.20227722                1.02709178                8.15543860                0.30459343
               7.65919173                4.90604896               14.97708052                0.00010000               -1.06149725                0.23863141               -0.23234779                1.07453176                8.24638382                0.97316470
               8.64872987                4.87382721               14.98451646                0.15065013               -0.47125890                0.11925253               -0.26903800                0.52847920                4.21034662                1.68688770
               9.64976656                4.83233575               14.91041659                0.91676580                0.17717285                0.20450271               -0.65151419                0.02059916                0.08036377                0.58939279
              10.65227333                4.79085001               14.83525031                1.00000000                0.25067754                0.31975236               -1.04339646               -0.02110009                0.02856388               -0.37395180
               0.75998183                6.21563889               15.13485211                1.00000000               -0.14363734               -0.22657488                0.68080837               -0.02911819                0.06824545                0.92063769
               1.75854545                6.16307153               15.04865910                0.62845139               -0.09390275               -0.09284767                0.31048606               -0.01215606                0.18304046               -0.35314870
               2.75810377                6.11000294               14.96471691                0.00010000               -0.40899597                0.03832804               -0.04799310                0.39498895                4.02820781               -1.58138263
               3.75036553                6.06461497               14.95540791                0.00010000               -0.87929260                0.42394659               -0.33909015                0.80397313                8.36269913               -0.28069385
               4.74051792                6.02400890               14.95925684                0.00010000               -1.06173561                0.37938547               -0.26286039                0.97847633                9.23515117               -0.24222575
               5.72913082                5.98452638               14.96957738                0.00010000               -1.20192823                0.39344206               -0.18307636                0.88268314                9.57370585               -0.01554967
               6.71647936                5.94570106               14.98278036                0.00010000               -1.29242683                0.37098702               -0.13683632                0.77427501                9.71555599                0.39693387
               7.70328229                5.90856227               14.99859206                0.00010000               -1.30924099                0.25667996               -0.10582544                0.77365776                9.87633547                0.93635214
               8.69029454                5.87458600               15.01750121                0.16703569               -0.62062174                0.04052337               -0.08295407                0.36609368                5.01013695                1.55042491
               9.69086985                5.83411325               14.93816746                0.80348123                0.13252116                0.15393541               -0.49288547                0.00914195                0.06870001                0.54160413
              10.69294496                5.79389017               14.85822284                1.00000000                0.20751081                0.28575209               -0.91593481               -0.02055798                0.04120884               -0.43666594
               0.81158217                7.21360659               15.11536004                0.98600144               -0.10121851               -0.17867720                0.54162899               -0.02803870                0.03219832                0.83968846
               1.81056999                7.16239009               15.02255541                0.53911295               -0.04775659               -0.04465822                0.15400719               -0.01090771                0.14078336               -0.44170563
               2.81062704                7.11066432               14.93188530                0.00010000               -0.44834041                0.09109736               -0.22810988                0.47911935                5.09925218               -1.77718125
               3.80160318                7.06824563               14.93825644                0.00010000               -1.02868311                0.37198522               -0.32153103                0.95225838               10.22486852               -0.87357659
               4.79005338                7.02830934               14.95211965                0.00010000               -1.25752753                0.48942745               -0.24846511                0.93449812               10.70889737               -0.33472411
               5.77645263                6.98905552               14.97081870                0.00010000               -1.43219778                0.52998204               -0.15522961                0.74453214               10.99578569                0.01612812
               6.76140942                6.94982377               14.99337902                0.00010000               -1.53363400                0.47417567               -0.06563900                0.52991943               11.21954795                0.39884336
               7.74577995                6.91118256               15.01959211                0.00010000               -1.54543269                0.28524260                0.01809086                0.41764445               11.45186725                0.87813350
               8.73050077                6.87463768               15.04965176                0.18874701               -0.75673586               -0.02612167                0.09866116                0.15886654                5.79316379                1.47263309
               9.73064523                6.83541446               14.96514866                0.74398005                0.09037858                0.10602349               -0.34314006                0.00199061                0.04501524                0.47038540
              10.73230834                6.79656505               14.88018496                0.98810996                0.16631093                0.24901201               -0.78978281               -0.01954341                0.02661443               -0.51358441
               0.86185404                8.21206534               15.09525234                0.97090987               -0.05844762               -0.13063543                0.40201472               -0.02656161                0.01490112                0.80367469
               1.86126957                8.16217837               14.99596126                0.51093988               -0.00117086                0.00226484               -0.00151684               -0.00736148                0.07034252               -0.47803387
               2.86183063                8.11182489               14.89775314                0.00010000               -0.47519417                0.13900605               -0.40767880                0.54757688                6.05195404               -1.78260295
               3.85176568                8.07205468               14.91813498                0.00010000               -1.17163193                0.44220169               -0.37154834                1.01783048               12.09242667               -0.90165753
               4.83839799                8.03379745               14.94344128                0.00010000               -1.46293235                0.63191172               -0.24850748                0.85145096               12.31220006               -0.35537639
               5.82250704                7.99512602               14.97148065                0.00010000               -1.67236428                0.67347562               -0.12477822                0.58393924               12.45877657                0.00520242
               6.80495070                7.95518458               15.00321902                0.00010000               -1.78428886                0.62662473                0.00254381                0.27428263               12.69837459                0.32788690
               7.78682126                7.91426712               15.03954337                0.00010000               -1.78553690                0.37559991                0.13481827               -0.02231267               13.02584291                0.73292786
               8.76923996                7.87406357               15.08106694                0.21613800               -0.89194840               -0.08424226                0.27344456               -0.10759632                6.58878958                1.34836905
               9.76898229                7.83623372               14.99140139                0.73957377                0.05064756                0.05730829               -0.19614793               -0.00416508                0.02120881                0.43222846
              10.77025292                7.79887041               14.90147678                0.97421574                0.12706235                0.21184938               -0.66732774               -0.01924203                0.01448548               -0.55789450
               0.91082490                9.21099388               15.07493774                0.96054897               -0.01616846               -0.08592398                0.26402090               -0.02505832                0.00103697                0.67202308
               1.91066321                9.16243539               14.96914632                0.52880272                0.04386844                0.04904400               -0.15546315               -0.00333950                0.08206657               -0.42626342
               2.91170227                9.11344444               14.86496288                0.00010000               -0.53379901                0.18189111               -0.57657054                0.65346898                7.10873001               -1.26325568
               3.89998723                9.07708966               14.89977682                0.00010000               -1.38456032                0.68954547               -0.42588121                0.84553630               13.90010422               -0.54792032
               4.88401106                9.04094757               14.93490462                0.00010000               -1.66214746                0.75514923               -0.26473613                0.58753644               13.78279955               -0.21436392
               5.86674428                9.00252503               14.97141087                0.00010000               -1.81285460                0.76660504               -0.10609850                0.35114869               13.83528577                0.00413622
               6.84775397                8.96235626               15.01143426                0.00010000               -2.01447911                0.74254328                0.05834361                0.07037773               14.10196469                0.19404500
               7.82645470                8.91869456               15.05705157                0.00010000               -2.06858609                0.64049375                0.23530143               -0.33522605               14.59231065                0.42724016
               8.80638225                8.87295283               15.11068446                0.24728159               -1.03498043               -0.12362798                0.43377472               -0.45686892                7.49565560                0.90905396
               9.80575509                8.83656063               15.01751110                0.78710787                0.01339411                0.01058234               -0.05167965               -0.01213775                0.06391135                0.37087132
              10.80665013                8.80080204               14.92237311                0.93993398                0.08950355                0.17427252               -0.54832945               -0.01962691               -0.02629793               -0.47749668
               0.95846986               10.21034687               15.05212370                0.97903829                0.02823588               -0.06470159                0.12561666                0.04573421                0.36930181                0.54978964
               1.95875222               10.16315925               14.94361187                0.79937598                0.08879398                0.07238553               -0.30259687                0.06469279                0.68234681               -0.36430494
               2.96024574               10.11546271               14.84136507                0.47422781               -0.87894684                0.20182700               -0.71753243                0.98866425                8.32687631               -0.81078889
               3.94117328               10.08584559               14.88584483                0.30788162               -1.77661964                0.87559280               -0.48643962                0.79049070               15.25094467               -0.23678203
               4.92471335               10.04890043               14.92764568                0.30139370               -1.65259781                0.79528579               -0.29728892                0.30085500               14.96981831               -0.07227548
               5.90812132               10.01045812               14.97062206                0.32217669               -1.72623072                0.79330848               -0.10406286                0.19445461               15.02728534                0.04670132
               6.89018873                9.97003544               15.01721677                0.36772317               -1.93005792                0.76791811                0.09574182                0.07442040               15.33876446                0.15004724
               7.86952017                9.92707700               15.06997666                0.46180744               -2.39761067                0.83824400                0.31029779               -0.61567512               15.98332240                0.28547183
               8.84223652                9.87159101               15.13321961                0.63862935               -1.43149157               -0.13618242                0.55265737               -0.94615443                8.57208951                0.56417672
               9.84089033                9.83644537               15.04240472                0.92786145               -0.04294788               -0.01152607                0.08196405                0.05176652                0.54846925                0.31850382
              10.84137756                9.80235586               14.94507749                0.96880291                0.04872255                0.15538198               -0.42543817                0.06379211                0.23285924               -0.37678790
               0.47760695                0.26371996               16.25404403                1.00000000               -0.36622754               -0.40071857                1.39896317               -0.07288203               -0.65717620                0.69577377
               1.47394468                0.19892611               16.19432098                1.00000000               -0.30242999               -0.31883584                1.11981228               -0.05821779               -0.82413947                0.04135983
               2.47155835                0.13393185               16.13118055                1.00000000               -0.16185372               -0.23836106                0.82439033               -0.04132475               -0.76072579               -0.19450459
               3.47070760                0.07007013               16.07267549                0.62919535                0.31934114               -0.18491812                0.54349888                0.48112445                0.22159565               -0.52430722
               4.47794518                0.01835938               16.02917185                0.67824536                0.47440981               -0.07740655                0.24675193               -0.04509342                0.79749921                0.09909656
               5.48019580               -0.02466134               15.98218580                0.73874308                0.14994266                0.01818240               -0.06539701                0.00776803                0.41949991                0.05730730
               6.48094403               -0.06639038               15.93126864                0.72638594                0.04261841                0.10592217               -0.37899800                0.01000127                0.23757063               -0.03724352
               7.48104817               -0.10953598               15.88065371                0.85009484                0.04617674                0.20342460               -0.70222898                0.04894042                0.01245451                0.04241214
               8.48186756               -0.15664919               15.82512770                1.00000000                0.18437348                0.31375205               -1.01700583                0.03591384               -0.37607332                0.38891013
               9.48473564               -0.20636269               15.76668480                1.00000000                0.35551519                0.38377960               -1.32205579               -0.04898874               -0.50732630                0.01597723
              10.48897787               -0.25631137               15.70861951                1.00000000                0.42422309                0.46578681               -1.61251405               -0.07399053               -0.49482859               -0.51559620
               0.54167199                1.25971278               16.23174218                1.00000000               -0.34154300               -0.37943717                1.27091253               -0.03218804               -0.08330310                0.94819926
               1.53825656                1.19573775               16.17161458                1.00000000               -0.30494453               -0.29620490                0.99167428               -0.01438670               -0.04252858                0.06140308
               2.53557310                1.13154824               16.11224527                0.86215830               -0.24757363               -0.21575115                0.70713811                0.02471849                0.18103057               -0.54195723
               3.53330508                1.06822095               16.05655497                0.12149864               -0.53565605               -0.17567061                0.42545474                0.67982150                1.58246370               -0.90380140
               4.52485997                1.01758531               16.02523359                0.22693775               -0.53283640                0.07208436                0.19681549                0.00865081                2.25775148                0.84835945
               5.52264836                0.97552049               15.98364471                0.28729042               -0.06893061                0.08719970               -0.08373919                0.25429800                1.50917562                0.32933178
               6.52348136                0.93466885               15.93755428                0.19337199                0.20093121                0.02115719               -0.37172927                0.26774582                1.36795069               -0.37438649
               7.52666698                0.89249827               15.89334304                0.38221422                0.35793472                0.20330761               -0.65067269                0.36287646                1.32146620                0.57437608
               8.53064006                0.84648833               15.84666863                1.00000000                0.37049297                0.29174058               -0.92499330                0.15394134                0.67417941                0.54228547
               9.53407684                0.79747511               15.78977898                1.00000000                0.37732959                0.36945884               -1.21213659               -0.00072680                0.09858024                0.08162447
              10.53818665                0.74834650               15.73168752                1.00000000                0.41098092                0.44142872               -1.50185611               -0.02789325                0.03344281               -0.61104322
               0.60491325                2.25613122               16.21439207                1.00000000               -0.30917631               -0.34387947                1.16014230               -0.02563549                0.03155838                1.21718958
               1.60182148                2.19300201               16.14924557                1.00000000               -0.26718596               -0.25790924                0.86681322               -0.00083429                0.14493135                0.03977544
               2.59956953                2.12961683               16.08632777                0.46609531               -0.17772609               -0.18230638                0.58250650                0.05143313                0.72905366               -1.17036140
               3.59826696                2.06655672               16.03283829                0.00010000               -1.43754366               -0.16155561                0.28983882                0.97094663                4.04116676               -1.66451241
               4.57081865                2.01980106               16.03616866                0.00010000               -1.50343678                0.22182835                0.20218011                1.89475494                4.30862079               -1.13432125
               5.56819822                1.97708266               15.99050293                0.00010000               -0.07487440               -0.01020139               -0.08634722                1.64453335                1.48306364               -0.47325930
               6.56932116                1.93403277               15.93710371                0.00010000                0.41439950               -0.14319569               -0.36242435                1.47865192                2.73989597                0.13155243
               7.57648621                1.89453018               15.91671207                0.00010000                0.53241924               -0.09277889               -0.59803965                1.03815344                3.09201398                0.56009394
               8.57996955                1.84918562               15.87137014                0.44134437                0.31883593                0.28240755               -0.81384274                0.26463095                1.25691511                1.03571146
               9.58286293                1.80102649               15.81428387                1.00000000                0.33538407                0.35498515               -1.09610811                0.04484182                0.45662983                0.45319358
              10.58667723                1.75251720               15.75295991                1.00000000                0.38142978                0.39685977               -1.40288084               -0.01374906                0.24140825               -0.62215949
               0.66741769                3.25283519               16.19735239                1.00000000               -0.26634296               -0.31894639                1.04838940               -0.02031197                0.03648471                1.21378971
               1.66475426                3.19057956               16.12603934                1.00000000               -0.21853204               -0.22562946                0.73870733                0.00125358                0.04234108               -0.02935744
               2.66304705                3.12790211               16.05479773                0.22356115               -0.11072425               -0.13934968                0.43219132                0.01500185                0.94398052               -1.38760952
               3.66253978                3.06498984               16.00148416                0.00010000               -0.54089599               -0.08638983                0.13597978                1.04222552                4.07571875               -2.07423374
               4.65222913                3.02202188               15.99289443                0.00010000               -1.06162298                0.15274937                0.01000515                2.68208998                5.83789361               -2.64976758
               5.64130732                2.97531646               15.97597298                0.00010000               -0.83111247                0.01205858               -0.13139780                2.29413111                5.06111473               -1.20584305
               6.63560688                2.93180493               15.95319381                0.00010000               -0.45150606               -0.05863710               -0.30224739                2.03457852                4.66100174                0.49305508
               7.63227720                2.89064269               15.92927052                0.00010000               -0.30852617               -0.15233035               -0.47826044                1.50786836                4.43682784                0.49339398
               8.62943636                2.85213648               15.90283513                0.15819950               -0.03175525                0.27892752               -0.67100618                0.61828889                2.68433457                1.90580309
               9.63164209                2.80457481               15.84487128                1.00000000                0.27469420                0.32359302               -0.94641374                0.05796664                0.55496975                0.70632245
              10.63493024                2.75628369               15.77585304                1.00000000                0.32881515                0.36874925               -1.29162358               -0.02368037                0.00066565               -0.46611417
               0.72901825                4.24975229               16.17981491                1.00000000               -0.22386192               -0.29475709                0.93008936               -0.02259657                0.03407906                1.14481590
               1.72677963                4.18848942               16.10222767                1.00000000               -0.17794782               -0.18687332                0.60277004               -0.00090012                0.03205098               -0.07326391
               2.72545929                4.12682983               16.02454875                0.08347812               -0.08939635               -0.07912670                0.28084996                0.00316326                1.16604524               -1.22219067
               3.72499170                4.06482892               15.96963326                0.00010000               -0.56627323                0.21969737               -0.10423974                0.79217535                5.27275739               -1.10998613
               4.71413383                4.02285605               15.97376848                0.00010000               -1.03469550                0.14912145               -0.13578703                1.61397202                7.69213969               -1.03800563
               5.70429779                3.97732383               15.96881668                0.00010000               -0.97236622                0.22805552               -0.17328686                1.48162666                6.98943711               -0.58056136
               6.69468650                3.93286003               15.96060829                0.00010000               -0.89928791                0.18758814               -0.25496507                1.39282669                6.70169063                0.15939927
               7.68631203                3.89148357               15.95152141                0.00010000               -0.81416495                0.15649984               -0.35857924                1.35739579                6.71108366                1.02159742
               8.67840320                3.85476417               15.94499263                0.13940145               -0.32184906                0.20931129               -0.47081720                0.63734392                3.57475070                2.16281148
               9.67987505                3.80749835               15.87449518                1.00000000                0.21913308                0.26062047               -0.79512559                0.03471782                0.18883723                0.64268552
              10.68278587                3.75989219               15.80022800                1.00000000                0.29108131                0.34900323               -1.16943096               -0.02070691               -0.00079898               -0.38091963
               0.78949150                5.24694004               16.16129299                1.00000000               -0.18327812               -0.26188656                0.80270419               -0.02542398                0.10163472                1.04238494
               1.78765872                5.18684210               16.07811011                0.77953828               -0.13603411               -0.14092461                0.45872373               -0.00545542                0.17510332               -0.19989630
               2.78677082                5.12631958               15.99635776                0.01196423               -0.26508268               -0.02314821                0.12716005                0.19728920                2.42731092               -1.31645732
               3.78235707                5.06938378               15.95818926                0.00010000               -0.73785774                0.48538989               -0.48151382                0.61954135                6.79783720                0.10942360
               4.77201366                5.02500431               15.96311087                0.00010000               -1.07105946                0.28143352               -0.23390430                1.20665276                8.77552106               -0.40619076
               5.76093588                4.97987757               15.96688301                0.00010000               -1.13549930                0.30616931               -0.19378250                1.06836000                8.58824127               -0.17472234
               6.74930368                4.93555670               15.97030690                0.00010000               -1.17074540                0.30934452               -0.20170686                1.01882673                8.51701014                0.34945525
               7.73752097                4.89377269               15.97475445                0.00010000               -1.15676117                0.24556438               -0.23423133                1.06101411                8.60166446                1.04899961
               8.72616845                4.85632271               15.98179626                0.14789618               -0.51562691                0.11450907               -0.27579791                0.51699236                4.39957159                1.78821743
               9.72720843                4.80978722               15.90387198                0.89978731                0.17799893                0.20368680               -0.65619172                0.01925280                0.09427689                0.62394046
              10.72972843                4.76326376               15.82479640                1.00000000                0.25200022                0.32269479               -1.04540088               -0.02045233                0.03702092               -0.38803891
               0.84870566                6.24451456               16.14159191                1.00000000               -0.14146723               -0.21971363                0.66805723               -0.02696632                0.06862277                0.93134778
               1.84729099                6.18567093               16.05174138                0.62122836               -0.09211350               -0.09294129                0.30580404               -0.00804716                0.18924531               -0.37627915
               2.84686339                6.12636687               15.96426114                0.00010000               -0.42965955                0.03176292               -0.04402351                0.38991602                4.05446156               -1.64208803
               3.83869780                6.07453672               15.95168830                0.00010000               -0.95451482                0.45818001               -0.40582973                0.77648255                8.63949188               -0.13387893
               4.82777310                6.02848472               15.95653767                0.00010000               -1.17925970                0.40564812               -0.28000198                0.99193162                9.72080980               -0.20459223
               5.81511260                5.98344722               15.96772696                0.00010000               -1.33025877                0.42316070               -0.18751253                0.87621371               10.03826828                0.01951883
               6.80116792                5.93904692               15.98140856                0.00010000               -1.41731493                0.39667591               -0.13858310                0.75092551               10.15966355                0.44775263
               7.78676631                5.89639486               15.99751661                0.00010000               -1.42197020                0.27160712               -0.11046217                0.74235362               10.31537481                1.00838421
               8.77272852                5.85705435               16.01661588                0.16425644               -0.67236243                0.03948992               -0.09493636                0.34497839                5.23818462                1.64239009
               9.77331906                5.81157209               15.93318243                0.78782179                0.13476179                0.15621176               -0.50439824                0.00756862                0.07615046                0.57807994
              10.77542375                5.76634608               15.84900718                1.00000000                0.21046944                0.29150784               -0.92702498               -0.02009827                0.04216087               -0.45264145
               0.90663944                7.24254577               16.12071404                0.98503854               -0.09939674               -0.17310346                0.52988110               -0.02637572                0.03156660                0.84758546
               1.90564547                7.18498327               16.02408711                0.53366197               -0.04680428               -0.04532644                0.15200575               -0.00751489                0.14299104               -0.46490058
               2.90570335                7.12695483               15.92965261                0.00010000               -0.49383025                0.08381484               -0.21980950                0.49891216                5.23522515               -1.83884355
               3.89576886                7.07854738               15.93486526                0.00010000               -1.13807756                0.40783286               -0.36161212                0.97082366               10.61074988               -0.79655401
               4.88294180                7.03311727               15.94955041                0.00010000               -1.39354534                0.53071376               -0.26689367                0.95174872               11.21148626               -0.27476246
               5.86789796                6.98834078               15.96924017                0.00010000               -1.57836257                0.57516248               -0.16145188                0.73441724               11.51074342                0.06174399
               6.85137455                6.94349021               15.99270931                0.00010000               -1.67686751                0.51380527               -0.06946623                0.49350336               11.73494692                0.44941123
               7.83436061                6.89920483               16.01974122                0.00010000               -1.67418787                0.30900629                0.01050022                0.36639379               11.96948140                0.94364646
               8.81789079                6.85711250               16.05056071                0.18614877               -0.81462678               -0.02443990                0.08206018                0.12658779                6.05752483                1.55939104
               9.81806807                6.81291146               15.96163389                0.73014390                0.09438426                0.11086477               -0.36079502                0.00048467                0.04834042                0.50221380
              10.81977848                6.76909391               15.87219809                0.98821951                0.17104046                0.25730103               -0.80816788               -0.01884642                0.02771020               -0.53079030
               0.96330315                8.24105249               16.09921716                0.97043106               -0.05715174               -0.12652097                0.39156388               -0.02527211                0.01409755                0.81180010
               1.96273163                8.18476440               15.99595434                0.50649420               -0.00128108                0.00140181               -0.00053446               -0.00497093                0.06849461               -0.49959332
               2.96327752                8.12804316               15.89375283                0.00010000               -0.53898960                0.13203029               -0.39437407                0.58950609                6.26021821               -1.83767283
               3.95195184                8.08269337               15.91434829                0.00010000               -1.31314280                0.48114684               -0.38971907                1.07443017               12.58250359               -0.86209948
               4.93701467                8.03909900               15.94091523                0.00010000               -1.62619156                0.69087798               -0.25873075                0.88046721               12.86742782               -0.30987145
               5.91942801                7.99495046               15.97021279                0.00010000               -1.84203638                0.73542148               -0.13012662                0.57495215               13.02659558                0.04508926
               6.90017394                7.94932302               16.00322457                0.00010000               -1.94780572                0.68404642               -0.00269786                0.22989903               13.27922656                0.36860323
               7.88047189                7.90257498               16.04084627                0.00010000               -1.93101488                0.41217164                0.12442649               -0.09631750               13.62017751                0.78500678
               8.86155364                7.85656555               16.08370346                0.21376535               -0.95622752               -0.08029651                0.25250244               -0.15461149                6.89217872                1.42524794
               9.86134734                7.81378938               15.98933452                0.72559229                0.05641348                0.06376927               -0.21825860               -0.00564113                0.02238361                0.46253391
              10.86268191                7.77149210               15.89468590                0.97508032                0.13345722                0.22146474               -0.69139582               -0.01831575                0.01500931               -0.57777285
               1.01871017                9.24001535               16.07753103                0.96038401               -0.01547987               -0.08293827                0.25512916               -0.02415321               -0.00068408                0.68061301
               2.01855538                9.18501131               15.96761739                0.52398097                0.04271614                0.04768114               -0.15131294               -0.00208988                0.07997139               -0.44327211
               3.01956450                9.12959544               15.85930127                0.00010000               -0.61768705                0.17540380               -0.55831968                0.72206217                7.38409337               -1.29846145
               4.00620163                9.08817032               15.89552092                0.00010000               -1.56352220                0.75470171               -0.42767306                0.91230715               14.48169487               -0.51749218
               4.98829405                9.04693483               15.93225026                0.00010000               -1.85143298                0.82723174               -0.26786388                0.61526805               14.39182811               -0.18994436
               5.96917297                9.00304921               15.97033869                0.00010000               -1.99730208                0.83983762               -0.10973255                0.34546520               14.46077004                0.02619094
               6.94834801                8.95717114               16.01199287                0.00010000               -2.19906252                0.81449818                0.05201275                0.03350528               14.74746494                0.21610102
               7.92519172                8.90744826               16.05934623                0.00010000               -2.23819265                0.70609249                0.22218970               -0.41022124               15.26307575                0.45601375
               8.90358416                8.85550657               16.11490273                0.24496384               -1.10815136               -0.11616250                0.40831089               -0.52375585                7.84520907                0.95851626
               9.90302870                8.81418684               16.01686543                0.77074836                0.02112795                0.01854662               -0.07865063               -0.01413338                0.06887381                0.39495658
              10.90400672                8.77352321               15.91674402                0.94287025                0.09780205                0.18451908               -0.57812016               -0.01850744               -0.02678311               -0.49701448
               1.07282817               10.23939372               16.05334370                0.97901706                0.02815736               -0.06216278                0.11870817                0.04422941                0.37271798                0.55803207
               2.07310974               10.18571802               15.94062697                0.79725704                0.08657937                0.07067141               -0.29563752                0.06331262                0.69268023               -0.37735506
               3.07455976               10.13155124               15.83430776                0.47298087               -1.01255761                0.19557999               -0.69673835                1.10299538                8.66032644               -0.83111538
               4.05285859               10.09778741               15.88101953                0.30853844               -2.00593108                0.96170894               -0.48025720                0.87031528               15.91293885               -0.21914096
               5.03444114               10.05564363               15.92468216                0.30163203               -1.83787970                0.87088024               -0.29702945                0.31269871               15.63745074               -0.06253947
               6.01610100               10.01174722               15.96957481                0.32203102               -1.89980692                0.86980036               -0.10688542                0.19126997               15.71647171                0.05565761
               6.99644500                9.96561299               16.01814342                0.36730237               -2.10844812                0.84418435                0.08805465                0.05717933               16.04931495                0.15950744
               7.97393203                9.91669683               16.07300561                0.46246967               -2.60525259                0.92485683                0.29389127               -0.69450300               16.72124602                0.29899603
               8.94433995                9.85424230               16.13859678                0.63781329               -1.54419981               -0.12642701                0.52111570               -1.05124703                8.97525548                0.59354133
               9.94304804                9.81416032               16.04306633                0.91864284               -0.03504552               -0.00265282                0.04894594                0.04894333                0.58042302                0.33772061
              10.94363904                9.77518249               15.94064366                0.96950473                0.05909966                0.16592778               -0.46212663                0.06544886                0.24647932               -0.39421167
               0.53203590                0.29373630               17.26796090                1.00000000               -0.36228042               -0.39602153                1.38452359               -0.07245367               -0.68015718                0.71853806
               1.52841310                0.22270740               17.20546469                1.00000000               -0.29913148               -0.31580614                1.10903703               -0.05826966               -0.85460847                0.04499931
               2.52605327                0.15149090               17.13939969                1.00000000               -0.16046801               -0.23690045                0.81914536               -0.04077672               -0.79169563               -0.19853247
               3.52520374                0.08142256               17.07810702                0.62883181                0.31853906               -0.18487331                0.54252779                0.48713803                0.18881451               -0.54533529
               4.53242405                0.02361399               17.03164774                0.68074429                0.47005956               -0.07256507                0.24696151               -0.05223455                0.74404263                0.11323953
               5.53460493               -0.02541597               16.98154443                0.74312172                0.14660546                0.02016849               -0.06384280                0.00639071                0.35924276                0.06441630
               6.53535616               -0.07310676               16.92751600                0.72972931                0.04590160                0.10565929               -0.37206499                0.00971254                0.17456121               -0.04178134
               7.53552296               -0.12203947               16.87369769                0.85224816                0.05120583                0.20153478               -0.68942818                0.04535578               -0.04978206                0.04660549
               8.53638028               -0.17470433               16.81504317                1.00000000                0.18435720                0.30911633               -1.00020508                0.03229436               -0.42839106                0.40017479
               9.53921010               -0.22985343               16.75356417                1.00000000                0.35047682                0.37898254               -1.30220753               -0.04795499               -0.54677846                0.01456302
              10.54338981               -0.28524236               16.69261146                1.00000000                0.41797109                0.46028269               -1.58913841               -0.07192317               -0.52662631               -0.54657118
               0.60234027                1.28977609               17.24438736                1.00000000               -0.33871642               -0.37431612                1.25847141               -0.03225471               -0.08754425                0.97895764
               1.59895310                1.21954934               17.18148313                1.00000000               -0.30261701               -0.29308967                0.98241513               -0.01480876               -0.04935405                0.06634687
               2.59628793                1.14912189               17.11928893                0.86587461               -0.24697661               -0.21444859                0.70215749                0.02516379                0.17366564               -0.55060131
               3.59401357                1.07957382               17.06081222                0.13027442               -0.54834779               -0.17534734                0.42872675                0.68947046                1.60220684               -0.93608814
               4.58532097                1.02288834               17.02720370                0.23931020               -0.54921794                0.06688773                0.19752068               -0.02360730                2.28743846                0.88677391
               5.58302921                0.97478571               16.98281106                0.30186345               -0.07779665                0.08678847               -0.08325089                0.23375895                1.51346867                0.34380869
               6.58376504                0.92794983               16.93385832                0.20579390                0.18730443                0.02865237               -0.36793613                0.25524208                1.37464997               -0.37803760
               7.58677530                0.87997587               16.88688008                0.39320939                0.34225820                0.19914632               -0.64254246                0.34026551                1.33437974                0.57889487
               8.59061020                0.82838684               16.83747344                1.00000000                0.36121344                0.28809098               -0.91455959                0.14641468                0.68198012                0.56303519
               9.59399957                0.77393639               16.77772723                1.00000000                0.37246522                0.36561625               -1.19863434               -0.00025745                0.09906188                0.08331781
              10.59805950                0.71936047               16.71675559                1.00000000                0.40599371                0.43779415               -1.48486631               -0.02646132                0.03292932               -0.64776125
               0.67184430                2.28624998               17.22593258                1.00000000               -0.30731884               -0.33838326                1.14871329               -0.02455470                0.03233304                1.25492988
               1.66877111                2.21684561               17.15787076                1.00000000               -0.26561201               -0.25488182                0.85877135                0.00077072                0.14909546                0.04437152
               2.66653206                2.14720193               17.09211535                0.48202006               -0.17722084               -0.18197351                0.57458840                0.05537193                0.73304430               -1.19476159
               3.66522670                2.07791561               17.03571011                0.00010000               -1.48960237               -0.16374996                0.28481151                0.97813432                4.14254601               -1.71649549
               4.63674001                2.02495175               17.03813862                0.00010000               -1.55040410                0.20627131                0.19291212                1.90340200                4.45129646               -1.16209425
               5.63421862                1.97631980               16.98962601                0.00010000               -0.07345872               -0.02722712               -0.09036416                1.64595884                1.53148229               -0.46966929
               6.63527084                1.92746629               16.93348052                0.00010000                0.38363241               -0.15038405               -0.36248405                1.45587494                2.81280413                0.15479060
               7.64189126                1.88194345               16.91074435                0.00010000                0.50386061               -0.10082067               -0.59636413                1.01764461                3.18849576                0.60205030
               8.64534805                1.83105749               16.86325375                0.45065594                0.31700283                0.27956345               -0.81020796                0.25592989                1.32637346                1.08228753
               9.64823132                1.77745889               16.80336136                1.00000000                0.33321887                0.35229286               -1.08916807                0.04389450                0.48125082                0.47522693
              10.65201243                1.72351353               16.73898494                1.00000000                0.37811104                0.39711296               -1.39271036               -0.01274024                0.25393401               -0.65736163
               0.74065792                3.28300842               17.20777757                1.00000000               -0.26413491               -0.31396553                1.03737248               -0.01788917                0.03947000                1.24636884
               1.73801657                3.21445170               17.13339142                1.00000000               -0.21662784               -0.22354490                0.73213489                0.00437801                0.04678438               -0.03038124
               2.73632536                3.14548242               17.05910975                0.24069538               -0.10950668               -0.14063428                0.43079401                0.01899670                0.95432718               -1.42267110
               3.73582644                3.07629882               17.00284233                0.00010000               -0.56702704               -0.10493197                0.13634854                1.05442174                4.18455265               -2.18006638
               4.72498482                3.02701377               16.99300197                0.00010000               -1.11962941                0.13533919                0.01491371                2.71801852                6.02118830               -2.75128499
               5.71343385                2.97424117               16.97466602                0.00010000               -0.88629706               -0.00676277               -0.13049976                2.31048673                5.23321776               -1.21877687
               6.70725888                2.92494215               16.95018088                0.00010000               -0.49484317               -0.08069374               -0.30145238                2.02881686                4.82279568                0.54096246
               7.70353698                2.87795946               16.92449622                0.00010000               -0.35227603               -0.16028910               -0.47769703                1.50984308                4.59151723                0.57229396
               8.70021336                2.83397811               16.89611859                0.15914842               -0.05577798                0.27192793               -0.67344246                0.61038614                2.79546991                1.99706631
               9.70242142                2.78098225               16.83542137                1.00000000                0.27410356                0.32086568               -0.94526009                0.05576720                0.59242346                0.74709135
              10.70569543                2.72730273               16.76296835                1.00000000                0.32740061                0.37099220               -1.28707535               -0.02288108                0.00379322               -0.48639224
               0.80859996                4.27997067               17.18905446                1.00000000               -0.22152857               -0.28998152                0.91854694               -0.02107843                0.03862161                1.16843402
               1.80638467                4.21237471               17.10823452                1.00000000               -0.17675416               -0.18581469                0.59908614                0.00082288                0.03970003               -0.08377855
               2.80506488                4.14438924               17.02739128                0.09571661               -0.08004423               -0.08130979                0.28720800               -0.00726658                1.14609849               -1.26330330
               3.80478379                4.07581697               16.96869605                0.00010000               -0.59534186                0.18006528               -0.08808334                0.80880794                5.38555889               -1.32218648
               4.79315804                4.02765853               16.97242978                0.00010000               -1.11419109                0.14074285               -0.12850772                1.62973381                7.98271636               -1.09827576
               5.78249997                3.97618454               16.96709669                0.00010000               -1.05145755                0.22703913               -0.17144761                1.49099807                7.27050367               -0.58600122
               6.77212889                3.92585241               16.95806579                0.00010000               -0.97238986                0.18253550               -0.25464006                1.38614183                6.96085377                0.20254752
               7.76305217                3.87873767               16.94793201                0.00010000               -0.87979501                0.15371430               -0.36061330                1.34211602                6.96330491                1.10138571
               8.75453299                3.83649605               16.94025998                0.13744620               -0.35150646                0.19950991               -0.47816635                0.62644726                3.72762860                2.27904519
               9.75602204                3.78387620               16.86655380                1.00000000                0.21904304                0.25725300               -0.79349701                0.03339228                0.21461963                0.67778066
              10.75891385                3.73093337               16.78855796                1.00000000                0.28918078                0.35036601               -1.16218266               -0.02080926               -0.00083931               -0.39263086
               0.87542827                5.27720879               17.16926051                1.00000000               -0.18138162               -0.25629377                0.79122285               -0.02456955                0.10487106                1.05670058
               1.87361446                5.21073541               17.08266530                0.76969908               -0.13452513               -0.14028807                0.45303165               -0.00380539                0.18419621               -0.21970381
               2.87273777                5.14385623               16.99761697                0.02164158               -0.24405752               -0.02614530                0.12614074                0.16729665                2.29990039               -1.36859315
               3.86873331                5.07990013               16.95331710                0.00010000               -0.77629224                0.47222133               -0.47465779                0.60337231                6.95840934                0.03786769
               4.85721193                5.02982862               16.96075188                0.00010000               -1.18366888                0.29094918               -0.23632366                1.23096202                9.27299736               -0.42614891
               5.84505993                4.97878195               16.96494226                0.00010000               -1.23916684                0.31875240               -0.19487931                1.06447847                8.96937363               -0.16015558
               6.83242859                4.92859286               16.96828803                0.00010000               -1.26621320                0.32006458               -0.20313348                1.00029383                8.87142130                0.39766461
               7.81973566                4.88103375               16.97239590                0.00010000               -1.24124089                0.25027548               -0.23881445                1.03528641                8.94899398                1.12891228
               8.80760377                4.83796830               16.97900051                0.14536605               -0.55418564                0.10866487               -0.28589313                0.49764923                4.58566386                1.89358011
               9.80865195                4.78612731               16.89729276                0.88212965                0.17805724                0.20183660               -0.65721199                0.01606367                0.10881251                0.65775257
              10.81116492                4.73431005               16.81434229                1.00000000                0.25129635                0.32511358               -1.04267871               -0.02048417                0.04633004               -0.40335548
               0.94105533                6.27484480               17.14821325                1.00000000               -0.13942049               -0.21378737                0.65655615               -0.02563024                0.06922823                0.93919801
               1.93966113                6.20956895               17.05477518                0.61435149               -0.09046229               -0.09281430                0.30104827               -0.00508388                0.19623895               -0.39964964
               2.93924609                6.14386634               16.96383644                0.00010000               -0.43911456                0.02697627               -0.04160089                0.37540347                4.04195321               -1.70039802
               3.93087884                6.08526140               16.94729131                0.00010000               -1.01753169                0.48772091               -0.46797099                0.73991245                8.89612390                0.00227536
               4.91889546                6.03347751               16.95365680                0.00010000               -1.29267691                0.43039528               -0.29427204                0.99972301               10.22766631               -0.17118344
               5.90502530                5.98255959               16.96582713                0.00010000               -1.45062424                0.45113043               -0.19278938                0.86124277               10.50179291                0.05522909
               6.88988297                5.93225370               16.98000870                0.00010000               -1.53214229                0.42015565               -0.14240839                0.71811575               10.59800763                0.50153193
               7.87438245                5.88374318               16.99638282                0.00010000               -1.52452801                0.28460427               -0.11764337                0.69990780               10.74610661                1.08451991
               8.85939241                5.83866935               17.01560249                0.16174346               -0.71904431                0.03848121               -0.10865334                0.31622899                5.46168332                1.73819960
               9.86000157                5.78791294               16.92807950                0.77198778                0.13731370                0.15896704               -0.51773917                0.00444994                0.08287042                0.61518843
              10.86213868                5.73743564               16.83968234                1.00000000                0.21371158                0.29802351               -0.93962429               -0.01926808                0.04276994               -0.47095268
               1.00546736                7.27293305               17.12595766                0.98411890               -0.09761234               -0.16802173                0.51908544               -0.02507713                0.03127286                0.85325242
               2.00449124                7.20887912               17.02559553                0.52860496               -0.04569853               -0.04563616                0.14941827               -0.00473170                0.14586360               -0.48733999
               3.00455339                7.14439575               16.92748911                0.00010000               -0.52854309                0.07782203               -0.21381404                0.50851865                5.34113257               -1.89746855
               3.99392038                7.08965455               16.93102420                0.00010000               -1.23225996                0.44478194               -0.40903498                0.97076494               10.97519929               -0.69550916
               4.97990819                7.03843653               16.94678178                0.00010000               -1.52058908                0.57113270               -0.28694669                0.95683019               11.72480596               -0.21070219
               5.96350860                6.98780456               16.96758966                0.00010000               -1.71504393                0.61848478               -0.16921741                0.71318738               12.02639139                0.10953615
               6.94560731                6.93699597               16.99198970                0.00010000               -1.80952103                0.55096874               -0.07552295                0.44700293               12.24496548                0.50282223
               7.92731817                6.88672583               17.01980212                0.00010000               -1.79243599                0.33095334                0.00040551                0.30527144               12.47853536                1.01297366
               8.90975859                6.83873793               17.05129296                0.18380224               -0.86717583               -0.02214193                0.06314753                0.08918490                6.31700949                1.65052760
               9.90997466                6.78930665               16.95793276                0.71636427                0.09877753                0.11699609               -0.38035406               -0.00107280                0.05119141                0.53694219
              10.91173414                6.74027052               16.86402160                0.98837634                0.17594863                0.26666902               -0.82786277               -0.01803029                0.02884155               -0.54761268
               1.06866164                8.27148436               17.10308362                0.96996564               -0.05578488               -0.12267206                0.38190546               -0.02425686                0.01352140                0.81822868
               2.06810379                8.20865623               16.99595057                0.50249152               -0.00102993                0.00090964               -0.00075297               -0.00302114                0.06735634               -0.52003628
               3.06864104                8.14542278               16.88986566                0.00010000               -0.59252132                0.12622680               -0.38449575                0.62140109                6.44705756               -1.88890441
               4.05625336                8.09415704               16.91034060                0.00010000               -1.43794965                0.52070182               -0.41462153                1.11145767               13.05158864               -0.80244725
               5.03988205                8.04490017               16.93826667                0.00010000               -1.77618783                0.74726127               -0.27230283                0.89469531               13.42211573               -0.25612448
               6.02072960                7.99492929               16.96887812                0.00010000               -1.99901432                0.79411358               -0.13782793                0.55406916               13.59091966                0.08805422
               6.99990176                7.94327308               17.00316506                0.00010000               -2.09918379                0.73817309               -0.01041303                0.17606849               13.85366668                0.41188821
               7.97874593                7.89036225               17.04203190                0.00010000               -2.06532339                0.44648299                0.11130862               -0.17791914               14.20538566                0.84062146
               8.95859529                7.83822651               17.08611699                0.21151686               -1.01492038               -0.07540448                0.22881788               -0.20503771                7.19122362                1.50645927
               9.95844752                7.79025286               16.98703622                0.71160132                0.06275242                0.07106500               -0.24236314               -0.00704344                0.02391272                0.49617593
              10.95985034                7.74276902               16.88764886                0.97596593                0.14028181                0.23167349               -0.71656889               -0.01722630                0.01567949               -0.59636149
               1.13063850                9.27047960               17.08004033                0.96023188               -0.01460958               -0.08011011                0.24682229               -0.02342719               -0.00210728                0.68805336
               2.13049240                9.20889732               16.96612006                0.51974165                0.04210535                0.04683713               -0.14897403               -0.00106696                0.07871379               -0.45919801
               3.13148060                9.14692029               16.85379648                0.00010000               -0.69101308                0.17023218               -0.54452560                0.77949717                7.64429365               -1.33089507
               4.11667214                9.10006858               16.89122336                0.00010000               -1.72253774                0.81542558               -0.43381477                0.96328798               15.04254609               -0.47481690
               5.09702985                9.05338176               16.92954735                0.00010000               -2.02275348                0.89428339               -0.27420447                0.63216395               14.99163057               -0.16055617
               6.07621707                9.00368683               16.96921622                0.00010000               -2.16670630                0.90848697               -0.11606599                0.33187869               15.07825123                0.05027678
               7.05369572                8.95175944               17.01247452                0.00010000               -2.37053549                0.88257095                0.04294658               -0.00944349               15.38437929                0.23965811
               8.02880636                8.89565549               17.06149536                0.00010000               -2.39642471                0.76879591                0.20617049               -0.48918984               15.92366050                0.48746169
               9.00576723                8.83722984               17.11885067                0.24252489               -1.17575408               -0.10763838                0.37968193               -0.59209612                8.19046145                1.01143904
              10.00529128                8.79072795               17.01593809                0.75399701                0.02950318                0.02725665               -0.10792275               -0.01607285                0.07469631                0.42119466
              11.00635729                8.74490399               16.91081070                0.94569693                0.10660139                0.19516643               -0.60904099               -0.01728869               -0.02700505               -0.51605414
               1.19135767               10.26988216               17.05449786                0.97901045                0.02840943               -0.05974457                0.11204273                0.04299823                0.37614122                0.56556232
               2.19164176               10.20959297               16.93769912                0.79546417                0.08510225                0.06956515               -0.29100792                0.06219939                0.70307936               -0.38956092
               3.19305971               10.14882742               16.82743030                0.47204087               -1.12920538                0.19071301               -0.68083607                1.20154006                8.98072059               -0.85005326
               4.16905766               10.11046555               16.87623969                0.30914641               -2.20763195                1.03969630               -0.47729122                0.93647251               16.55426231               -0.19460548
               5.14890707               10.06278584               16.92170510                0.30185937               -2.00340783                0.94040806               -0.29993977                0.31939659               16.29118828               -0.05066563
               6.12898950               10.01309903               16.96848435                0.32187487               -2.05814224                0.94121918               -0.11266985                0.18417603               16.39414922                0.06512891
               7.10774423                9.96092450               17.01897787                0.36683511               -2.27488849                0.91650613                0.07734552                0.03680781               16.74790584                0.16911061
               8.08349173                9.90573817               17.07585448                0.46321158               -2.80316597                1.00826731                0.27441109               -0.77400069               17.44546450                0.31325562
               9.05168091                9.83607374               17.14364192                0.63687257               -1.65199076               -0.11560957                0.48628462               -1.15564037                9.37387368                0.62562347
              10.05045191                9.79079799               17.04338364                0.90908457               -0.02642119                0.00700419                0.01329081                0.04599401                0.61375480                0.35834586
              11.05115249                9.74667235               16.93583496                0.97024874                0.07005732                0.17683614               -0.50010069                0.06695544                0.26040508               -0.41193827
               0.58899622                0.32523780               18.28173450                1.00000000               -0.35825084               -0.39175498                1.37040046               -0.07152472               -0.70264940                0.74115285
               1.58541371                0.24778922               18.21650172                1.00000000               -0.29570560               -0.31305964                1.09863140               -0.05733450               -0.88410587                0.04794579
               2.58308211                0.17018273               18.14756346                1.00000000               -0.15889346               -0.23621687                0.81274102               -0.03828976               -0.82168514               -0.20406579
               3.58223585                0.09375301               18.08352605                0.62829527                0.31532556               -0.18569186                0.53762656                0.48633662                0.15458449               -0.56226064
               4.58938862                0.02951225               18.03411108                0.68298407                0.46382741               -0.06823417                0.24374964               -0.06083625                0.68793383                0.12587694
               5.59151239               -0.02590628               17.98090894                0.74680249                0.14466839                0.02213563               -0.06371018                0.00392772                0.30057512                0.07083406
               6.59228199               -0.07991063               17.92382734                0.73235046                0.05064841                0.10542130               -0.36580186                0.00921756                0.11486932               -0.04619764
               7.59252536               -0.13496864               17.86686514                0.85393473                0.05756398                0.19981466               -0.67729690                0.04162814               -0.11014820                0.05138125
               8.59343327               -0.19350625               17.80512360                1.00000000                0.18532066                0.30446985               -0.98384184                0.02847783               -0.48077174                0.41119975
               9.59623178               -0.25439756               17.74064065                1.00000000                0.34587428                0.37418311               -1.28250109               -0.04682530               -0.58678212                0.01288994
              10.60035076               -0.31553106               17.67683674                1.00000000                0.41189801                0.45488445               -1.56578004               -0.06957401               -0.55882593               -0.57803410
               0.66572956                1.32132025               18.25691161                1.00000000               -0.33616530               -0.36990983                1.24645152               -0.03179710               -0.09139504                1.00901082
               1.66236791                1.24465862               18.19126288                1.00000000               -0.30061228               -0.29040326                0.97419577               -0.01463930               -0.05487863                0.07022260
               2.65971731                1.16782056               18.12628842                0.86606968               -0.24667282               -0.21409783                0.69917329                0.02732134                0.17037603               -0.56243935
               3.65743445                1.09189610               18.06512950                0.13809951               -0.55537036               -0.17781580                0.43762125                0.69340549                1.61872278               -0.96844013
               4.64860991                1.02882991               18.02918400                0.25106654               -0.55856691                0.06243280                0.19780732               -0.05204813                2.30912240                0.91762847
               5.64626311                0.97431508               17.98197970                0.31582129               -0.08522804                0.08702976               -0.08367531                0.21436280                1.51343222                0.35501416
               6.64690535                0.92114358               17.93019555                0.21774614                0.17381691                0.03583241               -0.36522582                0.24456738                1.37976979               -0.38198122
               7.64973945                0.86702951               17.88049219                0.40386161                0.32635801                0.19618421               -0.63570301                0.31762040                1.34600449                0.58299178
               8.65343251                0.80953845               17.82837744                1.00000000                0.35182387                0.28462348               -0.90511264                0.13807552                0.68847649                0.58326977
               9.65677593                0.74934427               17.76580629                1.00000000                0.36780052                0.36172228               -1.18593228                0.00021556                0.09894235                0.08447768
              10.66078852                0.68901779               17.70199019                1.00000000                0.40125889                0.43441372               -1.46853938               -0.02474968                0.03212407               -0.68531803
               0.74168354                2.31783960               18.23736634                1.00000000               -0.30629202               -0.33397863                1.13803422               -0.02335334                0.03361620                1.29054504
               1.73862062                2.24198115               18.16642099                1.00000000               -0.26462402               -0.25252226                0.85272127                0.00255151                0.15233591                0.04740957
               2.73639106                2.16590077               18.09781954                0.50171950               -0.17630082               -0.18239011                0.56656901                0.05904587                0.73470318               -1.21906513
               3.73509460                2.09019670               18.03853452                0.00010000               -1.52311911               -0.17467663                0.28394346                0.98821485                4.22835731               -1.75768199
               4.70592868                2.03076090               18.04002690                0.00010000               -1.58043139                0.19375572                0.18182924                1.89284619                4.58408196               -1.18872951
               5.70348598                1.97583432               17.98869564                0.00010000               -0.07348855               -0.04224163               -0.09756627                1.62873819                1.57534181               -0.46602009
               6.70445891                1.92080601               17.92985403                0.00010000                0.34984606               -0.15523371               -0.36325413                1.42239907                2.88004091                0.17963869
               7.71048290                1.86895504               17.90478479                0.00010000                0.47105520               -0.10642964               -0.59642963                0.99052958                3.28134853                0.64485113
               8.71388001                1.81218622               17.85516598                0.46029098                0.31369266                0.27665593               -0.80819022                0.24349697                1.39461071                1.12852023
               9.71675675                1.75283689               17.79250050                1.00000000                0.33143629                0.34899606               -1.08372234                0.04179355                0.50529872                0.49627286
              10.72050874                1.69315722               17.72510571                1.00000000                0.37519864                0.39825215               -1.38366291               -0.01178498                0.26627651               -0.69405632
               0.81697940                3.31464068               18.21809984                1.00000000               -0.26216268               -0.31007824                1.02732779               -0.01589947                0.04285518                1.27551191
               1.81435777                3.23960817               18.14068204                1.00000000               -0.21483570               -0.22205880                0.72655878                0.00741349                0.05213580               -0.03212445
               2.81268268                3.16417275               18.06341361                0.25807735               -0.10095795               -0.14221082                0.42980154                0.01615308                0.96360217               -1.45275048
               3.81233861                3.08840256               18.00421113                0.00010000               -0.59267348               -0.11431380                0.13663304                1.05510217                4.25345781               -2.23176129
               4.80082921                3.03270502               17.99319270                0.00010000               -1.17729229                0.11898620                0.01820117                2.72632600                6.18552133               -2.84427017
               5.78879277                2.97347024               17.97336298                0.00010000               -0.92983072               -0.02533783               -0.13283129                2.29598805                5.39388973               -1.22590098
               6.78223260                2.91803891               17.94716476                0.00010000               -0.53114655               -0.10010918               -0.30310903                2.00200112                4.97882856                0.59261607
               7.77816983                2.86490091               17.91971658                0.00010000               -0.39059992               -0.16717222               -0.47933786                1.49668535                4.73958745                0.65418285
               8.77442060                2.81507157               17.88936628                0.16026919               -0.07645147                0.26384674               -0.67827977                0.59386258                2.90271532                2.08862133
               9.77664081                2.75632420               17.82596608                1.00000000                0.27457809                0.31728458               -0.94695720                0.05119866                0.62898359                0.78977186
              10.77991216                2.69698283               17.75011154                1.00000000                0.32713574                0.37542051               -1.28548993               -0.02153550                0.00669611               -0.50279862
               0.89143056                4.31163804               18.19818585                1.00000000               -0.21937444               -0.28627050                0.90802238               -0.01980916                0.04541045                1.18857245
               1.88923681                4.23753997               18.11420939                0.99278623               -0.17554122               -0.18504057                0.59563493                0.00234637                0.05055574               -0.09600106
               2.88791973                4.16305655               18.03029291                0.10652662               -0.07862159               -0.08350988                0.29212084               -0.00976066                1.12858935               -1.30474404
               3.88766438                4.08791042               17.96787159                0.00010000               -0.62661075                0.15716577               -0.06527027                0.80679016                5.47562605               -1.48247264
               4.87538752                4.03314063               17.97119833                0.00010000               -1.17962638                0.12746413               -0.12072927                1.62181856                8.25584329               -1.16213298
               5.86407185                3.97532756               17.96538773                0.00010000               -1.11596287                0.22368892               -0.17216826                1.48288204                7.53962602               -0.58918465
               6.85306826                3.91880383               17.95551549                0.00010000               -1.03439564                0.17640860               -0.25664933                1.36649553                7.21296195                0.24963114
               7.84338394                3.86561160               17.94430914                0.00010000               -0.93671397                0.14996055               -0.36518356                1.31389303                7.20642160                1.18451695
               8.83433398                3.81746316               17.93542930                0.13559299               -0.37572378                0.18901166               -0.48890072                0.60676261                3.87664952                2.39767289
               9.83586947                3.75918258               17.85862524                1.00000000                0.22133894                0.25461932               -0.79974610                0.03022802                0.24447761                0.71869958
              10.83876076                3.70066563               17.77698434                1.00000000                0.28912952                0.35447181               -1.16037635               -0.01950516                0.00533692               -0.39887385
               0.96477934                5.30891527               18.17711745                1.00000000               -0.17931580               -0.25183355                0.78028180               -0.02400018                0.10810773                1.06821844
               1.96298618                5.23590736               18.08717074                0.76010332               -0.13311596               -0.13961362                0.44824001               -0.00284693                0.19306684               -0.24192867
               2.96211702                5.16250256               17.99888058                0.03061377               -0.22979222               -0.02848957                0.12725662                0.14525562                2.18172578               -1.42301516
               3.95839034                5.09154588               17.94869611                0.00010000               -0.81342868                0.44823523               -0.43108665                0.59436371                7.10032795               -0.04843026
               4.94584845                5.03525430               17.95838440                0.00010000               -1.28015676                0.29452621               -0.23779595                1.24006161                9.75082289               -0.45385243
               5.93278720                4.97794402               17.96298543                0.00010000               -1.32849896                0.32884184               -0.19695965                1.05187432                9.34385317               -0.14484045
               6.91927847                4.92156708               17.96624423                0.00010000               -1.34994171                0.32860266               -0.20664830                0.97301114                9.21876455                0.44940719
               7.90578837                4.86790012               17.96997816                0.00010000               -1.31467983                0.25337165               -0.24597416                0.99977181                9.28699785                1.21308196
               8.89298487                4.81885180               17.97607839                0.14298716               -0.58727364                0.10313666               -0.29990776                0.47239898                4.77004280                2.00517353
               9.89404290                4.76141658               17.89072774                0.86422615                0.17855477                0.20266369               -0.66123481                0.01238029                0.12762951                0.69199854
              10.89655597                4.70407227               17.80394282                1.00000000                0.25130712                0.32910461               -1.04630914               -0.01879700                0.05874594               -0.42260207
               1.03696636                6.30660137               18.15472303                1.00000000               -0.13737781               -0.20874053                0.64538992               -0.02487608                0.06972691                0.94491614
               2.03559258                6.23474770               18.05776235                0.60782147               -0.08900168               -0.09231389                0.29652942               -0.00347511                0.20319362               -0.42344013
               3.03518633                6.16248676               17.96342912                0.00010000               -0.43963379                0.02368400               -0.03964483                0.35538684                3.99693029               -1.75729118
               4.02679991                6.09687513               17.94232888                0.00010000               -1.06978611                0.50210144               -0.51466823                0.70671167                9.13702224                0.10867454
               5.01379061                6.03903115               17.95065223                0.00010000               -1.40016711                0.45195280               -0.30406817                1.00266361               10.75205547               -0.14330153
               5.99879657                5.98190440               17.96387117                0.00010000               -1.56091126                0.47682442               -0.19849065                0.83876981               10.96272108                0.09196842
               6.98257238                5.92537588               17.97856039                0.00010000               -1.63509574                0.44116101               -0.14810145                0.67787850               11.02998650                0.55852307
               7.96609465                5.87067903               17.99516374                0.00010000               -1.61534390                0.29575464               -0.12740773                0.64948437               11.16845267                1.16507589
               8.95026550                5.81952589               18.01444282                0.15942200               -0.75990217                0.03783767               -0.12481655                0.28361442                5.68015218                1.83951739
               9.95089661                5.76323585               17.92282765                0.75626801                0.14039748                0.16384998               -0.53403090                0.00210936                0.08851522                0.65177815
              10.95307345                5.70724772               17.83021469                1.00000000                0.21768448                0.30514375               -0.95505671               -0.01773094                0.04310645               -0.49273002
               1.10798915                7.30474046               18.13109575                0.98318512               -0.09578628               -0.16334851                0.50846979               -0.02427217                0.03115349                0.85742046
               2.10703129                7.23406108               18.02707548                0.52387557               -0.04459079               -0.04542794                0.14638194               -0.00300474                0.14908655               -0.50919427
               3.10709733                7.16297624               17.92537633                0.00010000               -0.55255529                0.07354714               -0.20931307                0.50845696                5.41579010               -1.95346300
               4.09598018                7.10158791               17.92668456                0.00010000               -1.31124408                0.47850695               -0.45808015                0.95499086               11.31853509               -0.57767714
               5.08087245                7.04429336               17.94381147                0.00010000               -1.63811564                0.60898947               -0.30598408                0.95107304               12.25066827               -0.14504937
               6.06321787                6.98748051               17.96585583                0.00010000               -1.84055248                0.65902971               -0.17764233                0.68241897               12.54184582                0.15931335
               7.04406140                6.93039030               17.99119885                0.00010000               -1.92949083                0.58500410               -0.08354128                0.39279090               12.74878462                0.55920329
               8.02462805                6.87381522               18.01974933                0.00010000               -1.89805314                0.35075687               -0.01223331                0.23756430               12.97850241                1.08614599
               9.00610034                6.81960856               18.05182366                0.18164596               -0.91323978               -0.01944332                0.04177752                0.04933315                6.57147810                1.74548887
              10.00636326                6.76469358               17.95402681                0.70268107                0.10386406                0.12358601               -0.40152904               -0.00181533                0.05372705                0.57555298
              11.00817762                6.71017514               17.85564084                0.98860322                0.18143651                0.27640281               -0.84897903               -0.01700634                0.03030447               -0.56204353
               1.17783966                8.30333440               18.10685527                0.96948169               -0.05429535               -0.11891397                0.37230495               -0.02355495                0.01310337                0.82357596
               2.17729671                8.23383914               17.99593928                0.49888071               -0.00055087                0.00088564               -0.00194069               -0.00172432                0.06665835               -0.53956152
               3.17782865                8.16395770               17.88606292                0.00010000               -0.63570531                0.12183332               -0.37703229                0.64279294                6.61164254               -1.93714184
               4.16458260                8.10644527               17.90605586                0.00010000               -1.54545904                0.55934938               -0.44336225                1.12873761               13.50033802               -0.72167804
               5.14691946                8.05121094               17.93546917                0.00010000               -1.91172974                0.79959600               -0.28745528                0.89505374               13.97805111               -0.19509227
               6.12634801                7.99508499               17.96745624                0.00010000               -2.14129854                0.84840065               -0.14712825                0.52289926               14.15162390                0.13372230
               7.10409349                7.93707597               18.00301631                0.00010000               -2.23601646                0.78806007               -0.02039431                0.11521192               14.42086491                0.45765007
               8.08162768                7.87769417               18.04307244                0.00010000               -2.18598455                0.47798505                0.09542750               -0.26391090               14.78060722                0.89952320
               9.06037380                7.81913702               18.08827981                0.20938161               -1.06669807               -0.06990689                0.20237167               -0.25681374                7.48549047                1.59123204
              10.06029372                7.76570757               17.98448726                0.69758986                0.06982029                0.07848684               -0.26826300               -0.00809550                0.02582164                0.53295155
              11.06177021                7.71277577               17.88035452                0.97685104                0.14764907                0.24204460               -0.74265869               -0.01599173                0.01646971               -0.61295687
               1.24650856                9.30236218               18.08246747                0.96007405               -0.01350646               -0.07722466                0.23840731               -0.02289777               -0.00330875                0.69475749
               2.24637349                9.23407880               17.96463790                0.51600262                0.04192561                0.04647684               -0.14814083               -0.00035455                0.07804794               -0.47424060
               3.24734707                9.16541290               17.84841075                0.00010000               -0.75358989                0.16624210               -0.53395822                0.82505281                7.88997847               -1.36113812
               4.23130169                9.11277490               17.88684462                0.00010000               -1.86066332                0.87086892               -0.44302113                0.99794071               15.58415397               -0.41840821
               5.21013380                9.06028528               17.92676617                0.00010000               -2.17454330                0.95519384               -0.28292279                0.63872040               15.58325616               -0.12613898
               6.18781083                9.00444852               17.96801737                0.00010000               -2.31886711                0.97142791               -0.12469857                0.31147112               15.68767612                0.07624780
               7.16375646                8.94615150               18.01285180                0.00010000               -2.52610264                0.94562658                0.03126583               -0.05670599               16.01195169                0.26461547
               8.13728878                8.88337492               18.06346964                0.00010000               -2.54029002                0.82747650                0.18727527               -0.56957457               16.57283427                0.52134924
               9.11295066                8.81821042               18.12249637                0.24004967               -1.23630906               -0.09823736                0.34782398               -0.65985685                8.53052988                1.06702221
              10.11256259                8.76626332               18.01470698                0.73702070                0.03853627                0.03642810               -0.13931889               -0.01790022                0.08124838                0.44926773
              11.11372139                8.71501603               17.90456320                0.94840689                0.11587908                0.20597184               -0.64075929               -0.01601435               -0.02697112               -0.53427648
               1.31394847               10.30178990               18.05558455                0.97901168                0.02904252               -0.05722734                0.10492795                0.04186860                0.37963202                0.57263191
               2.31423889               10.23476868               17.93480682                0.79396373                0.08425685                0.06898826               -0.28837626                0.06117206                0.71356655               -0.40107673
               3.31563360               10.16728255               17.82069104                0.47132986               -1.22849254                0.18696427               -0.66858229                1.28335165                9.28962975               -0.86786492
               4.28966904               10.12386264               17.87147370                0.30971053               -2.38066798                1.10877492               -0.47704049                0.98834825               17.17678592               -0.16213819
               5.26802024               10.07031482               17.91868336                0.30208029               -2.14789145                1.00295390               -0.30554742                0.32118929               16.93166285               -0.03653159
               6.24671121               10.01451355               17.96732141                0.32171051               -2.19936320                1.00650241               -0.12111851                0.17372226               17.06028511                0.07510627
               7.22403298                9.95598850               18.01969033                0.36632903               -2.42669717                0.98369992                0.06382274                0.01415951               17.43398894                0.17884351
               8.19817727                9.89424370               18.07849383                0.46406799               -2.98723571                1.08687818                0.25214584               -0.85196184               18.15482887                0.32819923
               9.16428827                9.81717228               18.14832247                0.63588387               -1.75235843               -0.10381419                0.44822738               -1.25661764                9.76650902                0.65975316
              10.16313010                9.76643614               18.04333214                0.89933558               -0.01718862                0.01728179               -0.02460823                0.04289723                0.64804616                0.38006899
              11.16394449                9.71689521               17.93064164                0.97103173                0.08143936                0.18791790               -0.53870554                0.06821829                0.27455928               -0.42971628
               0.64844847                0.35820515               19.29536891                1.00000000               -0.35464463               -0.38806825                1.35707888               -0.06998006               -0.72570558                0.76399536
               1.64490203                0.27414400               19.22743732                1.00000000               -0.29266153               -0.31094800                1.08938394               -0.05460631               -0.91562989                0.05085141
               2.64259524                0.18995965               19.15565451                1.00000000               -0.15771109               -0.23426237                0.80535823               -0.03531981               -0.85818767               -0.21125651
               3.64174780                0.10697044               19.08885955                0.62767366                0.31022965               -0.17738860                0.52994263                0.47576539                0.11377127               -0.57588112
               4.64879983                0.03598568               19.03652273                0.68489157                0.45761827               -0.06605942                0.23914201               -0.07022333                0.63575762                0.13542817
               5.65090017               -0.02614080               18.98027022                0.74980884                0.14487546                0.02400956               -0.06354263                0.00097213                0.24630202                0.07695478
               6.65169734               -0.08676715               18.92019996                0.73434493                0.05617818                0.10506603               -0.35945467                0.00880235                0.05890517               -0.05038442
               7.65202373               -0.14826594               18.86015175                0.85518172                0.06459977                0.19820045               -0.66543985                0.03793416               -0.16861993                0.05670509
               8.65298934               -0.21298801               18.79536633                1.00000000                0.18687908                0.29978564               -0.96770386                0.02457988               -0.53291600                0.42215940
               9.65576131               -0.27992693               18.72791414                1.00000000                0.34158824                0.36930135               -1.26284687               -0.04566143               -0.62701994                0.01121853
              10.65982110               -0.34710994               18.66129586                1.00000000                0.40597893                0.44950789               -1.54250444               -0.06699222               -0.59113602               -0.60942245
               0.73180982                1.35432447               19.26931639                1.00000000               -0.33311063               -0.36662499                1.23464962               -0.03105220               -0.09452367                1.03873205
               1.72847871                1.27103452               19.20096705                1.00000000               -0.29904975               -0.28846801                0.96667747               -0.01224180               -0.05856873                0.07470719
               2.72582883                1.18761702               19.13327239                0.85210933               -0.24931351               -0.21321056                0.69969922                0.03396955                0.17443296               -0.58174865
               3.72349244                1.10519655               19.06956465                0.14617254               -0.55878020               -0.16450489                0.44535555                0.67733654                1.63668698               -1.01589212
               4.71465322                1.03532508               19.03115985                0.26261132               -0.56030698                0.05913914                0.19422360               -0.08182831                2.31900658                0.93724510
               5.71228630                0.97409929               18.98113756                0.32931315               -0.09026418                0.08784569               -0.08586869                0.19782905                1.50899576                0.36220315
               6.71284794                0.91428351               18.92655380                0.22930418                0.16136005                0.04285032               -0.36385338                0.23509669                1.38349839               -0.38536424
               7.71551351                0.85371606               18.87416602                0.41415680                0.31088457                0.19410129               -0.63016585                0.29544423                1.35659080                0.58687903
               8.71906563                0.79000984               18.81937119                1.00000000                0.34260782                0.28135343               -0.89656025                0.12926212                0.69398839                0.60318706
               9.72236566                0.72376609               18.75400859                1.00000000                0.36342808                0.35757444               -1.17401548                0.00057782                0.09833652                0.08555679
              10.72633419                0.65738514               18.68738480                1.00000000                0.39685291                0.43104942               -1.45298219               -0.02277181                0.03105460               -0.72279430
               0.81440732                2.35087265               19.24869326                1.00000000               -0.30426871               -0.33126601                1.12693882               -0.02276062                0.03748933                1.32491687
               1.81136463                2.26837464               19.17492518                1.00000000               -0.26473593               -0.25068536                0.84718002                0.00447933                0.15592897                0.04944428
               2.80911260                2.18569544               19.10344673                0.50619548               -0.18890783               -0.18314919                0.56715002                0.07725931                0.74264898               -1.24972589
               3.80758648                2.10368034               19.04138898                0.00010000               -1.54260376               -0.14350149                0.30831846                0.95485399                4.32916800               -1.83973976
               4.77826053                2.03716846               19.04177521                0.00010000               -1.58440769                0.18159298                0.16084395                1.84129734                4.70579125               -1.21900813
               5.77589832                1.97561611               18.98767469                0.00010000               -0.07390085               -0.05341123               -0.10688533                1.59873387                1.61622494               -0.46420970
               6.77678251                1.91408986               18.92621543                0.00010000                0.31539798               -0.15752457               -0.36556388                1.38169406                2.94179574                0.20634016
               7.78220628                1.85561608               18.89881576                0.00010000                0.43710226               -0.10986452               -0.59825475                0.95814546                3.36989987                0.68892040
               8.78552456                1.79263906               18.84708994                0.47014605                0.30956443                0.27386854               -0.80778338                0.22805116                1.46155313                1.17440317
               9.78839757                1.72722456               18.78168691                1.00000000                0.33014999                0.34434337               -1.07966352                0.03810867                0.52883384                0.51716612
              10.79212756                1.66151105               18.71131169                1.00000000                0.37299835                0.39914887               -1.37580472               -0.01113862                0.27825134               -0.73105786
               0.89635063                3.34769915               19.22832413                1.00000000               -0.26051114               -0.30740689                1.01686095               -0.01514490                0.04722733                1.30234925
               1.89374551                3.26602081               19.14792260                1.00000000               -0.21411565               -0.22043295                0.72185620                0.00894939                0.05887621               -0.03594159
               2.89206831                3.18395404               19.06770578                0.26962234               -0.13145065               -0.14340211                0.42810278                0.05837842                0.97179439               -1.48044791
               3.89111650                3.10232652               19.00557499                0.00010000               -0.62624581               -0.09989004                0.14158101                1.04036594                4.32579679               -2.29693544
               4.87954340                3.03895694               18.99336600                0.00010000               -1.18884582                0.10278578                0.00948394                2.66013952                6.35222535               -2.93211282
               5.86733959                2.97303107               18.97200939                0.00010000               -0.95307743               -0.04188539               -0.13923282                2.26265403                5.55344717               -1.22738787
               6.86048185                2.91113302               18.94411870                0.00010000               -0.56061859               -0.11621461               -0.30683867                1.95859523                5.13225262                0.64746205
               7.85612721                2.85151877               18.91490946                0.00010000               -0.42318381               -0.17248229               -0.48313171                1.47073507                4.88184102                0.73951733
               8.85201817                2.79548721               18.88255299                0.16149080               -0.09356877                0.25491679               -0.68529853                0.56797554                3.00596122                2.18103113
               9.85425584                2.73065295               18.81648223                1.00000000                0.27601324                0.31319847               -0.95118561                0.04199433                0.66463454                0.83124273
              10.85753844                2.66536812               18.73725855                1.00000000                0.32825987                0.38067752               -1.28632457               -0.01974243                0.00859800               -0.51931652
               0.97746109                4.34472451               19.20721491                1.00000000               -0.21723608               -0.28315820                0.89741869               -0.01919269                0.05367708                1.20578043
               1.97528873                4.26396598               19.12014722                0.97919601               -0.17433134               -0.18384666                0.59152952                0.00350147                0.06362696               -0.10981987
               2.97397446                4.18282739               19.03323370                0.11482552               -0.09489171               -0.08471615                0.29526888                0.02475824                1.12509280               -1.34607232
               3.97339090                4.10168254               18.96739065                0.00010000               -0.66078461                0.10738589               -0.02789357                0.82581613                5.57159526               -1.63935690
               4.96075877                4.03922417               18.97001519                0.00010000               -1.22077836                0.11703658               -0.11952067                1.57457660                8.51610088               -1.23164251
               5.94897533                3.97477840               18.96365332                0.00010000               -1.16460291                0.21853160               -0.17492881                1.46394819                7.80424764               -0.58692005
               6.93746671                3.91176556               18.95293280                0.00010000               -1.08542702                0.17015415               -0.26076909                1.33586663                7.46056512                0.30125678
               7.92726679                3.85216644               18.94062834                0.00010000               -0.98584154                0.14610049               -0.37199334                1.27430356                7.44212550                1.27120901
               8.91774988                3.79773739               18.93048197                0.13377419               -0.39551179                0.17855215               -0.50207373                0.57794826                4.01965626                2.51940912
               9.91935655                3.73348853               18.85055888                1.00000000                0.22762457                0.25559569               -0.81909628                0.02357423                0.27427226                0.76584986
              10.92230237                3.66912460               18.76535044                1.00000000                0.29458216                0.36297693               -1.17417884               -0.01783125                0.01600069               -0.40575768
               1.05748383                5.34203598               19.18486614                1.00000000               -0.17711703               -0.24798481                0.76912228               -0.02370272                0.11128451                1.07732090
               2.05571266                5.26234388               19.09163010                0.75099335               -0.13184559               -0.13852845                0.44367886               -0.00230412                0.20204718               -0.26570587
               3.05484692                5.18225972               19.00016210                0.03901635               -0.22383092               -0.03013167                0.12944887                0.13870307                2.09082208               -1.47896610
               4.05123604                5.10447424               18.94469537                0.00010000               -0.84539283                0.38819464               -0.37560827                0.60216171                7.25655857               -0.18917652
               5.03793906                5.04129767               18.95599596                0.00010000               -1.35794419                0.29801158               -0.23710973                1.22814807               10.19875504               -0.48664299
               6.02407716                4.97740170               18.96100307                0.00010000               -1.40639581                0.33750774               -0.19947095                1.03173310                9.71380420               -0.12646743
               7.00981115                4.91453610               18.96415506                0.00010000               -1.42178523                0.33519891               -0.21186181                0.93812458                9.55965074                0.50539678
               7.99564146                4.85444078               18.96747641                0.00010000               -1.37780533                0.25535431               -0.25557931                0.95622250                9.61659380                1.30138974
               8.98225504                4.79905826               18.97300235                0.14068849               -0.61506721                0.09885178               -0.31668649                0.44528791                4.95181029                2.12157449
               9.98334011                4.73576487               18.88406806                0.84717270                0.18273134                0.20804482               -0.67849085                0.01064254                0.14733653                0.73397629
              10.98590967                4.67262766               18.79341611                1.00000000                0.25695570                0.33792114               -1.06747872               -0.01750320                0.06809053               -0.44117889
               1.13637124                6.33976482               19.16112105                1.00000000               -0.13523275               -0.20433847                0.63404977               -0.02458319                0.07008253                0.94909946
               2.13501891                6.26119541               19.06070577                0.60160244               -0.08765375               -0.09127890                0.29208548               -0.00301646                0.20993392               -0.44743190
               3.13461817                6.18222476               18.96304354                0.00264894               -0.43113699                0.02164883               -0.03748958                0.33321016                3.92875011               -1.81307718
               4.12639617                6.10944643               18.93699795                0.00010000               -1.11119471                0.49498885               -0.54334680                0.67897660                9.36167244                0.16113103
               5.11239427                6.04518441               18.94757544                0.00010000               -1.50123058                0.47104631               -0.30972534                0.99466779               11.28465796               -0.12003588
               6.09637156                5.98152856               18.96185731                0.00010000               -1.66020736                0.50020306               -0.20381145                0.80830549               11.41831192                0.13041617
               7.07919012                5.91846954               18.97704667                0.00010000               -1.72512408                0.45940072               -0.15530760                0.63116576               11.45487242                0.61898862
               8.06186908                5.85727352               18.99383466                0.00010000               -1.69292862                0.30496370               -0.13963120                0.59334208               11.58226486                1.24959362
               9.04533155                5.79971443               19.01310616                0.15722038               -0.79345399                0.03762256               -0.14462388                0.25157694                5.89433218                1.94511652
              10.04600000                5.73764943               18.91739888                0.74096857                0.14475872                0.16966158               -0.55313858                0.00302549                0.09479791                0.69009864
              11.04822673                5.67588303               18.82058121                1.00000000                0.22267259                0.31310784               -0.97286022               -0.01651455                0.04485923               -0.51181341
               1.21413098                7.33794921               19.13612705                0.98221604               -0.09385866               -0.15903300                0.49759377               -0.02386903                0.03102002                0.86081125
               2.21319239                7.26051830               19.02852317                0.51937660               -0.04354351               -0.04464240                0.14297785               -0.00230638                0.15219371               -0.53051765
               3.21326011                7.18269269               18.92330285                0.00010000               -0.56682289                0.07103763               -0.20569130                0.49974272                5.46045453               -2.00731610
               4.20185593                7.11437402               18.92186259                0.00010000               -1.37549058                0.50584924               -0.50284696                0.92417997               11.64191619               -0.45387946
               5.18575029                7.05071860               18.94066210                0.00010000               -1.74488983                0.64296117               -0.32183349                0.93400841               12.78715773               -0.08104950
               6.16695813                6.98740576               18.96403682                0.00010000               -1.95303973                0.69568144               -0.18595894                0.64244480               13.05465126                0.21071746
               7.14668950                6.92372412               18.99031887                0.00010000               -2.03473620                0.61517921               -0.09319996                0.33235090               13.24496386                0.61830698
               8.12626341                6.86054005               19.01955745                0.00010000               -1.98894124                0.36794380               -0.02747323                0.16560434               13.46882870                1.16251536
               9.10691067                6.79981071               19.05212851                0.17962676               -0.95156940               -0.01679914                0.01777326                0.00883902                6.82146985                1.84289124
              10.10723202                6.73915810               18.94990218                0.68902725                0.11007534                0.12911473               -0.42428471               -0.00158236                0.05653957                0.61692795
              11.10911218                6.67888982               18.84704202                0.98885935                0.18801588                0.28522475               -0.87120511               -0.01590464                0.03177157               -0.57406914
               1.29075568                8.33658416               19.11052971                0.96897150               -0.05263762               -0.11518717                0.36232385               -0.02313524                0.01275029                0.82846220
               2.29022931                8.26030257               18.99591176                0.49558064                0.00008121                0.00133335               -0.00394329               -0.00104782                0.06606954               -0.55826163
               3.29075731                8.18364551               18.88232502                0.00010000               -0.66877192                0.11883582               -0.37124222                0.65371009                6.75403216               -1.98285958
               4.27685387                8.11956342               18.90147336                0.00010000               -1.63573057                0.59542821               -0.47186439                1.12709938               13.92897274               -0.62117187
               5.25804270                8.05804363               18.93251756                0.00010000               -2.03194629                0.84630926               -0.30210577                0.88253487               14.53515973               -0.12863892
               6.23621494                7.99544219               18.96593556                0.00010000               -2.26699226                0.89704240               -0.15715803                0.48281578               14.70728634                0.18123486
               7.21270285                7.93077313               19.00275717                0.00010000               -2.35601844                0.83268066               -0.03235911                0.04915966               14.97936371                0.50541896
               8.18909457                7.86463240               19.04394045                0.00010000               -2.29062815                0.50605154                0.07678314               -0.35198057               15.34477498                0.96100347
               9.16689029                7.79937845               19.09016442                0.20735061               -1.11026637               -0.06415409                0.17301206               -0.30854299                7.77467024                1.67787781
              10.16688925                7.74023172               18.98167096                0.68353772                0.07774568                0.08551577               -0.29586084               -0.00867673                0.02822815                0.57163204
              11.16844520                7.68158752               18.87279569                0.97770653                0.15559548                0.25207603               -0.76930644               -0.01475805                0.01735162               -0.62753118
               1.36623145                9.33564547               19.08480847                0.95990631               -0.01213774               -0.07417630                0.22943413               -0.02254490               -0.00435553                0.70112163
               2.36611008                9.26054497               18.96315724                0.51271929                0.04210014                0.04655229               -0.14857663                0.00006222                0.07771891               -0.48850697
               3.36707346                9.18506941               18.84311732                0.00010000               -0.80551363                0.16320211               -0.52569441                0.85828628                8.12170563               -1.38954392
               4.34999980                9.12628258               18.88236294                0.00010000               -1.97756175                0.92006011               -0.45321789                1.01612758               16.10732671               -0.34800747
               5.32752222                9.06764478               18.92388889                0.00010000               -2.30574245                1.00885906               -0.29265840                0.63569763               16.16667058               -0.08736489
               6.30388495                9.00534661               18.96672225                0.00010000               -2.45198698                1.02754368               -0.13494226                0.28531186               16.28822085                0.10359928
               7.27848248                8.94037773               19.01309983                0.00010000               -2.66332372                1.00255950                0.01724865               -0.10683924               16.62896790                0.29060872
               8.25061848                8.87066109               19.06524087                0.00010000               -2.66709956                0.88106863                0.16561269               -0.64942537               17.20905332                0.55717853
               9.22514049                8.79852763               19.12580715                0.23761223               -1.28845341               -0.08809201                0.31259770               -0.72550884                8.86436349                1.12399127
              10.22484941                8.74086842               19.01315171                0.71991267                0.04824667                0.04586589               -0.17272742               -0.01959369                0.08843254                0.47836921
              11.22610542                8.68393134               18.89799552                0.95096740                0.12560119                0.21668094               -0.67288259               -0.01473419               -0.02669424               -0.55166302
               1.44050579               10.33510063               19.05659642                0.97901797                0.03008255               -0.05448404                0.09692810                0.04073131                0.38321122                0.57945459
               2.44080661               10.26123361               18.93193160                0.79273036                0.08398179                0.06886409               -0.28745587                0.06009980                0.72403961               -0.41198742
               3.44218542               10.18690956               18.81405865                0.47078300               -1.31027829                0.18401453               -0.65900854                1.34774695                9.58796765               -0.88470600
               4.41460105               10.13796462               18.86669888                0.31023585               -2.52464012                1.16820381               -0.47848112                1.02568697               17.78163470               -0.12144419
               5.39169262               10.07822081               18.91559415                0.30229357               -2.27064051                1.05760263               -0.31286683                0.31846187               17.55893857               -0.02035616
               6.36918824               10.01599306               18.96606198                0.32154077               -2.32205146                1.06464510               -0.13164825                0.16050335               17.71437184                0.08537991
               7.34525159                9.95082432               19.02025432                0.36578985               -2.56160343                1.04465872                0.04780688               -0.01005366               18.10677841                0.18856950
               8.31795617                9.88225377               19.08089740                0.46507366               -3.15394049                1.15926857                0.22737786               -0.92661684               18.84793039                0.34368220
               9.28217278                9.79761661               19.15260647                0.63490979               -1.84312524               -0.09110223                0.40691881               -1.35200751               10.15152228                0.69501950
              10.28109366                9.74114904               19.04289147                0.88950239               -0.00740535                0.02806255               -0.06444434                0.03965179                0.68288506                0.40236479
              11.28202467                9.68592114               18.92506085                0.97182772                0.09310111                0.19898030               -0.57735896                0.06913488                0.28887658               -0.44737446
               0.71034529                0.39262274               20.30887608                1.00000000               -0.35297753               -0.38522047                1.34568337               -0.06834630               -0.74826416                0.78582323
               1.70681551                0.30174679               20.23828940                1.00000000               -0.29245811               -0.30818926                1.08172848               -0.05254390               -0.94871309                0.05296892
               2.70449612                0.21072183               20.16367062                1.00000000               -0.15862306               -0.23284620                0.80055257               -0.03485530               -0.89863840               -0.21204117
               3.70364305                0.12082520               20.09412490                0.62822766                0.30984889               -0.17763693                0.53059694                0.47500655                0.06973005               -0.58604059
               4.71069310                0.04294659               20.03889392                0.68669223                0.45590763               -0.06242515                0.23584295               -0.07394916                0.58673675                0.14210887
               5.71276120               -0.02610185               19.97963809                0.75230218                0.14427307                0.02565245               -0.06180232                0.00015794                0.19522335                0.08323643
               6.71357856               -0.09362599               19.91663824                0.73582701                0.06126977                0.10468202               -0.35255884                0.00876779                0.00565143               -0.05444073
               7.71398660               -0.16186307               19.85355635                0.85603419                0.07169979                0.19661488               -0.65366167                0.03438873               -0.22559238                0.06248915
               8.71501256               -0.23307278               19.78576952                1.00000000                0.18876244                0.29513575               -0.95187042                0.02076446               -0.58464711                0.43326575
               9.71776185               -0.30636207               19.71538371                1.00000000                0.33760230                0.36447130               -1.24352248               -0.04451132               -0.66720350                0.00980751
              10.72176461               -0.37989740               19.64598665                1.00000000                0.40027588                0.44434694               -1.51976781               -0.06427589               -0.62328037               -0.64020365
               0.80053777                1.38877054               20.28160460                1.00000000               -0.32972468               -0.36462695                1.22349062               -0.02935407               -0.09833279                1.06697581
               1.79724053                1.29866490               20.21059643                1.00000000               -0.29647027               -0.28661523                0.95971908               -0.01034717               -0.06075921                0.07888012
               2.79460837                1.20839337               20.14028241                0.85568586               -0.24798945               -0.21244849                0.69731538                0.03340254                0.17938367               -0.59625481
               3.79228074                1.11904883               20.07403661                0.15715635               -0.55956180               -0.17168182                0.43471198                0.68176999                1.65133581               -1.05043357
               4.78341713                1.04232233               20.03306848                0.27376249               -0.56158329                0.06140024                0.18502705               -0.09142281                2.32216328                0.94594984
               5.78104907                0.97415468               19.98026232                0.34232225               -0.09351405                0.08900664               -0.09029164                0.18537692                1.50395556                0.36830819
               6.78154685                0.90742083               19.92291849                0.24037446                0.15024026                0.04969557               -0.36359415                0.22617956                1.38699274               -0.38768542
               7.78405388                0.84010308               19.86788887                0.42402483                0.29614273                0.19265393               -0.62575141                0.27387703                1.36672888                0.59076778
               8.78746971                0.76987858               19.81044623                1.00000000                0.33375828                0.27826295               -0.88881732                0.12034615                0.69894938                0.62304683
               9.79072904                0.69728264               19.74232598                1.00000000                0.35937338                0.35343194               -1.16300246                0.00086651                0.09738297                0.08706023
              10.79465717                0.62454607               19.67293055                1.00000000                0.39281304                0.42798562               -1.43852299               -0.02067663                0.02976750               -0.75937638
               0.88996948                2.38533020               20.25990512                1.00000000               -0.29837467               -0.33022619                1.11537142               -0.02210990                0.04049684                1.35803637
               1.88698573                2.29601449               20.18336459                1.00000000               -0.25946178               -0.24987974                0.83968438                0.00278855                0.16295002                0.05249240
               2.88478025                2.20647286               20.10916254                0.50477872               -0.18181253               -0.18082715                0.57738913                0.06174393                0.77148290               -1.28388272
               3.88334948                2.11739156               20.04470089                0.00010000               -1.55107252               -0.12933208                0.33660899                0.93076630                4.42546112               -1.94319839
               4.85375880                2.04417459               20.04324378                0.00010000               -1.59896173                0.17502217                0.13288031                1.81544576                4.79725191               -1.25094037
               5.85137025                1.97567829               19.98655794                0.00010000               -0.08025226               -0.06054144               -0.11725606                1.56266291                1.66235377               -0.46094807
               6.85215375                1.90736792               19.92254276                0.00010000                0.28180680               -0.15750255               -0.36823325                1.33712300                3.00110239                0.23632411
               7.85700639                1.84199001               19.89281970                0.00010000                0.40430858               -0.11122000               -0.60250194                0.92215237                3.45578862                0.73506173
               8.86023992                1.77249248               19.83901032                0.48009929                0.30526491                0.27107938               -0.80865571                0.21069524                1.52746092                1.22026313
               9.86311168                1.70070657               19.77090723                1.00000000                0.32921460                0.33972189               -1.07697127                0.03343668                0.55203177                0.53849617
              10.86682421                1.62866231               19.69758961                1.00000000                0.37125300                0.40058387               -1.36945079               -0.01070972                0.28968879               -0.76739425
               0.97872701                3.38216601               20.23843706                1.00000000               -0.25733694               -0.30592842                1.00523582               -0.01637131                0.05227181                1.32842058
               1.97615364                3.29366730               20.15511916                1.00000000               -0.21304175               -0.21892045                0.71688062                0.00578225                0.06459514               -0.03900386
               2.97446617                3.20477683               20.07197567                0.27581296               -0.14796521               -0.13970349                0.42727704                0.05964001                0.98379805               -1.51175325
               3.97319433                3.11646219               20.00704275                0.00010000               -0.65134255               -0.06943246                0.15623167                1.00056287                4.47366679               -2.46703717
               4.96143932                3.04582278               19.99338238                0.00010000               -1.20426650                0.08516112                0.00451796                2.60848631                6.53578035               -3.00182432
               5.94910900                2.97294385               19.97057832                0.00010000               -0.97308684               -0.05414028               -0.14546295                2.21584713                5.71921035               -1.22231090
               6.94197759                2.90427077               19.94102798                0.00010000               -0.58683213               -0.12876550               -0.31162691                1.90428172                5.28363339                0.70672033
               7.93737236                2.83787868               19.91005395                0.00010000               -0.45052654               -0.17605942               -0.48854480                1.43501464                5.01866776                0.82919092
               8.93296705                2.77530017               19.87566031                0.16273729               -0.10722097                0.24547510               -0.69382018                0.53775193                3.10529024                2.27427691
               9.93522794                2.70407708               19.80694237                1.00000000                0.27822157                0.31035885               -0.95827021                0.03161705                0.69983090                0.86935601
              10.93853149                2.63255775               19.72438504                1.00000000                0.33035435                0.38652984               -1.28994677               -0.01826057                0.01013745               -0.54016324
               1.06663947                4.37921163               20.21613423                1.00000000               -0.21489078               -0.28052337                0.88609962               -0.02004996                0.06233363                1.22178796
               2.06449057                4.29163608               20.12603998                0.96698249               -0.17306549               -0.18163036                0.58638776                0.00223445                0.07753185               -0.12416109
               3.06317816                4.20367879               20.03619829                0.12338478               -0.10878881               -0.08317170                0.29650263                0.03844263                1.13813812               -1.38508608
               4.06231479                4.11600291               19.96731372                0.00010000               -0.68656526                0.08464325               -0.01484086                0.83461673                5.70621493               -1.87141547
               5.04944686                4.04587781               19.96880791                0.00010000               -1.25377971                0.10692095               -0.11586495                1.53345467                8.76467505               -1.28488616
               6.03723920                3.97459548               19.96188915                0.00010000               -1.20711538                0.21334188               -0.17699766                1.43549888                8.06814360               -0.57674444
               7.02530455                3.90479261               19.95030011                0.00010000               -1.12809543                0.16451855               -0.26595742                1.29469486                7.70319396                0.35795856
               8.01467729                3.83846882               19.93686927                0.00010000               -1.02539944                0.14214559               -0.38086349                1.22549841                7.67070818                1.36165746
               9.00479656                3.77740198               19.92538783                0.13191347               -0.40954223                0.16794691               -0.51946193                0.54536495                4.15492483                2.64457791
              10.00648644                3.70691375               19.84224331                0.98771095                0.23505510                0.25895153               -0.84244786                0.01694284                0.30057855                0.81340107
              11.00949766                3.63639291               19.75350077                1.00000000                0.30112221                0.37300819               -1.19391753               -0.01757338                0.02646642               -0.41746796
               1.15347712                5.37655554               20.19249989                1.00000000               -0.17459523               -0.24445950                0.75743790               -0.02413011                0.11461970                1.08509725
               2.15173117                5.29003470               20.09604432                0.74222126               -0.13044649               -0.13650427                0.43869077               -0.00319724                0.21122001               -0.28982715
               3.15086819                5.20311339               20.00146955                0.04692830               -0.20217611               -0.02971630                0.13154243                0.12056737                2.01993595               -1.53440308
               4.14768765                5.11815505               19.94118394                0.00010000               -0.86761728                0.34638049               -0.34558335                0.60172358                7.41015200               -0.39019554
               5.13351585                5.04796120               19.95364220                0.00010000               -1.43917294                0.30432421               -0.23184788                1.21165881               10.61511565               -0.51886840
               6.11890419                4.97721069               19.95899601                0.00010000               -1.47588536                0.34417459               -0.20138864                1.00261636               10.07556044               -0.10317280
               7.10399814                4.90756115               19.96200699                0.00010000               -1.48156167                0.33996195               -0.21821206                0.89494186                9.89299561                0.56592909
               8.08927295                4.84072159               19.96486657                0.00010000               -1.42843537                0.25605218               -0.26763264                0.90505681                9.93782687                1.39335715
               9.07542943                4.77865910               19.96974466                0.13839698               -0.63485424                0.09500397               -0.33785572                0.41629433                5.12792872                2.24131846
              10.07657587                4.70925611               19.87715792                0.83078691                0.18961267                0.21449821               -0.70406713                0.00949389                0.16294321                0.78431439
              11.07922169                4.64001791               19.78259325                1.00000000                0.26458151                0.34963121               -1.09416420               -0.01840438                0.07093138               -0.45338071
               1.23919857                6.37432244               20.16740403                1.00000000               -0.13297957               -0.20037640                0.62237263               -0.02463529                0.07010910                0.95257099
               2.23786877                6.28890599               20.06360406                0.59555117               -0.08647062               -0.08949750                0.28744197               -0.00348917                0.21619294               -0.47127766
               3.23746916                6.20308447               19.96267933                0.00950651               -0.41836586                0.02175228               -0.03551123                0.30616673                3.84536866               -1.86770959
               4.22950146                6.12293052               19.93146194                0.00010000               -1.14223788                0.49399285               -0.55992886                0.63257206                9.57269263                0.16611324
               5.21462440                6.05196430               19.94445772                0.00010000               -1.59049413                0.48845248               -0.31276928                0.97369943               11.81537969               -0.10382940
               6.19769157                5.98147897               19.95979494                0.00010000               -1.74659594                0.52029653               -0.20824816                0.76887403               11.86506134                0.17065902
               7.17969248                5.91159185               19.97545424                0.00010000               -1.80055549                0.47423942               -0.16380502                0.57764000               11.87075594                0.68277902
               8.16168046                5.84358987               19.99237112                0.00010000               -1.75522744                0.31190700               -0.15450561                0.53161237               11.98631355                1.33725516
               9.14458793                5.77930206               20.01155034                0.15506235               -0.81814760                0.03745063               -0.16853593                0.21847104                6.10447901                2.05299000
              10.14531751                5.71120371               19.91176487                0.72609437                0.15090203                0.17519755               -0.57579722                0.00440692                0.10228776                0.73348852
              11.14760597                5.64338554               19.81075749                1.00000000                0.22884604                0.32306824               -0.99357576               -0.01623329                0.04764719               -0.52337789
               1.32381732                7.37254802               20.14104762                0.98122386               -0.09179562               -0.15501101                0.48634264               -0.02372647                0.03078171                0.86396262
               2.32289936                7.28824475               20.02993503                0.51502886               -0.04251611               -0.04330783                0.13916243               -0.00227774                0.15493011               -0.55121317
               3.32296700                7.20354844               19.92126250                0.00010000               -0.57200537                0.07007890               -0.20267911                0.48343465                5.47875291               -2.05918813
               4.31145926                7.12803491               19.91662762                0.00010000               -1.42628069                0.52954821               -0.53809535                0.88249314               11.94592550               -0.33111691
               5.29444138                7.05773025               19.93737480                0.00010000               -1.84025679                0.67235376               -0.33327767                0.90588849               13.33004216               -0.01973466
               6.27465412                6.98761662               19.96213665                0.00010000               -2.05006698                0.72726407               -0.19374573                0.59391191               13.56117343                0.26293312
               7.25344004                6.91704593               19.98933485                0.00010000               -2.12295668                0.64057692               -0.10434618                0.26632539               13.73135388                0.67959549
               8.23219499                6.84695973               20.01919987                0.00010000               -2.06275169                0.38204800               -0.04547841                0.08988260               13.94831956                1.24115240
               9.21218501                6.77940812               20.05217913                0.17768774               -0.98072262               -0.01430631               -0.00951491               -0.03254500                7.06685161                1.94153947
              10.21258053                6.71276006               19.94554112                0.67537092                0.11741778                0.13434877               -0.44919794               -0.00096707                0.05996216                0.65971380
              11.21453337                6.64647928               19.83821674                0.98913653                0.19528315                0.29430600               -0.89412647               -0.01498835                0.03304866               -0.58420421
               1.40733058                8.37122222               20.11410175                0.96844351               -0.05077841               -0.11150552                0.35180095               -0.02290981                0.01238988                0.83330442
               2.40682280                8.28803983               19.99586042                0.49252810                0.00085533                0.00220362               -0.00668587               -0.00082604                0.06530655               -0.57618853
               3.40734769                8.20448604               19.87863808                0.00010000               -0.69266437                0.11699758               -0.36665372                0.65450695                6.87613212               -2.02637615
               4.39296951                8.13352148               19.89661858                0.00010000               -1.70936144                0.62771586               -0.49544312                1.10713659               14.33810076               -0.50378499
               5.37316046                8.06541137               19.92942706                0.00010000               -2.13576931                0.88655764               -0.31431249                0.85846432               15.09116687               -0.05882131
               6.35025412                7.99602425               19.96431308                0.00010000               -2.37422943                0.93887367               -0.16719842                0.43510971               15.25548258                0.22978036
               7.32567587                7.92440338               20.00236913                0.00010000               -2.45690956                0.87102967               -0.04609874               -0.02081324               15.52708877                0.55458398
               8.30111593                7.85123083               20.04460810                0.00010000               -2.37695837                0.53009050                0.05527870               -0.44099575               15.89628099                1.02431249
               9.27813670                7.77901594               20.09174006                0.20541181               -1.14444615               -0.05799617                0.14032333               -0.35990335                8.05806924                1.76469029
              10.27822701                7.71389068               19.97857004                0.66940880                0.08655347                0.09250633               -0.32537178               -0.00909660                0.03116929                0.61097988
              11.27986777                7.64927166               19.86496839                0.97851917                0.16407631                0.26191690               -0.79626674               -0.01357689                0.01825401               -0.64050133
               1.48972390                9.37031791               20.08705615                0.95973063               -0.01048777               -0.07095606                0.21969334               -0.02232138               -0.00530420                0.70739866
               2.48961902                9.28828882               19.96166637                0.50981580                0.04257934                0.04701949               -0.15012340                0.00025670                0.07749993               -0.50206086
               3.49057549                9.20588839               19.83789687                0.00010000               -0.84711818                0.16098582               -0.51914128                0.87891962                8.34061063               -1.41625801
               4.47267666                9.14058922               19.87778026                0.00010000               -2.07337927                0.96201979               -0.46188772                1.01848698               16.61280223               -0.26494298
               5.44910790                9.07546140               19.92091300                0.00010000               -2.41561779                1.05429041               -0.30187823                0.62401615               16.74076600               -0.04527425
               6.42436430                9.00639409               19.96531853                0.00010000               -2.56453482                1.07587218               -0.14607210                0.25447394               16.87828678                0.13172907
               7.39781720                8.93446653               20.01319678                0.00010000               -2.78008911                1.05237638                0.00118582               -0.15876456               17.23376230                0.31724979
               8.36876252                8.85756154               20.06678190                0.00010000               -2.77450597                0.92867255                0.14129908               -0.72752702               17.83031076                0.59450588
               9.34232709                8.77824819               20.12874832                0.23527750               -1.33098192               -0.07709504                0.27374996               -0.78817103                9.19058448                1.18103370
              10.34214288                8.71461019               20.01125243                0.70270949                0.05863999                0.05566123               -0.20817034               -0.02120822                0.09613344                0.50763292
              11.34349989                8.65171762               19.89110555                0.95335343                0.13570032                0.22727035               -0.70511505               -0.01348227               -0.02615530               -0.56837432
               1.57094233               10.36980310               20.05752312                0.97902954                0.03151181               -0.05148046                0.08786276                0.03955538                0.38686580                0.58615212
               2.57125745               10.28898022               19.92905770                0.79174720                0.08416720                0.06914064               -0.28800882                0.05897559                0.73440500               -0.42233678
               3.57262567               10.20770576               19.80751087                0.47033658               -1.37456044                0.18173706               -0.65142506                1.39410159                9.87650275               -0.90053313
               4.54376624               10.15276188               19.86190408                0.31072750               -2.63948786                1.21726559               -0.48041510                1.04852922               18.36957319               -0.07326786
               5.51983592               10.08649718               19.91242603                0.30250442               -2.37138826                1.10357817               -0.32075416                0.31179244               18.17256091               -0.00260623
               6.49633847               10.01754170               19.96468845                0.32136564               -2.42513957                1.11476069               -0.14365395                0.14510378               18.35537019                0.09569957
               7.47133313                9.94545091               20.02064647                0.36522273               -2.67773743                1.09843846                0.02956262               -0.03527883               18.76519663                0.19815934
               8.44278373                9.86980428               20.08304139                0.46625669               -3.30042437                1.22427342                0.20033989               -0.99672328               19.52297712                0.35965121
               9.40532464                9.77747403               20.15646085                0.63400147               -1.92251513               -0.07741592                0.36211097               -1.44026314               10.52697988                0.73047185
              10.40433342                9.71500391               20.04204326                0.87963070                0.00293171                0.03937207               -0.10617142                0.03620558                0.71788391                0.42469156
              11.40538327                9.65381706               19.91909446                0.97262582                0.10498491                0.20994470               -0.61574713                0.06965414                0.30332401               -0.46486257
               0.77465655                0.42846458               21.32228257                1.00000000               -0.35233221               -0.38296267                1.33680727               -0.06722926               -0.76891088                0.80454284
               1.77113323                0.33058932               21.24907189                1.00000000               -0.29347864               -0.30523912                1.07499741               -0.05321645               -0.97776324                0.05593254
               2.76878697                0.23249525               21.17166556                1.00000000               -0.16070582               -0.22952407                0.79822102               -0.03922175               -0.92857554               -0.21005217
               3.76791911                0.13542620               21.09947149                0.62964675                0.31172038               -0.18143083                0.53557786                0.48057261                0.02893905               -0.60708637
               4.77502138                0.05047874               21.04123959                0.68870413                0.45706011               -0.05845243                0.23314183               -0.07259795                0.52844286                0.15287741
               5.77706031               -0.02572454               20.97903418                0.75450822                0.14353661                0.02701511               -0.05881901                0.00074993                0.14429112                0.08911991
               6.77789211               -0.10041645               20.91314879                0.73690674                0.06601486                0.10417411               -0.34523406                0.00907909               -0.04685314               -0.05819559
               7.77838061               -0.17568122               20.84707852                0.85653647                0.07884604                0.19492811               -0.64211635                0.03098949               -0.28166309                0.06853386
               8.77946904               -0.25367612               20.77632892                1.00000000                0.19097514                0.29061057               -0.93669534                0.01714198               -0.63592036                0.44462662
               9.78220011               -0.33361532               20.70304369                1.00000000                0.33402870                0.35990901               -1.22506422               -0.04339401               -0.70711058                0.00873007
              10.78614961               -0.41380179               20.63090050                1.00000000                0.39494979                0.43964504               -1.49825374               -0.06156661               -0.65505432               -0.67017819
               0.87185951                1.42463495               21.29378620                1.00000000               -0.32737829               -0.36318277                1.21390471               -0.02771377               -0.10232733                1.09222025
               1.86858572                1.32753693               21.22016143                1.00000000               -0.29415947               -0.28437831                0.95343314               -0.01009765               -0.06613541                0.08197149
               2.86597632                1.23020001               21.14721870                0.87648598               -0.24263157               -0.20853632                0.68714595                0.02469783                0.16904695               -0.59497719
               3.86373309                1.13361190               21.07825889                0.16831443               -0.55527705               -0.18079852                0.41050904                0.68947738                1.65299754               -1.05311688
               4.85487078                1.04989421               21.03486039                0.28486375               -0.56088435                0.06785057                0.17295650               -0.08695777                2.33128537                0.95315979
               5.85251541                0.97454561               20.97933172                0.35443782               -0.09547672                0.09028455               -0.09587993                0.17585961                1.50087657                0.37518797
               6.85296124                0.90062529               20.91928192                0.25182764                0.14024662                0.05616464               -0.36369064                0.21865703                1.39103998               -0.38710602
               7.85532034                0.82626807               20.86165099                0.43338140                0.28231336                0.19167282               -0.62207245                0.25392911                1.37671384                0.59382662
               8.85860751                0.74922998               20.80159484                1.00000000                0.32543348                0.27531829               -0.88182683                0.11164518                0.70367028                0.64299372
               9.86182901                0.66998377               20.73074854                1.00000000                0.35564528                0.34967130               -1.15305753                0.00117361                0.09617116                0.08906883
              10.86572041                0.59059466               20.65861434                1.00000000                0.38914072                0.42552322               -1.42549697               -0.01856290                0.02830446               -0.79487704
               0.96829830                2.42120092               21.27100069                1.00000000               -0.29320922               -0.32982500                1.10448897               -0.02129875                0.03982873                1.38930819
               1.96536621                2.32490176               21.19171887                1.00000000               -0.25461680               -0.24857924                0.83251246                0.00183449                0.17120947                0.05650477
               2.96320597                2.22832452               21.11499451                0.51819578               -0.16758787               -0.17583925                0.58118221                0.03764223                0.79309107               -1.30431085
               3.96201445                2.13181023               21.04812116                0.00010000               -1.54287271               -0.16194761                0.32329678                0.94806277                4.45388004               -1.96031759
               4.93234851                2.05183575               21.04443281                0.00010000               -1.60840137                0.17310570                0.10903292                1.80617841                4.86375045               -1.27077875
               5.92984643                1.97608115               20.98532957                0.00010000               -0.09028582               -0.06459852               -0.12866382                1.52169374                1.71463689               -0.45069475
               6.93054280                1.90070684               20.91885077                0.00010000                0.25040336               -0.15576062               -0.36964396                1.28943711                3.05677002                0.27157832
               7.93485449                1.82815224               20.88676572                0.00010000                0.37217199               -0.11075262               -0.60824215                0.88356567                3.53692108                0.78325467
               8.93798624                1.75183024               20.83091683                0.48998390                0.30022082                0.26826297               -0.81033017                0.19269573                1.59347087                1.26636183
               9.94085891                1.67337810               20.76014749                1.00000000                0.32851679                0.33601158               -1.07558238                0.02885692                0.57486575                0.55958317
              10.94455657                1.59470867               20.68392267                1.00000000                0.36976624                0.40295236               -1.36474840               -0.01017259                0.30074866               -0.80367670
               1.06403186                3.41803845               21.24842884                1.00000000               -0.25330461               -0.30517407                0.99372631               -0.01741274                0.05630309                1.35429379
               2.06149881                3.32256535               21.16226021                1.00000000               -0.21055853               -0.21720781                0.71107708                0.00269333                0.06775843               -0.03891297
               3.05982069                3.22668322               21.07625132                0.28626660               -0.11578431               -0.13463693                0.42839965                0.00325576                0.99938921               -1.54321571
               4.05918312                3.13037294               21.00869963                0.00010000               -0.65486280               -0.08485980                0.16464949                0.97821082                4.56809084               -2.55675838
               5.04672343                3.05335633               20.99345636                0.00010000               -1.25524681                0.07154406                0.01139238                2.60045119                6.69247548               -3.05369516
               6.03407819                2.97325364               20.96910013                0.00010000               -1.00222693               -0.06276581               -0.14892251                2.15766654                5.87269293               -1.20691236
               7.02667889                2.89751007               20.93788616                0.00010000               -0.61049707               -0.13805564               -0.31697999                1.84035233                5.42966662                0.77075808
               8.02186825                2.82405301               20.90513856                0.00010000               -0.47216648               -0.17826384               -0.49517476                1.39119515                5.14981635                0.92367610
               9.01723556                2.75459524               20.86867659                0.16391368               -0.11702636                0.23571747               -0.70344506                0.50695445                3.20022430                2.36677572
              10.01952772                2.67670400               20.79731682                1.00000000                0.28101337                0.30814455               -0.96712949                0.02273668                0.73387513                0.90507560
              11.02285583                2.59865370               20.71145961                1.00000000                0.33281097                0.39291842               -1.29535235               -0.01701865                0.01143742               -0.56349918
               1.15889625                4.41509744               21.22493690                1.00000000               -0.21209480               -0.27851595                0.87455451               -0.02120804                0.06983678                1.23792814
               2.15677530                4.32055760               21.13187498                0.95516244               -0.17163819               -0.17910417                0.58063612                0.00014683                0.09018523               -0.13743092
               3.15546349                4.22563179               21.03916375                0.13199329               -0.09348668               -0.07963033                0.29655369               -0.00796155                1.13994910               -1.42123562
               4.15490557                4.13011304               20.96709383                0.00010000               -0.69933222                0.10745831               -0.02518174                0.78590776                5.82523896               -2.05193555
               5.14147684                4.05326663               20.96769789                0.00010000               -1.30297807                0.09570853               -0.10667411                1.52093388                9.01028231               -1.33291862
               6.12884601                3.97482583               20.96011337                0.00010000               -1.24631872                0.20894080               -0.17761762                1.39122449                8.31845251               -0.56011492
               7.11655047                3.89794573               20.94761366                0.00010000               -1.16263895                0.15952374               -0.27172922                1.24413689                7.93702776                0.41972793
               8.10559323                3.82458696               20.93301107                0.00010000               -1.05380637                0.13765307               -0.39185434                1.16954709                7.88888594                1.45524376
               9.09547434                3.75654459               20.92009273                0.12993413               -0.41690229                0.15634354               -0.54043885                0.51203654                4.28220750                2.77043050
              10.09725518                3.67954099               20.83370992                0.97140433                0.24212246                0.26127963               -0.86328981                0.01225582                0.32567656                0.86026736
              11.10031679                3.60256704               20.74147209                1.00000000                0.30616068                0.38248110               -1.21026741               -0.01730474                0.03786933               -0.42991839
               1.25268737                5.41246813               21.20001490                1.00000000               -0.17199689               -0.24144666                0.74566083               -0.02463102                0.11731331                1.09245979
               2.25096740                5.31898326               21.10040391                0.73361155               -0.12906756               -0.13392265                0.43305979               -0.00426729                0.21995335               -0.31311656
               3.25010602                5.22509062               21.00279295                0.05443051               -0.18504825               -0.02770814                0.13262066                0.08715069                1.95015262               -1.58730571
               4.24726644                5.13252211               20.93778370                0.00010000               -0.88383529                0.36059889               -0.33317131                0.56729699                7.53966784               -0.57118176
               5.23242931                5.05527050               20.95135900                0.00010000               -1.50214281                0.30542939               -0.22666235                1.19011834               11.01385647               -0.55159205
               6.21722358                4.97743245               20.95697530                0.00010000               -1.53144080                0.34876333               -0.20260380                0.96301597               10.42387028               -0.07621570
               7.20180050                4.90070055               20.95979082                0.00010000               -1.52816291                0.34257680               -0.22566665                0.84261070               10.21556277                0.63022587
               8.18666032                4.82680608               20.96212376                0.00010000               -1.46391172                0.25491823               -0.28228373                0.84637919               10.24724946                1.48837555
               9.17252226                4.75772211               20.96624524                0.13603144               -0.64549657                0.08975856               -0.36361787                0.38382766                5.29640345                2.36472373
              10.17375039                4.68192959               20.86998672                0.81411407                0.19676914                0.21975053               -0.72944539                0.00823191                0.17636352                0.83913228
              11.17645765                4.60630333               20.77153282                1.00000000                0.27072552                0.36124718               -1.11618644               -0.01874366                0.07264138               -0.46080502
               1.34537336                6.41026851               21.17356850                1.00000000               -0.13058919               -0.19686922                0.61052921               -0.02471463                0.06987469                0.95580222
               2.34406747                6.31787915               21.06645461                0.58950768               -0.08528530               -0.08727917                0.28246198               -0.00410859                0.22195715               -0.49444313
               3.34366766                6.22507762               20.96233331                0.01580640               -0.39979192                0.02297837               -0.03392957                0.27412105                3.75088569               -1.92084353
               4.33607163                6.13732502               20.92579937                0.00010000               -1.16493950                0.50364666               -0.56516637                0.58466482                9.77104497                0.15531871
               5.32036887                6.05937522               20.94132005                0.00010000               -1.66976788                0.50420379               -0.31313402                0.94444421               12.33987179               -0.09193725
               6.30267627                5.98180110               20.95769235                0.00010000               -1.81699018                0.53569174               -0.21217526                0.72100114               12.30036821                0.21250196
               7.28402906                5.90479726               20.97377057                0.00010000               -1.85885123                0.48502908               -0.17368884                0.51685451               12.27489649                0.74921545
               8.26549925                5.82968533               20.99074455                0.00010000               -1.80008419                0.31600217               -0.17223795                0.46338532               12.37822542                1.42744373
               9.24802738                5.75833976               21.00973544                0.15288705               -0.83303196                0.03648349               -0.19624681                0.18174346                6.30832752                2.16363684
              10.24883861                5.68393600               20.90588293                0.71136233                0.15835353                0.18088105               -0.60163173                0.00477427                0.10913886                0.78206497
              11.25119445                5.60979198               20.80070970                1.00000000                0.23558389                0.33457497               -1.01584822               -0.01618857                0.04988217               -0.52920677
               1.43697179                7.40853075               21.14585391                0.98022738               -0.08956785               -0.15133955                0.47480278               -0.02366735                0.03039813                0.86711426
               2.43607611                7.31723768               21.03130642                0.51070799               -0.04146093               -0.04158464                0.13485763               -0.00244602                0.15722823               -0.57126608
               3.43614257                7.22555019               20.91924927                0.00010000               -0.57069873                0.07030025               -0.20032514                0.46057476                5.47705600               -2.10939041
               4.42466214                7.14259504               20.91110069                0.00010000               -1.46502294                0.55050314               -0.55908417                0.82798276               12.23184802               -0.20870199
               5.40684211                7.06535457               20.93399655                0.00010000               -1.92202909                0.69768961               -0.33957067                0.86769568               13.87318871                0.04039845
               6.38622156                6.98814629               20.96016190                0.00010000               -2.12943784                0.75274090               -0.20077512                0.53764028               14.05782325                0.31587517
               7.36425336                6.91040113               20.98823195                0.00010000               -2.19180152                0.66028087               -0.11702341                0.19501814               14.20543329                0.74261157
               8.34238553                6.83312612               21.01864788                0.00010000               -2.11734505                0.39256444               -0.06640752                0.01003361               14.41476463                1.32148866
               9.32190646                6.75845178               21.05193821                0.17578096               -0.99959342               -0.01183539               -0.04055954               -0.07582732                7.30607660                2.04094373
              10.32239366                6.68554721               20.94091822                0.66168571                0.12577316                0.14020018               -0.47669335               -0.00056375                0.06359563                0.70480565
              11.32442192                6.61299483               20.82915949                0.98942924                0.20282615                0.30483497               -0.91759747               -0.01428261                0.03433101               -0.59116114
               1.52748614                8.40724171               21.11756573                0.96790693               -0.04870339               -0.10793344                0.34074451               -0.02276882                0.01199474                0.83820571
               2.52699911                8.31704746               20.99577804                0.48961633                0.00178225                0.00343953               -0.01015521               -0.00074190                0.06425958               -0.59338248
               3.52752179                8.22648363               20.87499194                0.00010000               -0.70861049                0.11606374               -0.36307231                0.64584138                6.98210936               -2.06801306
               4.51282690                8.14833508               20.89156450                0.00010000               -1.76751278                0.65515874               -0.50938901                1.07114783               14.72908785               -0.37336103
               5.49217153                8.07332901               20.92623131                0.00010000               -2.22221903                0.91928789               -0.32240232                0.82390017               15.64194184                0.01312239
               6.46838252                7.99685592               20.96259159                0.00010000               -2.46109690                0.97297637               -0.17674599                0.38096136               15.79309528                0.27900305
               7.44294960                7.91800288               21.00183520                0.00010000               -2.53666251                0.90221284               -0.06147251               -0.09391507               16.06155252                0.60481488
               8.41764927                7.83753662               21.04504603                0.00010000               -2.44299287                0.54958993                0.03081263               -0.53060996               16.43286973                1.08910935
               9.39408974                7.75810306               21.09297089                0.20354885               -1.16824880               -0.05121363                0.10393464               -0.41107090                8.33428232                1.85084970
              10.39428429                7.68674001               20.97516352                0.65516554                0.09619168                0.10003212               -0.35706824               -0.00965895                0.03446962                0.65070031
              11.39601357                7.61588868               20.85687036                0.97928546                0.17292782                0.27214771               -0.82339197               -0.01242467                0.01915505               -0.65195698
               1.61690493                9.40637208               21.08920234                0.95955086               -0.00855701               -0.06759829                0.20914237               -0.02217084               -0.00619582                0.71364187
               2.61681936                9.31730647               20.96015478                0.50723513                0.04334225                0.04783839               -0.15268741                0.00036173                0.07723529               -0.51495824
               3.61777178                9.22787146               20.83273449                0.00010000               -0.87898245                0.15936329               -0.51397366                0.88695259                8.54887166               -1.44145082
               4.59923971                9.15569822               20.87312518                0.00010000               -2.14862495                0.99582748               -0.46636598                1.00596581               17.10162694               -0.17209189
               5.57479928                9.08374033               20.91785132                0.00010000               -2.50364007                1.09068108               -0.30917409                0.60477662               17.30344050               -0.00099808
               6.54916691                9.00760582               20.96380081                0.00010000               -2.65524621                1.11556430               -0.15745616                0.21988692               17.45568399                0.16024090
               7.52169435                8.92844539               21.01312355                0.00010000               -2.87468811                1.09426213               -0.01665027               -0.21174567               17.82434135                0.34436642
               8.49167315                8.84411792               21.06806685                0.00010000               -2.86063538                0.96955959                0.11453633               -0.80329079               18.43411487                0.63329946
               9.46448165                8.75742751               21.13128215                0.23309416               -1.36291483               -0.06510301                0.23101625               -0.84746446                9.50736468                1.23722830
              10.46441485                8.68754785               21.00898830                0.68544914                0.06972162                0.06606051               -0.24576110               -0.02281521                0.10414391                0.53657380
              11.46587608                8.61843778               20.88389322                0.95554400                0.14612260                0.23786887               -0.73729596               -0.01224922               -0.02535099               -0.58444138
               1.70517394               10.40588975               21.05835367                0.97904685                0.03330239               -0.04823277                0.07772666                0.03834795                0.39054276                0.59273283
               2.70550696               10.31800422               20.92617142                0.79099182                0.08475785                0.06977522               -0.28985638                0.05781708                0.74454626               -0.43215733
               3.70686909               10.22967089               20.80103015                0.46992607               -1.42148071                0.17994329               -0.64541865                1.42210189               10.15624622               -0.91534123
               4.67707735               10.16825163               20.85709058                0.31118960               -2.72548136                1.25534101               -0.48169387                1.05735022               18.94145861               -0.01954726
               5.65235947               10.09514263               20.90917906                0.30271019               -2.45010739                1.14023006               -0.32813572                0.30179759               18.77165377                0.01612533
               6.62807520               10.01916720               20.96318890                0.32118879               -2.50784428                1.15613862               -0.15663812                0.12810334               18.98178497                0.10591800
               7.60220258                9.93988812               21.02084557                0.36462670               -2.77369340                1.14427340                0.00929711               -0.06114696               19.40796271                0.20763246
               8.57260133                9.85692781               21.08490420                0.46764087               -3.42460352                1.28098925                0.17133659               -1.06153815               20.17773093                0.37635469
               9.53371051                9.75680100               21.15984869                0.63320327               -1.98918052               -0.06265145                0.31339764               -1.52044314               10.89056038                0.76531147
              10.53281772                9.68806122               21.04076804                0.86977617                0.01391138                0.05133638               -0.14997929                0.03253989                0.75268146                0.44665018
              11.53398874                9.62064606               20.91274590                0.97338194                0.11710177                0.22082799               -0.65380198                0.06974996                0.31786498               -0.48208784
               0.84138844                0.46570634               22.33561223                1.00000000               -0.35111828               -0.38095159                1.32951120               -0.06676404               -0.78714031                0.82067837
               1.83787726                0.36068636               22.25978935                1.00000000               -0.29317143               -0.30290196                1.06848475               -0.05378533               -1.00228501                0.06074624
               2.83552501                0.25541451               22.17963504                1.00000000               -0.16147270               -0.22496314                0.79360206               -0.04220126               -0.95123239               -0.20993744
               3.83464780                0.15110867               22.10483646                0.63097670                0.30871305               -0.17718499                0.53169587                0.47252179               -0.00833305               -0.63499003
               4.84169927                0.05876254               22.04355675                0.69041457                0.45450133               -0.05702354                0.22977219               -0.07408717                0.46620652                0.16697898
               5.84373783               -0.02491454               21.97846171                0.75633959                0.14489430                0.02775885               -0.05621946               -0.00021117                0.09392278                0.09509019
               6.84459716               -0.10705617               21.90973356                0.73761885                0.07176866                0.10328910               -0.33823587                0.00898317               -0.09880242               -0.06151675
               7.84517320               -0.18963733               21.84071402                0.85671068                0.08659103                0.19297429               -0.63131024                0.02740651               -0.33697062                0.07468823
               8.84632898               -0.27471209               21.76703561                1.00000000                0.19374256                0.28626351               -0.92267211                0.01366727               -0.68653456                0.45621038
               9.84904805               -0.36159715               21.69088242                1.00000000                0.33104624                0.35573816               -1.20800961               -0.04233665               -0.74646687                0.00792075
              10.85294990               -0.44872864               21.61602158                1.00000000                0.39018498                0.43550069               -1.47856619               -0.05897447               -0.68627055               -0.69929545
               0.94574078                1.46189683               22.30588270                1.00000000               -0.32554579               -0.36163091                1.20618476               -0.02688554               -0.10573680                1.11472808
               1.94248532                1.35765734               22.22966509                1.00000000               -0.29244660               -0.28202819                0.94690406               -0.00965492               -0.07490148                0.08669304
               2.93989185                1.25316488               22.15402533                0.88949959               -0.23931574               -0.20302448                0.67711848                0.01971233                0.14886298               -0.58786633
               3.93769900                1.14933682               22.08224679                0.17864770               -0.54609195               -0.16821004                0.39684543                0.66842037                1.64884488               -1.05622440
               4.92897001                1.05819231               22.03652761                0.29518982               -0.55269656                0.07002512                0.16213657               -0.09238237                2.34569064                0.96432163
               5.92664507                0.97536305               21.97834472                0.36538687               -0.09608108                0.09052600               -0.10065089                0.16458096                1.50042033                0.38326415
               6.92704838                0.89397672               21.91564467                0.26283298                0.13150781                0.06257021               -0.36358596                0.20926018                1.39594699               -0.38285501
               7.92927523                0.81229241               21.85544743                0.44213262                0.26985901                0.19024303               -0.61877835                0.23396826                1.38673083                0.59631929
               8.93244556                0.72815055               21.79280969                1.00000000                0.31788678                0.27250292               -0.87556532                0.10332036                0.70831533                0.66296932
               9.93563297                0.64196023               21.71926483                1.00000000                0.35230422                0.34635491               -1.14427874                0.00154596                0.09479643                0.09137193
              10.93949165                0.55562636               21.64442061                1.00000000                0.38586841                0.42360787               -1.41405665               -0.01644076                0.02678164               -0.82941911
               1.04932969                2.45847372               22.28199490                1.00000000               -0.29135867               -0.32905755                1.09548539               -0.02031404                0.03906616                1.41829148
               2.04641610                2.35504580               22.20001484                1.00000000               -0.25449553               -0.24622037                0.82695836                0.00406531                0.17832247                0.06152283
               3.04423978                2.25135402               22.12078618                0.52992844               -0.17136617               -0.17108040                0.57463455                0.04106818                0.79570305               -1.31462729
               4.04298878                2.14774447               22.05116682                0.00010000               -1.52071916               -0.14912381                0.29606445                0.92305705                4.46627044               -1.95452180
               5.01382540                2.06016305               22.04542444                0.00010000               -1.58718742                0.16457423                0.09300453                1.75349146                4.93128527               -1.27563532
               6.01124503                1.97689598               21.98398466                0.00010000               -0.09862006               -0.06706270               -0.13856704                1.47600870                1.77064425               -0.43129117
               7.01185300                1.89419524               21.91514988                0.00010000                0.22168571               -0.15268383               -0.37196126                1.23778278                3.10954171                0.31189707
               8.01567875                1.81416753               21.88065485                0.00010000                0.34372886               -0.10927789               -0.61294486                0.84228816                3.61316383                0.83352120
               9.01872757                1.73073797               21.82280371                0.49959509                0.29622047                0.26546168               -0.81246193                0.17550625                1.65938077                1.31240201
              10.02160316                1.64532994               21.74939559                1.00000000                0.32806221                0.33279635               -1.07511033                0.02475013                0.59723185                0.58012625
              11.02528882                1.55974351               21.67029464                1.00000000                0.36856614                0.40559942               -1.36128213               -0.00949253                0.31150657               -0.83981073
               1.15219034                3.45531567               22.25831159                1.00000000               -0.25040152               -0.30447910                0.98374869               -0.01675540                0.05945573                1.37901416
               2.14968633                3.35273294               22.16934070                1.00000000               -0.20879019               -0.21510225                0.70521228                0.00394583                0.07083011               -0.03811917
               3.14801454                3.24974327               22.08054366                0.29694132               -0.11676034               -0.13207825                0.42886535                0.00699604                1.00979785               -1.57023692
               4.14735112                3.14635435               22.01033574                0.00010000               -0.65631064               -0.09321723                0.16345384                0.95185822                4.61540859               -2.57631130
               5.13488833                3.06148379               21.99361023                0.00010000               -1.26090320                0.05768732                0.01049937                2.52375082                6.82258273               -3.08415177
               6.12213306                2.97402179               21.96759987                0.00010000               -1.01779185               -0.06889817               -0.15207809                2.09433531                6.00910498               -1.18038594
               7.11453249                2.89092305               21.93468838                0.00010000               -0.62773973               -0.14563644               -0.32282985                1.76897382                5.56783446                0.83916821
               8.10957826                2.81010686               21.90015045                0.00010000               -0.48696050               -0.17895168               -0.50315680                1.34169581                5.27473283                1.02184633
               9.10479328                2.73345978               21.86159141                0.16490394               -0.12279189                0.22519887               -0.71371712                0.47617896                3.29092005                2.45765343
              10.10712242                2.64861615               21.78759978                1.00000000                0.28406911                0.30596273               -0.97610664                0.01480164                0.76664224                0.93848172
              11.11047466                2.56373835               21.69847800                1.00000000                0.33522368                0.39889095               -1.30069541               -0.01568483                0.01252462               -0.58788743
               1.25416006                4.45238414               22.23362532                1.00000000               -0.20926343               -0.27712671                0.86366956               -0.02128754                0.07678658                1.25341350
               2.25206742                4.35074375               22.13765271                0.94360708               -0.17008825               -0.17701030                0.57504573               -0.00029116                0.10201932               -0.15000204
               3.25075829                4.24871246               22.04212936                0.13982471               -0.08910002               -0.07727796                0.29641938               -0.01933563                1.13512041               -1.45643942
               4.25028542                4.14588013               21.96681009                0.00010000               -0.70626646                0.08357658               -0.01835730                0.75840819                5.91532626               -2.16447602
               5.23663296                4.06131679               21.96667443                0.00010000               -1.32964697                0.09117010               -0.10187642                1.46754723                9.24290552               -1.37784676
               6.22369248                3.97551802               21.95833680                0.00010000               -1.27427766                0.20427994               -0.17872264                1.33912191                8.55222767               -0.53812657
               7.21114741                3.89128251               21.94486552                0.00010000               -1.18582761                0.15428499               -0.27872425                1.18494615                8.15899013                0.48598279
               8.19997593                3.81058850               21.92903219                0.00010000               -1.07027778                0.13243823               -0.40471071                1.10723513                8.09483747                1.55107405
               9.18974186                3.73524195               21.91457905                0.12775914               -0.41776572                0.14255461               -0.56237259                0.47809827                4.40117235                2.89512475
              10.19162062                3.65144920               21.82497751                0.95457196                0.24944363                0.26247964               -0.88262362                0.00862573                0.34991716                0.90712678
              11.19473073                3.56772133               21.72929542                1.00000000                0.31101104                0.39129260               -1.22415783               -0.01740458                0.05067133               -0.44186055
               1.35504536                5.44977314               22.20741311                1.00000000               -0.16931751               -0.23923305                0.73423352               -0.02485156                0.11938546                1.09932744
               2.35335219                5.34919273               22.10470552                0.72495688               -0.12769543               -0.13145662                0.42730724               -0.00498735                0.22831822               -0.33597668
               3.35249145                5.24819771               22.00412197                0.06130675               -0.17186205               -0.02505913                0.13304762                0.06084829                1.88377030               -1.63916815
               4.34991495                5.14802588               21.93452052                0.00010000               -0.89450380                0.34198906               -0.31164534                0.53798376                7.66791630               -0.72742255
               5.33460138                5.06330720               21.94910896                0.00010000               -1.54825846                0.30856090               -0.22237285                1.14887036               11.39771574               -0.57967095
               6.31894978                4.97810739               21.95494393                0.00010000               -1.57202245                0.35121940               -0.20428121                0.91287450               10.75863036               -0.04652239
               7.30316093                4.89400875               21.95749366                0.00010000               -1.55931255                0.34262589               -0.23462920                0.78195133               10.52468168                0.69758518
               8.28776353                4.81275562               21.95922090                0.00010000               -1.48331927                0.25130600               -0.29935805                0.78031488               10.54230207                1.58582994
               9.27349454                4.73631087               21.96247231                0.13352147               -0.64739871                0.08199386               -0.39153078                0.34921844                5.45593473                2.49078140
              10.27481555                4.65386575               21.86256902                0.79700294                0.20438789                0.22321543               -0.75350494                0.00793726                0.18828903                0.89825828
              11.27758230                4.57156420               21.76026952                1.00000000                0.27667492                0.37267001               -1.13539231               -0.01918619                0.07434805               -0.46376550
               1.45482385                6.44759948               22.17961461                1.00000000               -0.12807406               -0.19400347                0.59879010               -0.02474085                0.06943138                0.95864831
               2.45354310                6.34811462               22.06925330                0.58336548               -0.08408660               -0.08483679                0.27707274               -0.00459140                0.22744839               -0.51701910
               3.45314211                6.24821127               21.96200074                0.02143812               -0.38037446                0.02521447               -0.03304394                0.24138381                3.65328611               -1.97288298
               4.44593562                6.15271991               21.92015861                0.00010000               -1.18066295                0.50349322               -0.55348904                0.53553646                9.95566298                0.13897959
               5.42952885                6.06748801               21.93819504                0.00010000               -1.73435969                0.51598805               -0.30964255                0.90325309               12.85238221               -0.07689513
               6.41124842                5.98254240               21.95555143                0.00010000               -1.86953223                0.54637438               -0.21583093                0.66362104               12.72217675                0.25639633
               7.39213821                5.89813503               21.97198046                0.00010000               -1.89841579                0.49123945               -0.18515936                0.44870059               12.66498050                0.81783536
               8.37328011                5.81561462               21.98892636                0.00010000               -1.82610555                0.31662043               -0.19266770                0.38836425               12.75549514                1.51979579
               9.35561610                5.73688182               22.00762540                0.15061919               -0.83770373                0.03403358               -0.22701727                0.14202753                6.50388858                2.27715036
              10.35652603                5.65591351               21.89973224                0.69653411                0.16669967                0.18549202               -0.62864190                0.00542606                0.11491157                0.83557873
              11.35895009                5.57517473               21.79044052                1.00000000                0.24240607                0.34655959               -1.03733983               -0.01612054                0.05183257               -0.52923983
               1.55352026                7.44589307               22.15054368                0.97922994               -0.08716947               -0.14807872                0.46307789               -0.02360666                0.02990684                0.87010231
               2.55264857                7.34749600               22.03263219                0.50634690               -0.04032073               -0.03953983                0.13001602               -0.00261965                0.15915282               -0.59070552
               3.55271385                7.24870200               21.91725600                0.00010000               -0.56498136                0.07146415               -0.19875139                0.43305267                5.46410497               -2.15832022
               4.54134894                7.15809574               21.90544594                0.00010000               -1.49349520                0.56549300               -0.56208489                0.76506174               12.50337758               -0.08679369
               5.52284394                7.07362696               21.93058339                0.00010000               -1.98868781                0.71655150               -0.33965619                0.81912449               14.40905478                0.10103424
               6.50157518                6.98903488               21.95812114                0.00010000               -2.18906074                0.77115010               -0.20684368                0.47351514               14.54107598                0.37023048
               7.47906273                6.90383354               21.98699438                0.00010000               -2.23955838                0.67365270               -0.13124545                0.11837107               14.66465122                0.80723902
               8.45678402                6.81908803               22.01787172                0.00010000               -2.15132605                0.39897164               -0.09022163               -0.07422296               14.86568645                1.40325179
               9.43603621                6.73699154               22.05136794                0.17384881               -1.00764249               -0.00964179               -0.07506046               -0.12118427                7.53716666                2.14111006
              10.43663117                6.65757559               21.93600725                0.64790137                0.13506173                0.14605507               -0.50629711               -0.00026233                0.06672474                0.75294632
              11.43873744                6.57849539               21.81986479                0.98967159                0.21062756                0.31620303               -0.94116368               -0.01366360                0.03552027               -0.59417546
               1.65114586                8.44463791               22.12091664                0.96736329               -0.04640825               -0.10451331                0.32920921               -0.02266566                0.01155890                0.84301525
               2.65068178                8.34732383               21.99565731                0.48678088                0.00287787                0.00501386               -0.01436096               -0.00071716                0.06289236               -0.60989867
               3.65120342                8.24964056               21.87137663                0.00010000               -0.71849426                0.11595812               -0.36046294                0.62873029                7.07851682               -2.10797539
               4.63631190                8.16402977               21.88643080                0.00010000               -1.81156086                0.67627819               -0.50962009                1.02109557               15.10436168               -0.23446951
               5.61497220                8.08181904               21.92297901                0.00010000               -2.28998757                0.94333658               -0.32514686                0.77963918               16.18187078                0.08641202
               6.59051214                7.99796541               21.96077816                0.00010000               -2.52598605                0.99833586               -0.18541160                0.32098077               16.31663257                0.32890314
               7.56445248                7.91160808               22.00113968                0.00010000               -2.59372517                0.92549730               -0.07832022               -0.16980442               16.58011778                0.65617335
               8.53863764                7.82359405               22.04522436                0.00010000               -2.48738132                0.56406670                0.00346446               -0.62084475               16.95194848                1.15556135
               9.51470486                7.73668899               22.09381875                0.20174957               -1.18103538               -0.04382929                0.06384596               -0.46213632                8.60146598                1.93602426
              10.51501693                7.65883461               21.97142867                0.64080373                0.10661744                0.10807780               -0.39089955               -0.01033318                0.03773607                0.69111971
              11.51683721                7.58149879               21.84850055                0.97998789                0.18202718                0.28289227               -0.85047480               -0.01130172                0.02004384               -0.66135151
               1.74769511                9.44380280               22.09123900                0.95937076               -0.00635349               -0.06414087                0.19781378               -0.02206192               -0.00705457                0.71974097
               2.74763157                9.34759627               21.95861262                0.50489514                0.04437022                0.04899808               -0.15621617                0.00042372                0.07683711               -0.52724218
               3.74858251                9.25102116               21.82761739                0.00010000               -0.90196029                0.15835319               -0.51000380                0.88265273                8.74990544               -1.46512577
               4.72959237                9.17162130               21.86845294                0.00010000               -2.20407126                1.02051916               -0.46430895                0.98035640               17.57560419               -0.07397920
               5.70450109                9.09249369               21.91472952                0.00010000               -2.56933039                1.11725844               -0.31345064                0.57893812               17.85177626                0.04434003
               6.67820576                9.00900160               21.96216940                0.00010000               -2.72315456                1.14592371               -0.16862191                0.18226580               18.01792246                0.18899200
               7.65003799                8.92234348               22.01286377                0.00010000               -2.94597724                1.12757163               -0.03595713               -0.26538178               18.39863524                0.37205939
               8.61928621                8.83036936               22.06907262                0.00010000               -2.92425357                1.00313109                0.08575563               -0.87654691               19.01762046                0.67405901
               9.59155292                8.73611496               22.13336865                0.23109875               -1.38357581               -0.05208978                0.18428011               -0.90325387                9.81242234                1.29199619
              10.59161470                8.65973714               22.00633721                0.66814219                0.08150574                0.07714122               -0.28555775               -0.02444063                0.11216886                0.56505259
              11.59318304                8.58415324               21.87635963                0.95750150                0.15683411                0.24855689               -0.76930750               -0.01100808               -0.02428553               -0.59961259
               1.84311769               10.44335509               22.05907765                0.97906841                0.03542067               -0.04477164                0.06658802                0.03712818                0.39416279                0.59911109
               2.84347190               10.34830379               21.92326057                0.79042511                0.08568770                0.07075152               -0.29288356                0.05665901                0.75438616               -0.44146708
               3.84483144               10.25280762               21.79460249                0.46950109               -1.45126980                0.17864565               -0.64075458                1.43171133               10.42853591               -0.92900982
               4.81444650               10.18444015               21.85227020                0.31162412               -2.78303854                1.28188454               -0.48140489                1.05324284               19.49840481                0.03638266
               5.78917067               10.10416421               21.90586331                0.30291082               -2.50694173                1.16705219               -0.33416406                0.28914519               19.35513092                0.03525916
               6.76430767               10.02088388               21.96155569                0.32100705               -2.56967954                1.18822828               -0.17023100                0.10995588               19.59185454                0.11602640
               7.73777708                9.93415951               22.02083241                0.36400678               -2.84862185                1.18160307               -0.01274435               -0.08745171               20.03383822                0.21720168
               8.70733523                9.84365667               22.08646812                0.46924186               -3.52525409                1.32873095                0.14096245               -1.12071458               20.80954842                0.39443915
               9.66727200                9.73564719               22.16272880                0.63254192               -2.04226952               -0.04677650                0.26044958               -1.59205440               11.23947872                0.79890869
              10.66648984                9.66037743               22.03904367                0.85993746                0.02564248                0.06402898               -0.19612501                0.02865098                0.78691907                0.46800778
              11.66778485                9.58646993               21.90601842                0.97411557                0.12950116                0.23166904               -0.69161509                0.06943087                0.33248006               -0.49880505
               0.91055949                0.50433721               23.34887280                1.00000000               -0.34947827               -0.37903648                1.32260506               -0.06639606               -0.80376434                0.83598216
               1.90706471                0.39205276               23.27044158                1.00000000               -0.29221375               -0.30074625                1.06197512               -0.05302865               -1.02576309                0.06588686
               2.90471522                0.27951593               23.18753760                1.00000000               -0.16169878               -0.22243894                0.78715995               -0.04168567               -0.97568800               -0.20985961
               3.90383074                0.16790573               23.11010541                0.63186165                0.30025219               -0.17486899                0.52332327                0.45573158               -0.04548052               -0.66004068
               4.91072026                0.06787661               23.04583503                0.69122315                0.44656120               -0.05636560                0.22620345               -0.07808582                0.41052887                0.17979671
               5.91276196               -0.02358877               22.97790979                0.75744821                0.14717459                0.02767102               -0.05453518               -0.00280277                0.04730285                0.10158788
               6.91366375               -0.11346901               22.90638407                0.73788476                0.07885924                0.10208853               -0.33240033                0.00809813               -0.14865234               -0.06440703
               7.91433914               -0.20365426               22.83445232                0.85655110                0.09530924                0.19078781               -0.62183488                0.02352551               -0.39086310                0.08077907
               8.91556994               -0.29610008               22.75787548                1.00000000                0.19728320                0.28213490               -0.91026214                0.01027385               -0.73597454                0.46795631
               9.91828481               -0.39022172               22.67888350                1.00000000                0.32879761                0.35197667               -1.19274969               -0.04136239               -0.78484794                0.00730638
              10.92214589               -0.48458576               22.60132918                1.00000000                0.38610833                0.43189677               -1.46107405               -0.05654310               -0.71666318               -0.72743459
               1.02217998                1.50054684               23.31790990                1.00000000               -0.32349124               -0.35996729                1.19931617               -0.02614196               -0.10903397                1.13605203
               2.01894506                1.38904530               23.23909951                1.00000000               -0.29040493               -0.27980800                0.94014894               -0.00893189               -0.08334554                0.09294241
               3.01637188                1.27729154               23.16076107                0.89864886               -0.23686760               -0.20011422                0.67126816                0.01822877                0.13098991               -0.58255847
               4.01420771                1.16615705               23.08619580                0.18815470               -0.53426097               -0.16374421                0.39506211                0.64461415                1.64641053               -1.07040955
               5.00568666                1.06731295               23.03810312                0.30411088               -0.54004834                0.06819041                0.15492985               -0.10164942                2.35835846                0.97630138
               6.00340674                0.97668794               22.97731871                0.37500647               -0.09545882                0.08944731               -0.10379991                0.15054179                1.50244816                0.39286485
               7.00377748                0.88755187               22.91201020                0.27299203                0.12415942                0.06850416               -0.36316056                0.19826807                1.40206617               -0.37687430
               8.00588993                0.79825362               22.84927542                0.45023002                0.25894639                0.18869484               -0.61581252                0.21470940                1.39716194                0.59899987
               9.00895641                0.70672127               22.78408354                1.00000000                0.31120461                0.26983266               -0.87005802                0.09538045                0.71303871                0.68277616
              10.01211402                0.61329804               22.70786296                1.00000000                0.34940448                0.34337036               -1.13667907                0.00198732                0.09338681                0.09389688
              11.01594450                0.51973321               22.63033321                1.00000000                0.38304738                0.42204126               -1.40417670               -0.01434886                0.02533412               -0.86279239
               1.13303973                2.49713786               23.29291040                1.00000000               -0.28983600               -0.32792653                1.08795095               -0.01898769                0.03966480                1.44524208
               2.13014137                2.38645660               23.20825804                1.00000000               -0.25358419               -0.24400997                0.82127863                0.00570302                0.18558098                0.06741584
               3.12796805                2.27551365               23.12648720                0.54261563               -0.17198851               -0.16781174                0.56629672                0.04119880                0.79675751               -1.32390351
               4.12670160                2.16463085               23.05404245                0.00010000               -1.49058353               -0.14767960                0.28418842                0.89718953                4.49736289               -1.97354426
               5.09815638                2.06924042               23.04629290                0.00010000               -1.55838629                0.15551730                0.08293532                1.68968087                5.00323861               -1.27348613
               6.09553388                1.97820018               22.98255822                0.00010000               -0.10464710               -0.06970780               -0.14546166                1.42180184                1.82959379               -0.40506358
               7.09606344                1.88790107               22.91141154                0.00010000                0.19650280               -0.14870383               -0.37600810                1.18134900                3.16355787                0.35518243
               8.09946393                1.80011964               22.87450682                0.00010000                0.31848417               -0.10705041               -0.61620434                0.79827269                3.68839103                0.88560121
               9.10243312                1.70929657               22.81466759                0.50872807                0.29243410                0.26258528               -0.81482676                0.15871408                1.72428709                1.35794209
              10.10531262                1.61664568               22.73864528                1.00000000                0.32777333                0.32968306               -1.07508295                0.02092198                0.61922118                0.60024766
              11.10898859                1.52385506               22.65669703                1.00000000                0.36759716                0.40809873               -1.35842718               -0.00879298                0.32203795               -0.87508113
               1.24316273                3.49398831               23.26810382                1.00000000               -0.24793957               -0.30368373                0.97511405               -0.01544721                0.06313331                1.40135183
               2.24068334                3.38416510               23.17636445                1.00000000               -0.20705640               -0.21319279                0.69947044                0.00586320                0.07581578               -0.03793233
               3.23902161                3.27393531               23.08482863                0.30907823               -0.11293053               -0.12944784                0.42720429                0.00394078                1.02079823               -1.59377015
               4.23842473                3.16320345               23.01196870                0.00010000               -0.65553280               -0.09960546                0.15958740                0.92267094                4.68694707               -2.62884564
               5.22591095                3.07042330               22.99366634                0.00010000               -1.26212987                0.04852729                0.00361638                2.43710967                6.95086882               -3.09806036
               6.21318213                2.97529378               22.96605857                0.00010000               -1.02129749               -0.07404655               -0.15728591                2.01600443                6.14174380               -1.14514861
               7.20548500                2.88457779               22.93142957                0.00010000               -0.63611242               -0.15204809               -0.32936043                1.68951352                5.69920336                0.91167293
               8.20045988                2.79611261               22.89507543                0.00010000               -0.49401793               -0.17908162               -0.51218127                1.28538479                5.39358425                1.12209212
               9.19560464                2.71197297               22.85440225                0.16559545               -0.12429547                0.21348068               -0.72393911                0.44492179                3.37792590                2.54617480
              10.19797397                2.61989171               22.77779469                1.00000000                0.28726184                0.30343019               -0.98452576                0.00733751                0.79820406                0.97008018
              11.20134988                2.52789518               22.68544570                1.00000000                0.33759057                0.40416192               -1.30535498               -0.01436125                0.01344719               -0.61188211
               1.35237721                4.49106419               23.24221029                1.00000000               -0.20655639               -0.27614623                0.85373479               -0.02076729                0.08409178                1.26682317
               2.35031164                4.38219275               23.14337589                0.93280414               -0.16843462               -0.17509810                0.56944614                0.00010355                0.11430850               -0.16277882
               3.34900852                4.27292469               23.04509214                0.14746137               -0.08223081               -0.07497118                0.29543880               -0.03045937                1.13844656               -1.49046185
               4.34866703                4.16263874               22.96672668                0.00010000               -0.71001361                0.07108398               -0.00432185                0.72496611                6.00986892               -2.29042396
               5.33480824                4.07021096               22.96566037                0.00010000               -1.34837773                0.08665826               -0.09977513                1.40648826                9.45863332               -1.40804058
               6.32169947                3.97671924               22.95653892                0.00010000               -1.28866802                0.19967928               -0.18194834                1.27392478                8.77523901               -0.50997916
               7.30903488                3.88486011               22.94203917                0.00010000               -1.19615115                0.14797591               -0.28728263                1.11754624                8.36966332                0.55589697
               8.29777645                3.79653800               22.92491685                0.00010000               -1.07412110                0.12579444               -0.41892629                1.03869565                8.28876256                1.64838142
               9.28755246                3.71356619               22.90884528                0.12531176               -0.41196453                0.12592064               -0.58416518                0.44322401                4.51277660                3.01766863
              10.28953716                3.62271429               22.81605745                0.93732147                0.25709747                0.26241624               -0.90077576                0.00585500                0.37388475                0.95414165
              11.29269441                3.53193830               22.71698893                1.00000000                0.31572507                0.39938650               -1.23635789               -0.01791257                0.06449958               -0.45203839
               1.46049026                5.48846539               23.21469957                1.00000000               -0.16653567               -0.23766417                0.72329241               -0.02485411                0.12131065                1.10484718
               2.45882491                5.38066314               23.10895006                0.71633316               -0.12619190               -0.12903248                0.42144611               -0.00554183                0.23677930               -0.35883762
               3.45796643                5.27243588               23.00545390                0.06749267               -0.15935665               -0.02193784                0.13289476                0.03907698                1.82940529               -1.68986739
               4.45563777                5.16462513               22.93155079                0.00010000               -0.90031063                0.32702210               -0.28366331                0.50220711                7.79674470               -0.88518826
               5.43996021                5.07215647               22.94691155                0.00010000               -1.58131450                0.30759567               -0.21528401                1.09388408               11.76002610               -0.60036717
               6.42401148                4.97928737               22.95288967                0.00010000               -1.59715235                0.35162839               -0.20688457                0.85078825               11.07934464               -0.01267238
               7.40801717                4.88753731               22.95509824                0.00010000               -1.57418840                0.33965688               -0.24526713                0.71299956               10.81978646                0.76772412
               8.39252772                4.79862850               22.95613660                0.00010000               -1.48621644                0.24462103               -0.31828663                0.70709172               10.82232285                1.68486888
               9.37829284                4.71449139               22.95841462                0.13079156               -0.64043796                0.07104771               -0.42031441                0.31291718                5.60713256                2.61822472
              10.37971896                4.62514003               22.85491662                0.77946770                0.21253803                0.22475281               -0.77637611                0.00880446                0.19972621                0.96055431
              11.38254360                4.53588291               22.74882498                1.00000000                0.28246410                0.38368082               -1.15252585               -0.01970540                0.07579462               -0.46244356
               1.56748462                6.48631090               23.18554430                0.99802220               -0.12543063               -0.19173108                0.58720706               -0.02474778                0.06878472                0.96068721
               2.56623031                6.37961210               23.07199607                0.57707227               -0.08282779               -0.08217921                0.27129775               -0.00515141                0.23272036               -0.53922595
               3.56582806                6.27248593               22.96167244                0.02631069               -0.36198629                0.02860037               -0.03296626                0.21057884                3.56291915               -2.02398582
               4.55899059                6.16917918               22.91472959                0.00010000               -1.19021869                0.49809269               -0.52600228                0.48207353               10.13467917                0.11599844
               5.54202369                6.07636288               22.93512720                0.00010000               -1.78280975                0.52174111               -0.30143918                0.84802104               13.34535333               -0.05789501
               6.52333439                5.98375181               22.95337573                0.00010000               -1.90349716                0.55184046               -0.21901724                0.59554835               13.12789538                0.30318009
               7.50395375                5.89165325               22.97006738                0.00010000               -1.91850905                0.49246893               -0.19818869                0.37286280               13.03926723                0.88853129
               8.48496421                5.80143042               22.98689120                0.00010000               -1.83272366                0.31323304               -0.21540727                0.30659410               13.11657824                1.61373349
               9.46729927                5.71498714               23.00519509                0.14818586               -0.83212427                0.02946265               -0.25978423                0.10001692                6.69052096                2.39264608
              10.46832172                5.62720934               22.89331010                0.68146727                0.17576336                0.18848376               -0.65555647                0.00685626                0.11983555                0.89272407
              11.47081454                5.53961192               22.77996290                1.00000000                0.24928147                0.35841857               -1.05735388               -0.01605967                0.05361923               -0.52404885
               1.67339292                7.48463076               23.15511546                0.97822901               -0.08460661               -0.14521023                0.45120084               -0.02355302                0.02932790                0.87261713
               2.67254685                7.37901956               23.03390674                0.50186368               -0.03909991               -0.03715272                0.12460690               -0.00281100                0.16078289               -0.60956955
               3.67261092                7.27300789               22.91527424                0.00040623               -0.55722759                0.07383973               -0.19805543                0.40290051                5.45034213               -2.20585154
               4.66140230                7.17458699               22.89985899                0.00010000               -1.51314560                0.57297510               -0.54552242                0.69522824               12.76500631                0.03289729
               5.64234801                7.08259129               22.92720342                0.00010000               -2.03851069                0.72741220               -0.33297921                0.75875465               14.92956444                0.16307861
               6.62063208                6.99032418               22.95602503                0.00010000               -2.22760977                0.78169554               -0.21179243                0.40077572               15.00712588                0.42630473
               7.59779581                6.89738669               22.98560704                0.00010000               -2.26531910                0.68018567               -0.14689357                0.03604923               15.10661880                0.87351948
               8.57532570                6.80489316               23.01684345                0.00010000               -2.16407774                0.40082565               -0.11662412               -0.16305439               15.29901754                1.48619763
               9.55451425                6.71508064               23.05043700                0.17185018               -1.00471994               -0.00821549               -0.11229144               -0.16839916                7.75874113                2.24152921
              10.55523130                6.62890971               22.93079228                0.63392878                0.14514995                0.15115504               -0.53700469                0.00030639                0.06909162                0.80368578
              11.55741725                6.54305128               22.81033622                0.98978559                0.21859510                0.32774440               -0.96402318               -0.01303474                0.03655689               -0.59304754
               1.77823597                8.48340670               23.12414992                0.96681325               -0.04390081               -0.10124394                0.31722814               -0.02258129                0.01108853                0.84748579
               2.77779697                8.37886904               22.99549082                0.48391987                0.00413333                0.00694070               -0.01930769               -0.00065535                0.06124746               -0.62577525
               3.77831864                8.27396273               22.86778268                0.00010000               -0.72426075                0.11675959               -0.35880402                0.60441458                7.17372891               -2.14619489
               4.76331175                8.18063869               22.88137209                0.00010000               -1.84285259                0.68961204               -0.49369001                0.95928852               15.46780558               -0.09259748
               5.74146159                8.09091112               22.91972838                0.00010000               -2.33786251                0.95757700               -0.32192198                0.72586890               16.70426708                0.15994439
               6.71655450                7.99938572               22.95888336                0.00010000               -2.56779203                1.01419732               -0.19298710                0.25524301               16.82259197                0.37953133
               7.69010575                7.90525696               23.00026880                0.00010000               -2.62726643                0.94035779               -0.09641982               -0.24853792               17.08024117                0.70889827
               8.66400917                7.80944694               23.04511532                0.00010000               -2.50955035                0.57310868               -0.02645374               -0.71195724               17.45100269                1.22418078
               9.63991474                7.71482283               23.09424781                0.19999485               -1.18259817               -0.03616281                0.02045881               -0.51316181                8.85781533                2.01964168
              10.64035721                7.63023245               22.96734553                0.62626195                0.11779735                0.11621016               -0.42647231               -0.01100392                0.04057761                0.73217798
              11.64227069                7.54616681               22.83986086                0.98059448                0.19134794                0.29381864               -0.87720752               -0.01015019                0.02088462               -0.66828820
               1.88201660                9.48260589               23.09315861                0.95918726               -0.00388825               -0.06060111                0.18575575               -0.02198279               -0.00789116                0.72551885
               2.88197771                9.37915837               22.95703045                0.50271983                0.04564854                0.05049724               -0.16068230                0.00050349                0.07630675               -0.53894790
               3.88292957                9.27534308               22.82253442                0.00010000               -0.91690210                0.15788850               -0.50707473                0.86661984                8.94813789               -1.48720130
               4.86363967                9.18837923               22.86383901                0.00010000               -2.24056108                1.03530386               -0.45421493                0.94363090               18.03717627                0.02347649
               5.83811835                9.10174283               22.91158231                0.00010000               -2.61242821                1.13345502               -0.31413346                0.54719542               18.38239210                0.08957672
               6.81139111                9.01060812               22.96042837                0.00010000               -2.76772543                1.16647184               -0.17931796                0.14198560               18.56248616                0.21792036
               7.78276384                8.91619385               23.01240441                0.00010000               -2.99352119                1.15189609               -0.05637482               -0.31958151               18.95483207                0.40061941
               8.75152068                8.81635533               23.06978196                0.00010000               -2.96491634                1.02893298                0.05572317               -0.94748621               19.57784659                0.71775898
               9.72346551                8.71435738               23.13496776                0.22931980               -1.39267181               -0.03819812                0.13366473               -0.95558143               10.10312331                1.34474033
              10.72366725                8.63123391               23.00327715                0.65079759                0.09400075                0.08880015               -0.32749889               -0.02602312                0.11987465                0.59292212
              11.72534553                8.54892766               22.86850707                0.95918377                0.16782774                0.25927807               -0.80111036               -0.00971807               -0.02295009               -0.61359511
               1.98469135               10.48219468               23.05968543                0.97909670                0.03784904               -0.04112102                0.05452872                0.03590681                0.39763236                0.60516131
               2.98506984               10.37987899               22.92031375                0.78999133                0.08694150                0.07206192               -0.29703998                0.05550377                0.76385042               -0.45027939
               3.98643018               10.27712050               22.78821506                0.46898940               -1.46426092                0.17774150               -0.63726202                1.42335005               10.69496845               -0.94139033
               4.95578462               10.20134476               22.84746248                0.31203509               -2.81267899                1.29655354               -0.47906622                1.03748144               20.04185799                0.08998824
               5.93017660               10.11358022               22.90249578                0.30310993               -2.54207144                1.18373947               -0.33838255                0.27434539               19.92185627                0.05417086
               6.90494319               10.02271516               22.95978428                0.32082006               -2.61048449                1.21070352               -0.18421627                0.09094152               20.18383323                0.12612591
               7.87796691                9.92829488               23.02059069                0.36336297               -2.90236411                1.21010328               -0.03620529               -0.11417073               20.64196176                0.22722102
               8.84689591                9.83002560               23.08772345                0.47107667               -3.60211870                1.36702645                0.11029485               -1.17427779               21.41554605                0.41496499
               9.80592454                9.71405887               23.16505768                0.63203930               -2.08147180               -0.02985156                0.20316632               -1.65495473               11.57035605                0.83063779
              10.80526648                9.63200845               23.03684554                0.85012980                0.03821481                0.07745399               -0.24478000                0.02459781                0.82017490                0.48852630
              11.80668883                9.55135237               22.89891360                0.97477837                0.14223574                0.24247132               -0.72935075                0.06872285                0.34711324               -0.51478200
               0.98217558                0.54435179               24.36206433                1.00000000               -0.34783933               -0.37715192                1.31577888               -0.06582410               -0.81988554                0.85088903
               1.97869719                0.42468825               24.28102885                1.00000000               -0.29140775               -0.29885144                1.05581051               -0.05206548               -1.04916873                0.07073665
               2.97634743                0.30477038               24.19537824                1.00000000               -0.16282132               -0.22062705                0.78187156               -0.04126598               -1.00158593               -0.21010882
               3.97544076                0.18572708               24.11530292                0.63238576                0.28790213               -0.17354869                0.51807720                0.43703703               -0.08302289               -0.68295228
               4.98210547                0.07782231               24.04808082                0.69112470                0.43470451               -0.05618451                0.22383791               -0.08050481                0.36056207                0.19077352
               5.98413485               -0.02170062               23.97737100                0.75764443                0.14880576                0.02725254               -0.05322830               -0.00573343                0.00522005                0.10811765
               6.98508158               -0.11959656               23.90308555                0.73763415                0.08648398                0.10083295               -0.32795756                0.00677333               -0.19543704               -0.06684142
               7.98586453               -0.21766796               23.82827732                0.85601767                0.10483588                0.18858660               -0.61411783                0.01943411               -0.44255676                0.08665546
               8.98717830               -0.31776908               23.74883037                1.00000000                0.20164317                0.27830359               -0.89982649                0.00695047               -0.78362086                0.47985215
               9.98989740               -0.41940995               23.66702743                1.00000000                0.32734929                0.34863343               -1.17956196               -0.04045305               -0.82178353                0.00690315
              10.99372529               -0.52128540               23.58680010                1.00000000                0.38278926                0.42880659               -1.44597216               -0.05429080               -0.74592221               -0.75431103
               1.10118088                1.54058027               24.32986902                1.00000000               -0.32136411               -0.35835711                1.19247579               -0.02544685               -0.11221794                1.15671406
               2.09796723                1.42169974               24.24846807                1.00000000               -0.28827608               -0.27795398                0.93388323               -0.00812097               -0.09095144                0.09921841
               3.09541535                1.30256411               24.16745069                0.90665442               -0.23410329               -0.19809972                0.66676114                0.01674748                0.11601715               -0.57887842
               4.09328517                1.18399159               24.09014804                0.19667526               -0.52005428               -0.16131992                0.39430644                0.61929634                1.64438761               -1.08862801
               5.08501427                1.07726047               24.03962620                0.31160675               -0.52491060                0.06538928                0.15042681               -0.10753791                2.36881759                0.98635000
               6.08278696                0.97857191               23.97626873                0.38329869               -0.09406387                0.08777292               -0.10586126                0.13673577                1.50631529                0.40310290
               7.08313299                0.88141177               23.90838146                0.28233389                0.11790870                0.07380411               -0.36260713                0.18699831                1.40951263               -0.37040885
               8.08514513                0.78421790               23.84313117                0.45765465                0.24929046                0.18737570               -0.61336906                0.19640903                1.40818300                0.60185157
               9.08811880                0.68501396               23.77540853                1.00000000                0.30529480                0.26735885               -0.86540537                0.08775196                0.71798483                0.70224650
              10.09125103                0.58407639               23.69653125                1.00000000                0.34695173                0.34065571               -1.13025732                0.00247265                0.09208487                0.09674205
              11.09505783                0.48300266               23.61633707                1.00000000                0.38068079                0.42073994               -1.39575772               -0.01233270                0.02408868               -0.89452253
               1.21942770                2.53718464               24.30375392                1.00000000               -0.28767826               -0.32687262                1.08061445               -0.01800409                0.04094700                1.47066734
               2.21655092                2.41912917               24.21644042                1.00000000               -0.25185907               -0.24216504                0.81520964                0.00671709                0.19251861                0.07343687
               3.21439052                2.30080839               24.13211212                0.55544722               -0.17102929               -0.16505914                0.55971438                0.03912035                0.79647971               -1.33151089
               4.21313034                2.18250068               24.05685059                0.00010000               -1.45080649               -0.14491982                0.27834762                0.86444447                4.52537332               -1.99343714
               5.18537439                2.07913010               24.04708315                0.00010000               -1.52060328                0.14473279                0.07552264                1.61778647                5.07716627               -1.26630850
               6.18271827                1.98005484               23.98107543                0.00010000               -0.10994184               -0.07168906               -0.15058234                1.35835865                1.89022419               -0.37586566
               7.18317556                1.88187952               23.90762971                0.00010000                0.17361254               -0.14414438               -0.37984496                1.11957100                3.21857871                0.39968947
               8.18619052                1.78607955               23.86833077                0.00010000                0.29496517               -0.10396179               -0.61912031                0.75153571                3.76239274                0.93789456
               9.18907486                1.68757810               23.80650718                0.51720665                0.28838104                0.25958145               -0.81730453                0.14186727                1.78780806                1.40257213
              10.19195814                1.58740317               23.72789393                1.00000000                0.32756101                0.32645992               -1.07521938                0.01716607                0.64093649                0.62028641
              11.19562608                1.48712940               23.64312610                1.00000000                0.36679378                0.41030716               -1.35580668               -0.00818965                0.33243946               -0.90861347
               1.33693174                3.53404281               24.27781387                1.00000000               -0.24539083               -0.30298953                0.96684793               -0.01448819                0.06748321                1.42137105
               2.33447783                3.41685644               24.18333011                1.00000000               -0.20527422               -0.21132977                0.69359888                0.00704737                0.08217843               -0.03779800
               3.33282625                3.29926293               24.08908775                0.32153233               -0.11127395               -0.12652196                0.42448699                0.00113345                1.02932312               -1.61360109
               4.33225235                3.18109319               24.01352749                0.00010000               -0.65052093               -0.10055615                0.15379634                0.88382148                4.75140300               -2.66639630
               5.31981583                3.08015512               23.99368256                0.00010000               -1.25238202                0.03903396               -0.00023552                2.33319689                7.07912639               -3.10539478
               6.30720471                2.97713813               23.96445416                0.00010000               -1.01580668               -0.07837553               -0.16314582                1.92369721                6.27104073               -1.10402573
               7.29949970                2.87852888               23.92810118                0.00010000               -0.63637225               -0.15738698               -0.33666210                1.59938642                5.82577619                0.98677372
               8.29447726                2.78213867               23.88990683                0.00010000               -0.49335847               -0.17923002               -0.52164451                1.22156321                5.50742053                1.22254089
               9.28963253                2.69020559               23.84711262                0.16587843               -0.12171076                0.20024235               -0.73361522                0.41244230                3.46184660                2.63171252
              10.29204305                2.59060559               23.76790926                1.00000000                0.29045249                0.30034681               -0.99200338               -0.00001293                0.82870898                1.00021313
              11.29544158                2.49120881               23.67237090                1.00000000                0.33985316                0.40859462               -1.30903991               -0.01309349                0.01410373               -0.63455776
               1.45351070                4.53112485               24.25070001                1.00000000               -0.20389449               -0.27533707                0.84425450               -0.02028438                0.09180790                1.27788232
               2.45147175                4.41490258               24.14904163                0.92241377               -0.16671317               -0.17303156                0.56354694                0.00043568                0.12724770               -0.17570478
               3.45017643                4.29827795               24.04803814                0.15492123               -0.07785890               -0.07214332                0.29343993               -0.03802248                1.14520887               -1.52249486
               4.44991457                4.18048956               23.96672365                0.00010000               -0.70915180                0.06130066                0.00245222                0.68863354                6.09904081               -2.39510072
               5.43599340                4.07991078               23.96467893                0.00010000               -1.35480568                0.08389452               -0.09719670                1.33224815                9.66499725               -1.43190764
               6.42281846                3.97848733               23.95469783                0.00010000               -1.29153266                0.19395027               -0.18631338                1.19831369                8.98771050               -0.47571856
               7.41016274                3.87873178               23.93911987                0.00010000               -1.19366916                0.14030695               -0.29713471                1.04088253                8.57039425                0.62848588
               8.39894508                3.78249495               23.92065366                0.00010000               -1.06529774                0.11699933               -0.43405121                0.96337504                8.47163629                1.74604585
               9.38885679                3.69158295               23.90289575                0.12254091               -0.39952073                0.10599825               -0.60533199                0.40698984                4.61795961                3.13685957
              10.39095466                3.59341010               23.80696200                0.91967232                0.26504881                0.26093019               -0.91751589                0.00375075                0.39778319                1.00119603
              11.39415776                3.49530129               23.70456826                1.00000000                0.32031032                0.40662771               -1.24686880               -0.01888649                0.07922565               -0.45989739
               1.56897060                5.52853607               24.22187896                1.00000000               -0.16371592               -0.23637619                0.71264294               -0.02476073                0.12317257                1.10854331
               2.56733344                5.41339580               24.11313444                0.70782556               -0.12458902               -0.12645772                0.41519310               -0.00591887                0.24551644               -0.38162069
               3.56647882                5.29782007               24.00677986                0.07303585               -0.14706249               -0.01833675                0.13174369                0.02069725                1.78653233               -1.73852481
               4.56439219                5.18231921               23.92884725                0.00010000               -0.90079007                0.31210615               -0.25747969                0.46364034                7.92407538               -1.02898205
               5.54846302                5.08183301               23.94480328                0.00010000               -1.60211060                0.30637290               -0.20613772                1.02471538               12.10235493               -0.61573988
               6.53234998                4.98101713               23.95080624                0.00010000               -1.60766452                0.34916591               -0.20985948                0.77748466               11.38433541                0.02567154
               7.51630973                4.88133502               23.95258832                0.00010000               -1.57281919                0.33325353               -0.25733731                0.63534338               11.10066313                0.84013948
               8.50089360                4.78447866               23.95285516                0.00010000               -1.47262770                0.23437426               -0.33858493                0.62647104               11.08746960                1.78449342
               9.48685718                4.69232555               23.95406602                0.12777612               -0.62469391                0.05647091               -0.44947630                0.27481817                5.75072643                2.74540562
              10.48839972                4.59582419               23.84704149                0.76148588                0.22121507                0.22411134               -0.79790178                0.01080421                0.21124504                1.02518385
              11.49128148                4.49934136               23.73721900                1.00000000                0.28817581                0.39406120               -1.16757631               -0.02032746                0.07698283               -0.45691129
               1.68329602                6.52639733               24.19135875                0.99652467               -0.12266359               -0.18981363                0.57567021               -0.02470729                0.06801563                0.96156336
               2.68206938                6.41237342               24.07467925                0.57061991               -0.08145212               -0.07929778                0.26510960               -0.00570542                0.23791671               -0.56101263
               3.68166697                6.29791122               23.96134141                0.03036398               -0.34474749                0.03273290               -0.03362582                0.18239358                3.48676209               -2.07346880
               4.67517443                6.18673168               23.90963857                0.00010000               -1.19385982                0.48959867               -0.48862007                0.42273547               10.31268857                0.09514822
               5.65778978                6.08603824               23.93216626                0.00010000               -1.81541408                0.52271707               -0.28884919                0.77725708               13.81366749               -0.03525551
               6.63886615                5.98547065               23.95117109                0.00010000               -1.91908445                0.55181084               -0.22169386                0.51613574               13.51478333                0.35290742
               7.61940809                5.88539685               23.96801669                0.00010000               -1.91910933                0.48837489               -0.21257409                0.28893687               13.39633615                0.96101021
               8.60048396                5.78718244               23.98461822                0.00010000               -1.82002353                0.30546033               -0.24001443                0.21781593               13.46072798                1.70847094
               9.58300762                5.69271236               24.00242972                0.14552670               -0.81645135                0.02219310               -0.29372130                0.05574594                6.86823470                2.50876013
              10.58415494                5.59789233               23.88662111                0.66605662                0.18546258                0.18948395               -0.68178980                0.00921054                0.12431185                0.95213149
              11.58671687                5.50318251               23.76929344                1.00000000                0.25619344                0.36975605               -1.07555374               -0.01602070                0.05525401               -0.51413056
               1.79652427                7.52473980               24.15956770                0.97721312               -0.08188242               -0.14264286                0.43913799               -0.02350454                0.02865900                0.87441124
               2.79570545                7.41180985               24.03512432                0.49720508               -0.03779179               -0.03444080                0.11863104               -0.00302467                0.16215931               -0.62787867
               3.79576844                7.29847472               23.91329489                0.00313215               -0.54927820                0.07726323               -0.19814537                0.37155422                5.44627479               -2.25173642
               4.78471988                7.19211118               23.89453549                0.00010000               -1.52496223                0.57330611               -0.51083743                0.61802576               13.02203678                0.15136974
               5.76526919                7.09228736               23.92392381                0.00010000               -2.07029004                0.73004012               -0.32017007                0.68493370               15.42675480                0.22643083
               6.74331408                6.99205335               23.95388530                0.00010000               -2.24462554                0.78410204               -0.21570602                0.31862875               15.45241702                0.48398206
               7.72037668                6.89110251               23.98405651                0.00010000               -2.26898404                0.67959146               -0.16381346               -0.05241159               15.52928730                0.94139375
               8.69793440                6.79058786               24.01553923                0.00010000               -2.15572389                0.39783610               -0.14518956               -0.25691899               15.71326600                1.56997797
               9.67726220                6.69276941               24.04912211                0.16971109               -0.99103107               -0.00806478               -0.15149602               -0.21753318                7.97001093                2.34114670
              10.67811378                6.59961387               23.92526716                0.61966015                0.15592469                0.15504842               -0.56805255                0.00137824                0.07069633                0.85591254
              11.68038070                6.50673648               23.80058432                0.98972634                0.22669158                0.33898339               -0.98568252               -0.01237014                0.03743692               -0.58813199
               1.90868583                8.52354447               24.12726120                0.96625026               -0.04118632               -0.09810670                0.30481020               -0.02252000                0.01059219                0.85139476
               2.90827396                8.41168461               23.99527116                0.48095850                0.00554495                0.00922681               -0.02499077               -0.00057682                0.05937964               -0.64104404
               3.90879673                8.29945648               23.86420055                0.00010000               -0.72758252                0.11850194               -0.35801549                0.57407378                7.27685308               -2.18243034
               4.89372231                8.19819780               23.87655700                0.00010000               -1.86252220                0.69446338               -0.46133981                0.88753351               15.82381475                0.04670410
               5.87154628                8.10063904               23.91654057                0.00010000               -2.36493745                0.96152306               -0.31303316                0.66226299               17.20217727                0.23239400
               6.84642357                8.00115269               23.95691841                0.00010000               -2.58604685                1.02028668               -0.19959668                0.18344722               17.30770507                0.43073879
               7.81982535                7.89898868               23.99921128                0.00010000               -2.63724404                0.94657329               -0.11553477               -0.33045822               17.55975302                0.76327383
               8.79367868                7.79513916               24.04469528                0.00010000               -2.50971983                0.57642761               -0.05846592               -0.80461085               17.92787021                1.29573982
               9.76963095                7.69255107               24.09422792                0.19824996               -1.17316265               -0.02847624               -0.02563022               -0.56439315                9.10178434                2.10083615
              10.77021543                7.60099330               23.96289923                0.61149110                0.12966444                0.12408524               -0.46331611               -0.01148943                0.04270339                0.77323831
              11.77222424                7.50996218               23.83095640                0.98107884                0.20088067                0.30460562               -0.90336646               -0.00893657                0.02162774               -0.67281488
               2.01979361                9.52277767               24.09495412                0.95900493               -0.00117025               -0.05698987                0.17300810               -0.02193432               -0.00870713                0.73081535
               3.01978190                9.41199439               23.95539898                0.50051641                0.04715555                0.05234998               -0.16607466                0.00062046                0.07573901               -0.55012584
               4.02073672                9.30084476               23.81747590                0.00010000               -0.92469527                0.15810247               -0.50507329                0.83957097                9.14853782               -1.50754254
               5.00128800                9.20600045               23.85936864                0.00010000               -2.25885769                1.03975831               -0.43583765                0.89768387               18.48913031                0.11353509
               5.97555956                9.11151782               23.90844685                0.00010000               -2.63273050                1.13908239               -0.31143355                0.50991760               18.89181464                0.13337953
               6.94863339                9.01245908               23.95858304                0.00010000               -2.78892568                1.17709481               -0.18959564                0.09910129               19.08719652                0.24694637
               7.91978105                8.91003398               24.01173628                0.00010000               -3.01767956                1.16713482               -0.07751021               -0.37454331               19.49171306                0.43042500
               8.88827980                8.80211641               24.07018709                0.00010000               -2.98304234                1.04669212                0.02555754               -1.01668111               20.11186406                0.76588165
               9.86012020                8.69219989               24.13604194                0.22776932               -1.39034583               -0.02354855                0.07951047               -1.00473835               10.37655319                1.39468153
              10.86047288                8.60209557               23.99978723                0.63340042                0.10719990                0.10089355               -0.37145312               -0.02746552                0.12690869                0.61979901
              11.86226420                8.51282860               23.86033742                0.96056291                0.17913201                0.26995183               -0.83280044               -0.00835997               -0.02137380               -0.62624580
               2.12981370               10.52240467               24.06016822                0.97913062                0.04055753               -0.03729916                0.04161310                0.03470281                0.40085312                0.61077757
               3.13021928               10.41273161               23.91731977                0.78959697                0.08841901                0.07372197               -0.30232444                0.05443033                0.77300821               -0.45864518
               4.13158208               10.30261853               23.78185725                0.46832206               -1.46081706                0.17737686               -0.63492886                1.39760481               10.95741668               -0.95244242
               5.10100294               10.21899297               23.84268888                0.31242639               -2.81480417                1.29925190               -0.47485113                1.01160173               20.57347192                0.13590587
               6.07528600               10.12342069               23.89909566                0.30330088               -2.55567551                1.19028693               -0.34092435                0.25772472               20.47089208                0.07220780
               7.04988943               10.02469459               23.95787136                0.32063044               -2.63044251                1.22355033               -0.19861133                0.07113838               20.75628836                0.13635234
               8.02267715                9.92233137               24.02010830                0.36269880               -2.93551362                1.22973942               -0.06062800               -0.14146920               21.23224292                0.23814411
               8.99117915                9.81607300               24.08867402                0.47314815               -3.65600627                1.39565873                0.08094593               -1.22262807               21.99271316                0.43946512
               9.94955702                9.69208010               24.16679212                0.63171468               -2.10708700               -0.01197915                0.14170460               -1.70940940               11.87920018                0.85976838
              10.94903741                9.60301117               24.03414807                0.84037450                0.05169853                0.09155963               -0.29601429                0.02050952                0.85202483                0.50787407
              11.95059099                9.51536122               23.89143141                0.97536525                0.15535800                0.25326227               -0.76727053                0.06768434                0.36174313               -0.52978424
               1.05623273                0.58574561               25.37518838                1.00000000               -0.34653084               -0.37540697                1.30930072               -0.06517687               -0.83561298                0.86528690
               2.05276743                0.45858906               25.29155779                1.00000000               -0.29116520               -0.29709520                1.05041275               -0.05114377               -1.07211163                0.07537172
               3.05040943                0.33116885               25.20317504                1.00000000               -0.16498648               -0.21887593                0.77810632               -0.04134691               -1.02717515               -0.21038118
               4.04946770                0.20455647               25.12046695                0.63264667                0.27269968               -0.17196481                0.51550200                0.41684882               -0.11976972               -0.70415397
               5.05586342                0.08860132               25.05031179                0.69035711                0.41969667               -0.05636922                0.22316395               -0.08102693                0.31324377                0.20070672
               6.05786163               -0.01922186               24.97684522                0.75703509                0.14926366                0.02674357               -0.05171291               -0.00833275               -0.03413153                0.11446525
               7.05884870               -0.12539766               24.89982492                0.73688419                0.09407825                0.09971924               -0.32465334                0.00530911               -0.23981277               -0.06889240
               8.05974319               -0.23162886               24.82216996                0.85506425                0.11493588                0.18660595               -0.60837396                0.01524724               -0.49196866                0.09219290
               9.06114741               -0.33965937               24.73987895                1.00000000                0.20681084                0.27487576               -0.89165306                0.00373948               -0.82909212                0.49192252
              10.06387941               -0.44909130               24.65529226                1.00000000                0.32673509                0.34576876               -1.16870872               -0.03955090               -0.85692725                0.00675388
              11.06768212               -0.55874593               24.57240973                1.00000000                0.38027050                0.42626846               -1.43341307               -0.05221209               -0.77382056               -0.77965008
               1.18273751                1.58199154               25.34175941                1.00000000               -0.31931473               -0.35696228                1.18568897               -0.02469579               -0.11536756                1.17655057
               2.17954436                1.45561811               25.25777717                1.00000000               -0.28626270               -0.27628793                0.92819016               -0.00726612               -0.09830778                0.10536576
               3.17701226                1.32898009               25.17409629                0.91425895               -0.23122065               -0.19612405                0.66244105                0.01483762                0.10197587               -0.57543765
               4.17491995                1.20283682               25.09408193                0.20439624               -0.50349694               -0.15869062                0.39187356                0.59139390                1.64140869               -1.10685552
               5.16694232                1.08803763               25.04111165                0.31795741               -0.50710799                0.06282882                0.14692500               -0.10898998                2.37823878                0.99493802
               6.16477779                0.98104557               24.97520148                0.39042727               -0.09185164                0.08596466               -0.10744822                0.12460372                1.51153989                0.41333261
               7.16510529                0.87559953               24.90475806                0.29096423                0.11243649                0.07864016               -0.36225855                0.17613020                1.41799118               -0.36373887
               8.16702652                0.77023720               24.83700804                0.46444014                0.24053723                0.18653647               -0.61177334                0.17904946                1.41972426                0.60430116
               9.16991603                0.66308939               24.76677543                1.00000000                0.30003321                0.26516468               -0.86178485                0.08039477                0.72324631                0.72122772
              10.17302718                0.55436639               24.68525782                1.00000000                0.34492992                0.33823509               -1.12507287                0.00301871                0.09099606                0.10006721
              11.17681463                0.44551675               24.60241806                1.00000000                0.37874438                0.41974512               -1.38873625               -0.01041795                0.02314671               -0.92411754
               1.30848567                2.57860636               25.31452269                1.00000000               -0.28521300               -0.32609511                1.07303257               -0.01718611                0.04236619                1.49479836
               2.30563354                2.45306330               25.22456223                1.00000000               -0.24991020               -0.24050893                0.80928153                0.00743388                0.19889927                0.07962960
               3.30348747                2.32724637               25.13768149                0.56865690               -0.16977523               -0.16214163                0.55470530                0.03588950                0.79476439               -1.33739184
               4.30223804                2.20138265               25.05960940                0.00010000               -1.40063012               -0.14171756                0.27336818                0.82747760                4.54972117               -2.01210916
               5.27547487                2.08985790               25.04780336                0.00010000               -1.47231213                0.13409986                0.06873396                1.53696348                5.14995248               -1.25694384
               6.27279180                1.98249743               24.97954658                0.00010000               -0.11475980               -0.07273543               -0.15486671                1.28618911                1.95153657               -0.34525691
               7.27317967                1.87617514               24.90381464                0.00010000                0.15212645               -0.13882093               -0.38280584                1.05235036                3.27314269                0.44412088
               8.27583433                1.77210187               24.86212442                0.00010000                0.27232258               -0.09983342               -0.62271405                0.70195537                3.83444750                0.98911940
               9.27862612                1.66564393               24.79832150                0.52490151                0.28390487                0.25646331               -0.81994695                0.12473215                1.85013707                1.44599999
              10.28151242                1.55767340               24.71714089                1.00000000                0.32734530                0.32307538               -1.07537607                0.01338686                0.66252803                0.64062525
              11.28517303                1.44964897               24.62958089                1.00000000                0.36606063                0.41225578               -1.35320315               -0.00774078                0.34279976               -0.93961585
               1.43347991                3.57546963               25.28744078                1.00000000               -0.24268779               -0.30248092                0.95836412               -0.01394737                0.07214959                1.43973103
               2.43105303                3.45080793               25.19023643                1.00000000               -0.20346068               -0.20944874                0.68765221                0.00762776                0.08924487               -0.03739553
               3.42941069                3.32573726               25.09331837                0.33386673               -0.10975252               -0.12318493                0.42179997               -0.00311297                1.03663048               -1.63063420
               4.42885798                3.20000247               25.01504463                0.00010000               -0.64219414               -0.09828446                0.15121276                0.83756895                4.81542549               -2.69873139
               5.41656681                3.09071962               24.99366163                0.00010000               -1.23368268                0.02970975               -0.00360607                2.21237687                7.20424468               -3.10561515
               6.40418432                2.97959087               24.96279565                0.00010000               -1.00094792               -0.08223213               -0.16849324                1.81622187                6.39615906               -1.05966372
               7.39654785                2.87282312               24.92469632                0.00010000               -0.62937396               -0.16162303               -0.34447097                1.49784674                5.94734934                1.06249287
               8.39159685                2.76824053               24.88464254                0.00010000               -0.48543545               -0.17956435               -0.53135874                1.14972571                5.61711446                1.32175549
               9.38683914                2.66821866               24.83972994                0.16567139               -0.11534834                0.18530281               -0.74250229                0.37822765                3.54339377                2.71379274
              10.38928988                2.56082790               24.75795462                1.00000000                0.29347679                0.29662858               -0.99815284               -0.00744512                0.85832255                1.02914399
              11.39270868                2.45376187               24.65926491                1.00000000                0.34188001                0.41216393               -1.31138399               -0.01193427                0.01438908               -0.65526240
               1.55753014                4.57255674               25.25909538                1.00000000               -0.20116646               -0.27460596                0.83467490               -0.02009926                0.09980577                1.28711199
               2.55551847                4.44887433               25.15464683                0.91219750               -0.16497321               -0.17074129                0.55738550                0.00036169                0.14071481               -0.18864508
               3.55423067                4.32478267               25.05096094                0.16199027               -0.07557083               -0.06875738                0.29107738               -0.04418962                1.15458973               -1.55282879
               4.55400705                4.19941697               24.96677573                0.00010000               -0.70483324                0.05640531                0.00747072                0.64536540                6.18887516               -2.48613822
               5.54013401                4.09045209               24.96371643                0.00010000               -1.34971554                0.08173566               -0.09544989                1.24586678                9.86228445               -1.44654121
               6.52701274                3.98085279               24.95281265                0.00010000               -1.28235345                0.18683371               -0.19101355                1.11097095                9.19018673               -0.43736397
               7.51448694                3.87294268               24.93609648                0.00010000               -1.17897229                0.13100840               -0.30790696                0.95457247                8.76124773                0.70254904
               8.50343330                3.76851059               24.91623583                0.00010000               -1.04418117                0.10566376               -0.44973928                0.88049299                8.64449398                1.84274424
               9.49360331                3.66934998               24.89673864                0.11938766               -0.38064941                0.08234349               -0.62553874                0.36886405                4.71766697                3.25149193
              10.49582031                3.56360597               24.79770713                0.90160271                0.27315433                0.25783492               -0.93230859                0.00216293                0.42185160                1.04792177
              11.49906640                3.45789225               24.69205155                1.00000000                0.32460913                0.41288170               -1.25524856               -0.02039479                0.09465197               -0.46515810
               1.68044275                5.56997751               25.22895243                1.00000000               -0.16084214               -0.23516550                0.70195873               -0.02475137                0.12491411                1.11058171
               2.67883433                5.44739310               25.11725392                0.69929642               -0.12292452               -0.12361822                0.40848172               -0.00639431                0.25449447               -0.40425882
               3.67798426                5.32436211               25.00808877                0.07791701               -0.13692308               -0.01405727                0.12964198                0.00553937                1.75550070               -1.78537703
               4.67609587                5.20113057               24.92640120                0.00010000               -0.89679696                0.29884703               -0.23225600                0.42023398                8.05084716               -1.15418010
               5.66004832                5.09235434               24.94278879                0.00010000               -1.60913587                0.30425726               -0.19686003                0.94137374               12.42474775               -0.62305436
               6.64391315                4.98332754               24.94869248                0.00010000               -1.60334086                0.34390572               -0.21316906                0.69279152               11.67310545                0.06783797
               7.62798150                4.87544328               24.94995149                0.00010000               -1.55568724                0.32312848               -0.27054061                0.54863366               11.36693915                0.91401359
               8.61279941                4.77035381               24.94936490                0.00010000               -1.44302348                0.22025930               -0.35991020                0.53773415               11.33804070                1.88356594
               9.59912103                4.66986553               24.94942509                0.12441261               -0.60042672                0.03781353               -0.47864768                0.23442711                5.88743470                2.87070288
              10.60079087                4.56598459               24.83895858                0.74303668                0.23036000                0.22101682               -0.81765258                0.01389514                0.22338063                1.09116276
              11.60372823                4.46201950               24.72547345                1.00000000                0.29373632                0.40358703               -1.18013061               -0.02108162                0.07785308               -0.44736413
               1.80220393                6.56785343               25.19705771                0.99498870               -0.11979452               -0.18804869                0.56403114               -0.02464250                0.06717106                0.96119953
               2.80100599                6.44640196               25.07729826                0.56403807               -0.07999712               -0.07615135                0.25845585               -0.00616961                0.24314778               -0.58229782
               3.80060399                6.32450153               24.96099992                0.03356830               -0.32932379                0.03759553               -0.03508644                0.15664638                3.42904709               -2.12102815
               4.79441951                6.20539391               24.90495719                0.00010000               -1.19197365                0.47826896               -0.44503534                0.35769782               10.49190658                0.08425262
               5.77676452                6.09653724               24.92935022                0.00010000               -1.83199404                0.51956269               -0.27331920                0.69109864               14.25413738               -0.00753084
               6.75777963                5.98773090               24.94894185                0.00010000               -1.91655870                0.54644780               -0.22420159                0.42512927               13.88069560                0.40532391
               7.73843334                5.87940525               24.96581590                0.00010000               -1.90069458                0.47883429               -0.22816930                0.19654906               13.73512829                1.03474563
               8.71976574                5.77291577               24.98209091                0.00010000               -1.78861350                0.29309210               -0.26610025                0.12135099               13.78759154                1.80316456
               9.70266107                5.67010625               24.99932067                0.14256614               -0.79107502                0.01199215               -0.32842752                0.00880273                7.03727266                2.62413917
              10.70394424                5.56802631               24.87967430                0.65024665                0.19569413                0.18826223               -0.70691537                0.01249394                0.12868977                1.01247121
              11.70657495                5.46596399               24.75845182                1.00000000                0.26307171                0.38030908               -1.09158444               -0.01606086                0.05669009               -0.50009731
               1.92285284                7.56621654               25.16389822                0.97616946               -0.07899995               -0.14026294                0.42683041               -0.02344776                0.02793542                0.87533880
               2.92206284                7.44587008               25.03627936                0.49229280               -0.03637980               -0.03142263                0.11209604               -0.00316449                0.16343472               -0.64563050
               3.92212524                7.32511402               24.91131133                0.00496364               -0.54243621                0.08157920               -0.19891422                0.33958771                5.46088508               -2.29572554
               4.91121412                7.21069595               24.88964224                0.00010000               -1.52959737                0.56728544               -0.46162195                0.53300406               13.27923060                0.27165146
               5.89153330                7.10274559               24.92080002                0.00010000               -2.08331987                0.72493621               -0.30270792                0.59698725               15.89380843                0.29091011
               6.86954772                6.99425650               24.95171091                0.00010000               -2.24028395                0.77859243               -0.21906179                0.22663189               15.87408241                0.54295964
               7.84672762                6.88501997               24.98233077                0.00010000               -2.25111467                0.67187091               -0.18192211               -0.14751228               15.93112991                1.01073700
               8.82452543                6.77621565               25.01393966                0.00010000               -2.12705336                0.38990540               -0.17550312               -0.35651995               16.10746848                1.65425323
               9.80418655                6.67010537               25.04740708                0.16737472               -0.96712054               -0.00932665               -0.19198982               -0.26901997                8.17052369                2.43889226
              10.80518301                6.56974984               24.91943123                0.60503271                0.16725555                0.15754137               -0.59897299                0.00294375                0.07157701                0.90838487
              11.80753166                6.46962568               24.79062257                0.98947164                0.23486464                0.34967104               -1.00591410               -0.01171869                0.03811692               -0.58003919
               2.04242790                8.56504817               25.13024612                0.96566942               -0.03826924               -0.09506851                0.29194706               -0.02247180                0.01008352                0.85458116
               3.04204521                8.44577351               24.99499101                0.47776774                0.00709806                0.01185822               -0.03139384               -0.00035942                0.05742704               -0.65576266
               4.04256987                8.32613311               24.86062237                0.00010000               -0.72985942                0.12107511               -0.35793319                0.53857592                7.39656700               -2.21661786
               5.02744802                8.21673961               24.87214530                0.00010000               -1.87130741                0.69110468               -0.41481090                0.80700296               16.17689732                0.17857168
               6.00514372                8.11103596               24.91346771                0.00010000               -2.37050669                0.95548679               -0.29988810                0.58850407               17.66928574                0.30237337
               6.98003789                8.00330275               24.95489142                0.00010000               -2.58098887                1.01688035               -0.20574222                0.10523018               17.76944729                0.48224183
               7.95352394                7.89284267               24.99795810                0.00010000               -2.62439759                0.94426797               -0.13548819               -0.41612185               18.01709325                0.81965204
               8.92754994                7.78071388               25.04394600                0.00010000               -2.48887279                0.57392883               -0.09201541               -0.89980389               18.38084099                1.37141681
               9.90374648                7.66991972               25.09373520                0.19647863               -1.15335699               -0.02092775               -0.07377776               -0.61634302                9.33208197                2.17863034
              10.90448280                7.57117714               24.95807921                0.59644540                0.14212040                0.13156025               -0.50106459               -0.01176924                0.04388337                0.81339807
              11.90658889                7.47295741               24.82179353                0.98142786                0.21060940                0.31510247               -0.92894043               -0.00767269                0.02221349               -0.67528444
               2.16095273                9.56431517               25.09661878                0.95882215                0.00179818               -0.05330799                0.15959612               -0.02192227               -0.00949591                0.73550497
               3.16097071                9.44610724               24.95370896                0.49819398                0.04889629                0.05454951               -0.17239404                0.00080603                0.07528804               -0.56085791
               4.16193066                9.32753553               24.81243295                0.00010000               -0.92596928                0.15879131               -0.50384162                0.80251737                9.35583297               -1.52614428
               5.14245133                9.22451805               24.85512225                0.00010000               -2.25952081                1.03413991               -0.41073473                0.84437144               18.93441434                0.18933609
               6.11674024                9.12185533               24.90535364                0.00010000               -2.63028578                1.13453954               -0.30645904                0.46721488               19.37704025                0.17446165
               7.08984561                9.01459410               24.95663646                0.00010000               -2.78730937                1.17814077               -0.19987476                0.05342152               19.59060584                0.27596479
               8.06099405                8.90390533               25.01085420                0.00010000               -3.01966563                1.17355171               -0.09899364               -0.43073514               20.00898067                0.46194609
               9.02945230                8.78769423               25.07029311                0.00010000               -2.97988108                1.05635781               -0.00333935               -1.08510486               20.61696382                0.82056934
              10.00139643                8.66968681               25.13655796                0.22645842               -1.37711792               -0.00829244                0.02231991               -1.05125898               10.62952217                1.44088450
              11.00190994                8.57238104               24.99584809                0.61597350                0.12106166                0.11335549               -0.41726533               -0.02870965                0.13293558                0.64507423
              12.00381766                8.47592773               24.85185106                0.96159938                0.19077240                0.28056505               -0.86461501               -0.00692484               -0.01958898               -0.63762294
               2.27840532               10.56398201               25.06051770                0.97917152                0.04356579               -0.03331577                0.02788134                0.03350745                0.40372758                0.61587826
               3.27884098               10.44686450               24.91426726                0.78912089                0.09020443                0.07572588               -0.30876514                0.05337267                0.78185208               -0.46664657
               4.28020941               10.32930894               24.77551648                0.46743495               -1.44126626                0.17734117               -0.63360174                1.35577072               11.21736760               -0.96225939
               5.25001565               10.23742241               24.83796546                0.31280192               -2.78987241                1.29043664               -0.46981436                0.97732309               21.09484496                0.16852672
               6.22441196               10.13372675               24.89567730                0.30349105               -2.54796657                1.18714236               -0.34266546                0.23932958               21.00167835                0.08882780
               7.19905632               10.02686557               24.95581205                0.32043782               -2.63014233                1.22714648               -0.21374542                0.05041858               21.30842559                0.14686350
               8.17180911                9.91631371               25.01937813                0.36201161               -2.94949826                1.24083777               -0.08554232               -0.16972067               21.80572211                0.25051556
               9.14006635                9.80184104               25.08934236                0.47545686               -3.68873117                1.41468077                0.05494651               -1.26658613               22.53810078                0.47007636
              10.09803449                9.66975387               25.16789177                0.63157092               -2.11993338                0.00670572                0.07640567               -1.75603364               12.16129389                0.88545064
              11.09766769                9.57344425               25.03092526                0.83067373                0.06612651                0.10632038               -0.34985890                0.01651662                0.88197989                0.52557497
              12.09935702                9.47856871               24.88356819                0.97588049                0.16893320                0.26409781               -0.80579041                0.06638172                0.37631465               -0.54369469
               1.13272449                0.62851545               26.38825034                1.00000000               -0.34561903               -0.37384814                1.30343383               -0.06450036               -0.85065825                0.87895316
               2.12926830                0.49375693               26.30203711                1.00000000               -0.29148603               -0.29543128                1.04583964               -0.05017001               -1.09408656                0.07995716
               3.12689477                0.35872024               26.21094037                1.00000000               -0.16798428               -0.21713352                0.77538186               -0.04160871               -1.05163049               -0.21046909
               4.12590861                0.22441405               26.12561296                0.63273074                0.25486545               -0.17020162                0.51412854                0.39476125               -0.15508655               -0.72415741
               5.13199207                0.10023673               26.05254410                0.68916449                0.40152434               -0.05690606                0.22409848               -0.08015214                0.26735155                0.21025938
               6.13393910               -0.01612383               25.97633675                0.75587913                0.14842593                0.02610325               -0.04963290               -0.01064499               -0.07272792                0.12079414
               7.13496059               -0.13084069               25.89659249                0.73581206                0.10160158                0.09879493               -0.32220429                0.00374390               -0.28333560               -0.07065640
               8.13597113               -0.24550027               25.81610984                0.85366217                0.12567817                0.18497386               -0.60462525                0.01096635               -0.53973488                0.09720003
               9.13747416               -0.36172359               25.73099731                1.00000000                0.21284678                0.27195490               -0.88590082                0.00069420               -0.87240044                0.50414595
              10.14022806               -0.47920598               25.64365326                1.00000000                0.32698881                0.34350775               -1.16042452               -0.03854735               -0.89021288                0.00682051
              11.14401393               -0.59689505               25.55813184                1.00000000                0.37858684                0.42441997               -1.42355843               -0.05027154               -0.80037633               -0.80342690
               1.26683800                1.62477697               26.35358280                1.00000000               -0.31738066               -0.35581008                1.17912955               -0.02386277               -0.11852509                1.19539268
               2.26366420                1.49080261               26.26703187                1.00000000               -0.28439435               -0.27472108                0.92295738               -0.00631240               -0.10571364                0.11154618
               3.26115012                1.35654891               26.18069951                0.92191223               -0.22831076               -0.19408842                0.65830105                0.01266476                0.08788089               -0.57137061
               4.25909798                1.22271203               26.09798551                0.21155988               -0.48453134               -0.15591282                0.38856479                0.56065178                1.63760826               -1.12434228
               5.25145949                1.09966767               26.04256470                0.32343975               -0.48633146                0.06022587                0.14413762               -0.10653182                2.38739863                1.00308514
               6.24937135                0.98413721               25.97411976                0.39663798               -0.08866187                0.08396779               -0.10862711                0.11391078                1.51778519                0.42377191
               7.24968625                0.87014726               25.90113629                0.29907840                0.10754449                0.08321769               -0.36234173                0.16561209                1.42704409               -0.35682018
               8.25152224                0.75634947               25.83089571                0.47066567                0.23238495                0.18638571               -0.61134231                0.16250925                1.43162097                0.60549234
               9.25433395                0.64099596               25.75817284                1.00000000                0.29530386                0.26335853               -0.85942745                0.07333003                0.72888801                0.73948800
              10.25742832                0.52422910               25.67402979                1.00000000                0.34331677                0.33624195               -1.12129239                0.00372173                0.09018243                0.10396078
              11.26120029                0.40734915               25.58856235                1.00000000                0.37719675                0.41926386               -1.38318265               -0.00858800                0.02258530               -0.95131076
               1.40019594                2.62139925               26.32521457                1.00000000               -0.28258315               -0.32561152                1.06529585               -0.01640336                0.04368178                1.51773802
               2.39737011                2.48826251               26.23262605                1.00000000               -0.24786475               -0.23893445                0.80356623                0.00800817                0.20480594                0.08609841
               3.39523864                2.35483848               26.14320622                0.58236038               -0.16836076               -0.15890550                0.55053494                0.03169165                0.79131348               -1.34109199
               4.39400289                2.22129579               26.06231795                0.00010000               -1.34011888               -0.13798978                0.26817370                0.78611915                4.57079222               -2.02743302
               5.36843626                2.10144124               26.04845783                0.00010000               -1.41325879                0.12310399                0.06310537                1.44749750                5.22099665               -1.24556933
               6.36573771                1.98555553               25.97797809                0.00010000               -0.11878466               -0.07292131               -0.15818770                1.20521357                2.01330243               -0.31381366
               7.36606057                1.87082367               25.89997360                0.00010000                0.13174504               -0.13251806               -0.38538580                0.97927347                3.32629066                0.48780829
               8.36837261                1.75822745               25.85587649                0.00010000                0.25002773               -0.09435518               -0.62801900                0.64918035                3.90431349                1.03840532
               9.37106113                1.64354358               25.79010824                0.53176981                0.27883457                0.25341703               -0.82300801                0.10728920                1.91189895                1.48793849
              10.37394931                1.52751886               25.70638641                1.00000000                0.32704719                0.31965606               -1.07557696                0.00964332                0.68426078                0.66174011
              11.37760207                1.41149023               25.61606204                1.00000000                0.36527625                0.41418737               -1.35060813               -0.00743758                0.35327645               -0.96734222
               1.53278342                3.61826474               26.29698115                1.00000000               -0.23982889               -0.30219030                0.94956421               -0.01368223                0.07686450                1.45688527
               2.53038513                3.48602392               26.19708316                1.00000000               -0.20163787               -0.20751589                0.68167853                0.00782267                0.09672038               -0.03663979
               3.52875066                3.35337080               26.09752374                0.34589469               -0.10837664               -0.11937513                0.41944128               -0.00854999                1.04377967               -1.64529088
               4.52821760                3.21995224               26.01655174                0.00010000               -0.63004799               -0.09427851                0.15098740                0.78463175                4.87667466               -2.72399912
               5.51614970                3.10212974               25.99361043                0.00010000               -1.20621994                0.02057756               -0.00632273                2.07462213                7.32537040               -3.10039751
               6.50409320                2.98267878               25.96108429                0.00010000               -0.97749485               -0.08561528               -0.17370756                1.69357960                6.51607562               -1.01344976
               7.49659981                2.86749690               25.92121176                0.00010000               -0.61536328               -0.16480368               -0.35279396                1.38437681                6.06361658                1.13729314
               8.49178593                2.75446237               25.87927965                0.00010000               -0.47057437               -0.17999875               -0.54162048                1.06937899                5.72331159                1.41910449
               9.48718832                2.64606430               25.83226258                0.16492433               -0.10556978                0.16870246               -0.75059715                0.34187772                3.62356015                2.79201568
              10.48967454                2.53062222               25.74794620                1.00000000                0.29602408                0.29228576               -1.00244418               -0.01509643                0.88742857                1.05730162
              11.49310880                2.41563290               25.64614322                1.00000000                0.34342620                0.41496750               -1.31191845               -0.01093736                0.01423092               -0.67324215
               1.66440392                4.61535544               26.26739351                1.00000000               -0.19834198               -0.27396776                0.82479728               -0.02020106                0.10792509                1.29507074
               2.66242050                4.48411219               26.16018934                0.90196468               -0.16322929               -0.16823617                0.55103834               -0.00013052                0.15452091               -0.20151673
               3.66113933                4.35245097               26.05385969                0.16850600               -0.07419579               -0.06486296                0.28867933               -0.05055368                1.16604823               -1.58188429
               4.66093658                4.21941022               25.96687306                0.00010000               -0.69685831                0.05509556                0.01188636                0.59466704                6.27907043               -2.56412302
               5.64720216                4.10185279               25.96276993                0.00010000               -1.33472152                0.08041968               -0.09400549                1.14749959               10.05192672               -1.45341725
               6.63424215                3.98384322               25.95087756                0.00010000               -1.26188214                0.17829551               -0.19630068                1.01154971                9.38240283               -0.39569480
               7.62196452                3.86752759               25.93296173                0.00010000               -1.15246774                0.11994808               -0.31950916                0.85802678                8.94225930                0.77695537
               8.61119279                3.75462747               25.91165887                0.00010000               -1.01128488                0.09162644               -0.46594733                0.78924557                8.80826132                1.93742096
               9.60173882                3.64691763               25.89038497                0.11581449               -0.35570079                0.05466395               -0.64448943                0.32804891                4.81318661                3.36048228
              10.60407878                3.53336458               25.78831583                0.88303447                0.28115714                0.25290277               -0.94426484                0.00081931                0.44652559                1.09381959
              11.60736197                3.41978958               25.67946329                1.00000000                0.32831871                0.41804536               -1.26063223               -0.02249953                0.11054099               -0.46758555
               1.79486591                5.61278538               26.23591813                1.00000000               -0.15789179               -0.23399586                0.69106135               -0.02489681                0.12640789                1.11137317
               2.79328699                5.48265920               26.12130407                0.69070831               -0.12121758               -0.12050814                0.40138353               -0.00711053                0.26353120               -0.42668656
               3.79244155                5.35207354               26.00937270                0.08206743               -0.12889347               -0.00914398                0.12687344               -0.00776975                1.73617074               -1.83076836
               4.79070912                5.22105415               25.92420213                0.00010000               -0.88874308                0.28827340               -0.20852407                0.36951403                8.17959113               -1.25841067
               5.77466669                5.10373814               25.94086608                0.00010000               -1.60298624                0.30117985               -0.18788215                0.84381188               12.72847038               -0.62123913
               6.75864939                4.98624469               25.94654286                0.00010000               -1.58452990                0.33577394               -0.21715251                0.59649775               11.94540902                0.11362226
               7.74297609                4.86989586               25.94717750                0.00010000               -1.52342936                0.30924438               -0.28481644                0.45236426               11.61845745                0.98852424
               8.72818081                4.75629490               25.94565696                0.00010000               -1.39819528                0.20217496               -0.38209187                0.43999764               11.57436608                1.98110298
               9.71501219                4.64715758               25.94449306                0.12064897               -0.56809154                0.01477638               -0.50768411                0.19081200                6.01812932                2.99278861
              10.71681898                4.53568028               25.83068844                0.72405774                0.23983078                0.21522662               -0.83504777                0.01775108                0.23675348                1.15723359
              11.71980880                4.42399381               25.71361639                1.00000000                0.29898288                0.41209346               -1.18951565               -0.02196417                0.07834809               -0.43426773
               1.92415834                6.61067552               26.20263937                0.99340532               -0.11682130               -0.18636093                0.55218535               -0.02460962                0.06626439                0.95975346
               2.92299013                6.48170202               26.07984837                0.55725191               -0.07846755               -0.07273550                0.25135992               -0.00666921                0.24840638               -0.60302928
               3.92258899                6.35226809               25.96063968                0.03590984               -0.31639320                0.04321088               -0.03732622                0.13276831                3.39298454               -2.16680117
               4.91666226                6.22517569               25.90073786                0.00010000               -1.18505647                0.46509757               -0.39715562                0.28574936               10.67432174                0.08961939
               5.89888786                6.10787639               25.92669988                0.00010000               -1.83239413                0.51249627               -0.25643384                0.58965064               14.66470101                0.02676390
               6.88001438                5.99055870               25.94668706                0.00010000               -1.89631287                0.53591420               -0.22707653                0.32258393               14.22438439                0.46033778
               7.86096160                5.87371248               25.96345330                0.00010000               -1.86416749                0.46395969               -0.24497349                0.09533498               14.05505744                1.10923404
               8.84273103                5.75867097               25.97929621                0.00010000               -1.73959606                0.27614705               -0.29338940                0.01636658               14.09701456                1.89714663
               9.82616968                5.64721316               25.99586117                0.13922314               -0.75667282               -0.00124289               -0.36367997               -0.04164687                7.19802864                2.73807940
              10.82759757                5.53766911               25.87248280                0.63394329                0.20629715                0.18481894               -0.73064938                0.01645743                0.13343326                1.07243872
              11.83029562                5.42803145               25.74746175                1.00000000                0.26980497                0.39000920               -1.10530464               -0.01618870                0.05789213               -0.48284010
               2.05232071                7.60905816               26.16810430                0.97509339               -0.07596783               -0.13799901                0.41422599               -0.02339756                0.02718686                0.87537142
               3.05156103                7.48120449               26.03736624                0.48715383               -0.03487284               -0.02811368                0.10501817               -0.00321388                0.16471674               -0.66284261
               4.05162326                7.35293776               25.90931661                0.00585317               -0.53726123                0.08672052               -0.20040967                0.30681976                5.50095981               -2.33781624
               5.04081581                7.23035610               25.88530305                0.00010000               -1.52732811                0.55567668               -0.40215398                0.44014823               13.54015990                0.39630538
               6.02107669                7.11398806               25.91786965                0.00010000               -2.07754135                0.71282468               -0.28259988                0.49524445               16.32575653                0.35641250
               6.99926498                6.99696297               25.94950406                0.00010000               -2.21530828                0.76566374               -0.22259768                0.12473692               16.27023234                0.60296420
               7.97677053                6.87917506               25.98041807                0.00010000               -2.21287611                0.65729026               -0.20124659               -0.24970520               16.31127600                1.08152020
               8.95500746                6.76181784               26.01202917                0.00010000               -2.07947082                0.37715380               -0.20719653               -0.46274803               16.48119886                1.73892810
               9.93518111                6.64713272               26.04528231                0.16477454               -0.93388127               -0.01201842               -0.23319262               -0.32357402                8.36015185                2.53419466
              10.93632983                6.53937666               25.91328770                0.58997080                0.17896206                0.15876453               -0.62952108                0.00492325                0.07179441                0.96005263
              11.93876035                6.43179399               25.78046604                0.98902211                0.24305177                0.35982768               -1.02485685               -0.01105453                0.03857334               -0.56958370
               2.17939773                8.60791554               26.13310014                0.96506841               -0.03514770               -0.09209853                0.27861373               -0.02244893                0.00959172                0.85694827
               3.17904625                8.48113975               25.99464328                0.47422908                0.00880224                0.01482402               -0.03849451               -0.00002931                0.05558663               -0.67001961
               4.17957378                8.35400250               25.85704188                0.00010000               -0.73156664                0.12450049               -0.35845457                0.49831500                7.53970796               -2.24873582
               5.16441492                8.23628922               25.86826078                0.00010000               -1.86939513                0.68054559               -0.35892668                0.71850832               16.53108851                0.29870193
               6.14218587                8.12213288               25.91054281                0.00010000               -2.35463980                0.94047019               -0.28472960                0.50461110               18.10094901                0.36851638
               7.11732212                8.00587198               25.95280357                0.00010000               -2.55366186                1.00473883               -0.21223609                0.02026817               18.20640380                0.53375824
               8.09111264                7.88685829               25.99650152                0.00010000               -2.59018610                0.93389098               -0.15620857               -0.50622244               18.45147570                0.87854895
               9.06551840                7.76621405               26.04285497                0.00010000               -2.44866283                0.56567995               -0.12656135               -0.99888226               18.80878056                1.45304568
              10.04213938                7.64697279               26.09275237                0.19463000               -1.12418167               -0.01358581               -0.12322339               -0.66975425                9.54771586                2.25216412
              11.04303477                7.54084440               25.95287794                0.58108957                0.15502417                0.13871759               -0.53945592               -0.01180620                0.04393084                0.85182087
              12.04523986                7.43522800               25.81237759                0.98164517                0.22050928                0.32537415               -0.95419224               -0.00633361                0.02260898               -0.67621322
               2.30542332                9.60721619               26.09814604                0.95863922                0.00501680               -0.04955718                0.14552545               -0.02195244               -0.01024760                0.73952600
               3.30547349                9.48150097               25.95195110                0.49541564                0.05083818                0.05711597               -0.17964863                0.00114272                0.07524355               -0.57129239
               4.30644008                9.35542777               25.80739907                0.00010000               -0.92089458                0.16018888               -0.50323222                0.75617518                9.57348475               -1.54308050
               5.28705560                9.24396701               25.85115395                0.00010000               -2.24269606                1.01939352               -0.38256878                0.78469010               19.37540093                0.24477013
               6.26158616                9.13279747               25.90231767                0.00010000               -2.60553260                1.12085241               -0.30114932                0.41889197               19.83626390                0.21172235
               7.23494494                9.01705775               25.95458555                0.00010000               -2.76410753                1.17043476               -0.21091329                0.00451963               20.07225861                0.30488821
               8.20630401                8.89785288               26.00975640                0.00010000               -3.00148168                1.17177760               -0.12058228               -0.48888362               20.50748943                0.49578224
               9.17491531                8.77313144               26.07012030                0.00010000               -2.95741700                1.05809882               -0.02946568               -1.15413747               21.09084800                0.88481686
              10.14715567                8.64686101               26.13648834                0.22536265               -1.35384056                0.00743511               -0.03724761               -1.09598981               10.85865550                1.48247897
              11.14783850                8.54215101               25.99144192                0.59850959                0.13554026                0.12619623               -0.46480680               -0.02968539                0.13765683                0.66812970
              12.14986648                8.43830148               25.84304512                0.96228532                0.20279770                0.29125259               -0.89703740               -0.00537563               -0.01760457               -0.64786683
               2.43038912               10.60692440               26.06072585                0.97921925                0.04684100               -0.02917922                0.01336117                0.03234741                0.40619118                0.62044186
               3.43085753               10.48228207               25.91114447                0.78840657                0.09210585                0.07810985               -0.31643025                0.05249868                0.79072116               -0.47444126
               4.43223124               10.35720628               25.76918522                0.46623818               -1.40592549                0.17785144               -0.63323100                1.29886692               11.47575014               -0.97090078
               5.40273902               10.25667709               25.83329259                0.31316200               -2.73791337                1.27100829               -0.46583471                0.93552528               21.60676233                0.18307119
               6.37747297               10.14454993               25.89224235                0.30367749               -2.51909572                1.17524650               -0.34523194                0.21886006               21.51421193                0.10362310
               7.35235711               10.02928067               25.95359645                0.32024255               -2.61058466                1.22229218               -0.23027323                0.02841182               21.84026520                0.15784923
               8.32526128                9.91029384               26.01839746                0.36130289               -2.94647927                1.24409620               -0.11062488               -0.19950569               22.36479219                0.26497486
               9.29342752                9.78737602               26.08977295                0.47798964               -3.70306348                1.42445869                0.03442831               -1.30739591               23.04894140                0.50966022
              10.25120001                9.64712149               26.16832024                0.63161722               -2.12134648                0.02604869                0.00772982               -1.79595094               12.41137027                0.90688780
              11.25100059                9.54336833               26.02715089                0.82106644                0.08157040                0.12173172               -0.40641192                0.01278756                0.90963721                0.54114438
              12.25283142                9.44105306               25.87531560                0.97631709                0.18308237                0.27515802               -0.84562669                0.06496709                0.39086648               -0.55640833
               1.21164604                0.67265976               27.40125705                1.00000000               -0.34503676               -0.37245919                1.29820018               -0.06382710               -0.86474263                0.89167496
               2.20819567                0.53019867               27.31247459                1.00000000               -0.29225370               -0.29385755                1.04198161               -0.04915797               -1.11471831                0.08459216
               3.20580096                0.38744118               27.21868267                1.00000000               -0.17167203               -0.21543580                0.77349126               -0.04199376               -1.07454400               -0.21034412
               4.20476223                0.24532823               27.13074952                0.63265494                0.23428539               -0.16832506                0.51365677                0.37067552               -0.18839970               -0.74363359
               5.21048667                0.11276530               27.05479376                0.68771202                0.37982274               -0.05797007                0.22687264               -0.07807586                0.22271161                0.21998531
               6.21235868               -0.01237201               26.97585256                0.75454083                0.14611081                0.02516752               -0.04678872               -0.01286279               -0.11200577                0.12745850
               7.21340889               -0.13589839               26.89338083                0.73467370                0.10924953                0.09804143               -0.32040667                0.00190454               -0.32751170               -0.07226497
               8.21454367               -0.25925659               26.81007745                0.85180463                0.13735522                0.18369916               -0.60257900                0.00641626               -0.58675727                0.10137306
               9.21615599               -0.38392751               26.72216093                1.00000000                0.21984757                0.26957265               -0.88235946               -0.00219753               -0.91393783                0.51637532
              10.21894063               -0.50970796               26.63208377                1.00000000                0.32807195                0.34204172               -1.15463120               -0.03732972               -0.92194789                0.00684337
              11.22271743               -0.63567549               26.54393857                1.00000000                0.37768048                0.42358287               -1.41634902               -0.04837376               -0.82598695               -0.82611791
               1.35346886                1.66893517               27.36534200                1.00000000               -0.31554775               -0.35484938                1.17282960               -0.02299155               -0.12168222                1.21309202
               2.35031338                1.52726009               27.27623632                1.00000000               -0.28263061               -0.27323405                0.91807417               -0.00530025               -0.11327283                0.11788637
               3.34781624                1.38528682               27.18726231                0.92994882               -0.22532271               -0.19204417                0.65432662                0.01028798                0.07327857               -0.56620334
               4.34580692                1.24364498               27.10185322                0.21821083               -0.46301042               -0.15302386                0.38475063                0.52694149                1.63351313               -1.14093433
               5.33855603                1.11218560               27.04399441                0.32822476               -0.46225089                0.05677370                0.14264887               -0.10086641                2.39714603                1.01199603
               6.33656191                0.98787967               26.97302894                0.40225531               -0.08429068                0.08143194               -0.10895843                0.10399040                1.52476944                0.43517168
               7.33687022                0.86508202               26.89751122                0.30698612                0.10302437                0.08771197               -0.36291740                0.15494721                1.43619407               -0.34969961
               8.33862239                0.74258041               26.82478120                0.47646322                0.22447420                0.18713093               -0.61228687                0.14642402                1.44367355                0.60419532
               9.34135970                0.61876822               26.74958688                1.00000000                0.29094650                0.26202313               -0.85854116                0.06651205                0.73488196                0.75662215
              10.34444132                0.49371246               26.66283197                1.00000000                0.34207603                0.33498785               -1.11923237                0.00476637                0.08962320                0.10824354
              11.34820123                0.36856033               26.57475440                1.00000000                0.37599024                0.41983748               -1.37948158               -0.00671892                0.02244292               -0.97640463
               1.49453635                2.66556277               27.33582860                1.00000000               -0.27983453               -0.32533857                1.05748674               -0.01566197                0.04477395                1.53951771
               2.49173801                2.52473399               27.24063356                1.00000000               -0.24572594               -0.23741262                0.79795076                0.00844959                0.21028221                0.09298688
               3.48962183                2.38360030               27.14869219                0.59665422               -0.16678631               -0.15544222                0.54678542                0.02676129                0.78571927               -1.34209041
               4.48840228                2.24226776               27.06497287                0.00010000               -1.26935857               -0.13388042                0.26260159                0.73991691                4.58916770               -2.03758084
               5.46423466                2.11390078               27.04906546                0.00010000               -1.34301018                0.11069839                0.06053550                1.34872539                5.29114674               -1.23199354
               6.46154208                1.98925663               26.97638282                0.00010000               -0.12137847               -0.07286305               -0.15984104                1.11488373                2.07543937               -0.28152064
               7.46180709                1.86585584               26.89610693                0.00010000                0.11219393               -0.12505866               -0.38840414                0.89920015                3.37735567                0.53017058
               8.46378595                1.74448603               26.84956404                0.00010000                0.22735461               -0.08700845               -0.63618304                0.59234872                3.97206018                1.08506124
               9.46635418                1.62131296               26.78186134                0.53781590                0.27289425                0.25070088               -0.82704234                0.08949267                1.97415785                1.52808453
              10.46924384                1.49699180               26.69562935                1.00000000                0.32665551                0.31660263               -1.07635411                0.00623928                0.70656712                0.68430587
              11.47288729                1.37272126               26.60256873                1.00000000                0.36434543                0.41677201               -1.34862724               -0.00715181                0.36422998               -0.99099117
               1.63481318                3.66242839               27.30643206                1.00000000               -0.23683399               -0.30207983                0.94057525               -0.01362369                0.08144424                1.47312647
               2.63244484                3.52251184               27.20387000                1.00000000               -0.19977405               -0.20554563                0.67562835                0.00771469                0.10445052               -0.03537384
               3.63081770                3.38217798               27.10170720                0.35750190               -0.10700292               -0.11521345                0.41729017               -0.01491931                1.05122214               -1.65761013
               4.63030478                3.24096738               27.01806438                0.00010000               -0.61380146               -0.08918192                0.15181288                0.72487660                4.93518011               -2.74179965
               5.61854167                3.11439957               26.99353518                0.00010000               -1.17001340                0.01136632               -0.00857284                1.91942071                7.44133978               -3.09050628
               6.60690451                2.98642240               26.95932150                0.00010000               -0.94584248               -0.08881516               -0.17889825                1.55541010                6.63018868               -0.96651997
               7.59962482                2.86258085               26.91764044                0.00010000               -0.59461290               -0.16699008               -0.36196398                1.25807748                6.17413913                1.21029120
               8.59501226                2.74084024               26.87381013                0.00010000               -0.44905120               -0.18021668               -0.55311405                0.97953595                5.82660908                1.51480478
               9.59064380                2.62378224               26.82471800                0.16363202               -0.09272230                0.15080925               -0.75874674                0.30300909                3.70381516                2.86605989
              10.59315781                2.50004451               26.73790574                1.00000000                0.29777360                0.28741659               -1.00418034               -0.02288992                0.91701397                1.08570299
              11.59659927                2.37689577               26.63302654                1.00000000                0.34414584                0.41730540               -1.30991465               -0.01012310                0.01357464               -0.68711111
               1.77409698                4.65952117               27.27559133                1.00000000               -0.19542705               -0.27346396                0.81474460               -0.02051755                0.11604022                1.30219710
               2.77214271                4.52062307               27.16566760                0.89165424               -0.16145363               -0.16557494                0.54453470               -0.00098003                0.16850482               -0.21418735
               3.77086791                4.38129603               27.05673452                0.17432394               -0.07322468               -0.06056144                0.28611928               -0.05735183                1.17931813               -1.60988425
               4.77067822                4.24048412               26.96701346                0.00010000               -0.68499329                0.05650941                0.01551923                0.53608057                6.36829375               -2.62905948
               5.75716805                4.11412810               26.96183632                0.00010000               -1.31046085                0.08000201               -0.09302597                1.03657692               10.23336437               -1.45273408
               6.74446900                3.98748033               26.94888664                0.00010000               -1.23086184                0.16840408               -0.20227790                0.89966630                9.56401553               -0.35144224
               7.73255081                3.86251604               26.92970629                0.00010000               -1.11468604                0.10706744               -0.33218562                0.75065526                9.11326000                0.85112309
               8.72217528                3.74088170               26.90691688                0.00010000               -0.96703572                0.07491476               -0.48316062                0.68860047                8.96390890                2.02959418
               9.71321009                3.62432914               26.88384885                0.11182289               -0.32513887                0.02314316               -0.66228530                0.28333844                4.90671663                3.46288943
              10.71567250                3.50274013               26.77882184                0.86380802                0.28861017                0.24588911               -0.95173822               -0.00084869                0.47276808                1.13823464
              11.71898230                3.38106736               26.66683891                1.00000000                0.33097933                0.42199532               -1.26123437               -0.02527483                0.12634404               -0.46706577
               1.91219903                5.65695911               27.24277366                1.00000000               -0.15486427               -0.23294224                0.68001652               -0.02516494                0.12755117                1.11129398
               2.91065038                5.51920034               27.12528159                0.68203916               -0.11947034               -0.11719347                0.39401234               -0.00806361                0.27244131               -0.44881482
               3.90980962                5.38096675               27.01062624                0.08539198               -0.12280324               -0.00372144                0.12360739               -0.01982511                1.72774342               -1.87486178
               4.90819432                5.24209756               26.92223072                0.00010000               -0.87663090                0.28006263               -0.18720557                0.31001967                8.31057735               -1.33838106
               5.89227700                5.11599961               26.93903115                0.00010000               -1.58422082                0.29704179               -0.17937512                0.73171075               13.01440550               -0.60971791
               6.87650990                4.98979049               26.94434943                0.00010000               -1.55202242                0.32480655               -0.22207306                0.48837359               12.20103149                0.16275359
               7.86123655                4.86472220               26.94425516                0.00010000               -1.47693673                0.29166628               -0.30033819                0.34612870               11.85517829                1.06322604
               8.84697117                4.74233853               26.94172307                0.00010000               -1.33922071                0.18023962               -0.40520603                0.33228927               11.79686644                2.07664594
               9.83445214                4.62424510               26.93927141                0.11645231               -0.52842765               -0.01252736               -0.53660890                0.14243579                6.14382285                3.11066320
              10.83640261                4.50496229               26.82225763                0.70449256                0.24935803                0.20678518               -0.84956038                0.02151958                0.25201619                1.22164404
              11.83943930                4.38533568               26.70168314                1.00000000                0.30366844                0.41950872               -1.19542520               -0.02303106                0.07842951               -0.41884271
               2.04911123                6.65486233               27.20810142                0.99178714               -0.11374262               -0.18479565                0.54015182               -0.02462873                0.06529530                0.95740796
               3.04797380                6.51827921               27.08232546                0.55034567               -0.07685219               -0.06910152                0.24389752               -0.00731184                0.25361735               -0.62314697
               4.04757419                6.38122160               26.96025340                0.03736165               -0.30640261                0.04943734               -0.04022019                0.11020892                3.38060558               -2.21069456
               5.04184575                6.24608537               26.89701407                0.00010000               -1.17324247                0.45007900               -0.34692957                0.20586465               10.86209383                0.11629628
               6.02410934                6.12006894               26.92422154                0.00010000               -1.81659310                0.50156478               -0.23925556                0.47307524               15.04414659                0.06846801
               7.00551389                5.99397646               26.94440032                0.00010000               -1.85920005                0.52043915               -0.23086641                0.20872353               14.54525612                0.51779830
               7.98692534                5.86834937               26.96091643                0.00010000               -1.81078645                0.44399788               -0.26313175               -0.01492459               14.35597752                1.18422837
               8.96929816                5.74448649               26.97622312                0.00010000               -1.67451422                0.25484593               -0.32174324               -0.09783903               14.38922256                1.99025844
               9.95343505                5.62407859               26.99204707                0.13544625               -0.71429225               -0.01735193               -0.39914620               -0.09658690                7.35115297                2.85055447
              10.95501232                5.50687583               26.86506131                0.61714720                0.21699210                0.17967351               -0.75298625                0.02057516                0.13903044                1.13103828
              11.95777489                5.38945754               26.73634573                1.00000000                0.27625779                0.39912443               -1.11725263               -0.01647212                0.05876861               -0.46346935
               2.18487270                7.65326320               27.17218274                0.97399291               -0.07278236               -0.13584626                0.40129904               -0.02337758                0.02643102                0.87452183
               3.18414487                7.51781831               27.03837972                0.48176448               -0.03325328               -0.02454706                0.09744938               -0.00331533                0.16601198               -0.67953126
               4.18420763                7.38195550               26.90730314                0.00578452               -0.53403009                0.09271676               -0.20259136                0.27265869                5.57106521               -2.37797344
               5.17346427                7.25109914               26.88159916                0.00010000               -1.51801060                0.53886926               -0.33692359                0.33992627               13.80763120                0.52604434
               6.15384742                7.12603091               26.91514802                0.00010000               -2.05301635                0.69446640               -0.26191556                0.38053471               16.71936948                0.42259888
               7.13240394                7.00019927               26.94725896                0.00010000               -2.17096967                0.74599865               -0.22712037                0.01323049               16.63998188                0.66371610
               8.11042803                6.87360215               26.97830584                0.00010000               -2.15593917                0.63629746               -0.22195141               -0.35935536               16.66951992                1.15393825
               9.08928516                6.74743545               27.00979573                0.00010000               -2.01484822                0.35985865               -0.23997528               -0.57637752               16.83466704                1.82433082
              10.07013106                6.62389806               27.04274323                0.16182552               -0.89249936               -0.01608098               -0.27459354               -0.38184513                8.53916932                2.62725743
              11.07143517                6.50855576               26.90684081                0.57444604                0.19076899                0.15917496               -0.65948011                0.00719898                0.07145011                1.01042603
              12.07394644                6.39331817               26.77012543                0.98839433                0.25112675                0.36982630               -1.04296544               -0.01041608                0.03876378               -0.55731803
               2.31953346                8.65214540               27.13581840                0.96445116               -0.03182583               -0.08916096                0.26476467               -0.02246565                0.00913361                0.85845600
               3.31921520                8.51778826               26.99422112                0.47027522                0.01065343                0.01809476               -0.04625767                0.00041084                0.05402795               -0.68392978
               4.31974653                8.38307594               26.85345328                0.00010000               -0.73231666                0.12875429               -0.35968737                0.45321797                7.71002792               -2.27895210
               5.30456887                8.25686276               26.86496676                0.00010000               -1.85633111                0.66412461               -0.30066458                0.62294018               16.88927744                0.40254103
               6.28261991                8.13395827               26.90777312                0.00010000               -2.31808071                0.91796620               -0.27021046                0.41100879               18.49503533                0.42947294
               7.25820725                8.00889643               26.95064670                0.00010000               -2.50589290                0.98498566               -0.22003794               -0.07174232               18.61829640                0.58502744
               8.23250205                7.88107532               26.99483393                0.00010000               -2.53662764                0.91614417               -0.17782065               -0.60158518               18.86289565                0.94069007
               9.20747470                7.75168366               27.04141477                0.00010000               -2.39121038                0.55185698               -0.16170971               -1.10330915               19.21135129                1.54319940
              10.18467784                7.62375697               27.09127073                0.19264473               -1.08692561               -0.00647690               -0.17305443               -0.72537393                9.74818151                2.32114310
              11.18573619                7.51005933               26.94729009                0.56539281                0.16819566                0.14574602               -0.57825086               -0.01158952                0.04265216                0.88804170
              12.18804175                7.39685406               26.80270969                0.98174432                0.23055643                0.33571096               -0.97966589               -0.00488986                0.02278810               -0.67591437
               2.45313766                9.65147998               27.09952928                0.95846023                0.00848947               -0.04570881                0.13076088               -0.02205526               -0.01096014                0.74290420
               3.45322256                9.51818021               26.95011599                0.49194543                0.05299182                0.06003342               -0.18782781                0.00157158                0.07591433               -0.58166071
               4.45419750                9.38453058               26.80236831                0.00010000               -0.90909071                0.16213408               -0.50323584                0.70155936                9.80260963               -1.55889030
               5.43504074                9.26438164               26.84747088                0.00010000               -2.20817887                0.99718995               -0.35692850                0.71922704               19.81353813                0.27540181
               6.41003392                9.14439023               26.89933065                0.00010000               -2.55943469                1.09957871               -0.29791071                0.36448873               20.26941791                0.24424042
               7.38385205                9.01989898               26.95241819                0.00010000               -2.72124165                1.15521548               -0.22372240               -0.04829648               20.53267963                0.33365277
               8.35560909                8.89192504               27.00844256                0.00010000               -2.96573637                1.16278879               -0.14235730               -0.54999903               20.98925313                0.53265422
               9.32453732                8.75847259               27.06970380                0.00010000               -2.91805849                1.05226392               -0.05161026               -1.22544055               21.53189739                0.96253042
              10.29724792                8.62376853               27.13581301                0.22446968               -1.32155135                0.02354291               -0.09833051               -1.13979002               11.06059517                1.51879662
              11.29810629                8.51147068               26.98655195                0.58105048                0.15056286                0.13949340               -0.51397358               -0.03036292                0.14079948                0.68847953
              12.30025918                8.40003239               26.83391031                0.96265835                0.21528811                0.30227614               -0.93081651               -0.00367025               -0.01546249               -0.65711380
               2.58569191               10.65123123               27.06078492                0.97927944                0.05041255               -0.02487554               -0.00195461                0.03119500                0.40818791                0.62456323
               3.58619603               10.51898893               26.90793866                0.78710340                0.09421900                0.08087259               -0.32536901                0.05171708                0.79984711               -0.48232587
               4.58757629               10.38631862               26.76285186                0.46464089               -1.35511350                0.17880341               -0.63403865                1.22875994               11.73249798               -0.97897452
               5.55909376               10.27680656               26.82864876                0.31350561               -2.65919760                1.24249193               -0.46534058                0.88686321               22.10920463                0.17683104
               6.53439233               10.15594984               26.88877266                0.30386440               -2.46936212                1.15596118               -0.35070676                0.19555059               22.00886392                0.11631630
               7.50970652               10.03200074               26.95120659                0.32004538               -2.57319373                1.21017575               -0.24914858                0.00450962               22.35255104                0.16948814
               8.48292846                9.90433109               27.01716563                0.36057617               -2.92920585                1.24060572               -0.13596739               -0.23165264               22.91310728                0.28222919
               9.45112240                9.77272894               27.09003093                0.48072686               -3.70222547                1.42563528                0.02098349               -1.34665494               23.52291748                0.56183020
              10.40888395                9.62422783               27.16804637                0.63184042               -2.11286677                0.04593080               -0.06374037               -1.83038406               12.62377517                0.92338584
              11.40886507                9.51284920               27.02279702                0.81157779                0.09804909                0.13785171               -0.46585115                0.00946498                0.93462313                0.55413414
              12.41084493                9.40289959               26.86665566                0.97670857                0.19798649                0.28671979               -0.88781507                0.06361459                0.40541399               -0.56787973
               1.29299456                0.71817904               28.41421435                1.00000000               -0.34462561               -0.37117876                1.29340891               -0.06325805               -0.87766742                0.90333286
               2.28954831                0.56792530               28.32287674                1.00000000               -0.29328079               -0.29239299                1.03864541               -0.04823618               -1.13365644                0.08934065
               3.28712895                0.41735408               28.22641019                1.00000000               -0.17593911               -0.21387485                0.77247573               -0.04258239               -1.09535685               -0.20998597
               4.28602953                0.26733398               28.13588610                0.63232228                0.21071581               -0.16639827                0.51461150                0.34471605               -0.21874589               -0.76288198
               5.29134326                0.12623514               28.05708155                0.68615265                0.35411930               -0.05992598                0.23170163               -0.07472599                0.17943695                0.23058122
               6.29311191               -0.00792740               27.97540097                0.75351888                0.14211022                0.02377839               -0.04330584               -0.01529382               -0.15301593                0.13479664
               7.29418547               -0.14054676               27.89018435                0.73386792                0.11719856                0.09739385               -0.31885197               -0.00040351               -0.37318259               -0.07396352
               8.29545588               -0.27288029               27.80405826                0.84948197                0.15018063                0.18270834               -0.60135859                0.00135648               -0.63370575                0.10434489
               9.29718908               -0.40624798               27.71335012                1.00000000                0.22777943                0.26759735               -0.88017094               -0.00508681               -0.95428306                0.52840812
              10.30001147               -0.54056550               27.62056063                1.00000000                0.32977619                0.34138916               -1.15055665               -0.03587635               -0.95270936                0.00627594
              11.30378461               -0.67504908               27.52980486                1.00000000                0.37731334                0.42399735               -1.41108329               -0.04639096               -0.85125409               -0.84876183
               1.44261573                1.71446726               28.37703939                1.00000000               -0.31372966               -0.35397498                1.16676677               -0.02224120               -0.12488408                1.22960566
               2.43947843                1.56500137               28.28539336                1.00000000               -0.28084698               -0.27183699                0.91336249               -0.00440346               -0.12111897                0.12447184
               3.43699879                1.41521533               28.19378604                0.93859299               -0.22211381               -0.19011458                0.65041799                0.00766922                0.05787715               -0.55964135
               4.43503615                1.26567000               28.10568052                0.22411026               -0.43860456               -0.15004791                0.38054872                0.49019980                1.63014756               -1.15655206
               5.42822670                1.12563588               28.04541768                0.33244308               -0.43431129                0.05127279                0.14369742               -0.09268152                2.40890121                1.02377280
               6.42634993                0.99231038               27.97194059                0.40782141               -0.07844091                0.07799771               -0.10788768                0.09422086                1.53224408                0.44825170
               7.42665788                0.86042718               27.89387794                0.31515203                0.09850637                0.09223089               -0.36379794                0.14387077                1.44469594               -0.34295049
               8.42832005                0.72894679               27.81864997                0.48195406                0.21614708                0.18900143               -0.61462014                0.13021727                1.45554346                0.59898150
               9.43098082                0.59642800               27.74100201                1.00000000                0.28666025                0.26110643               -0.85920181                0.05957413                0.74096580                0.77214053
              10.43405326                0.46284839               27.65164515                1.00000000                0.34117281                0.33483536               -1.11912736                0.00623403                0.08901245                0.11223749
              11.43780427                0.32919089               27.56097272                1.00000000                0.37510150                0.42236765               -1.37810171               -0.00458450                0.02257157               -1.00063902
               1.59148151                2.71109954               28.34636430                1.00000000               -0.27693435               -0.32513583                1.04982125               -0.01506338                0.04543580                1.56027237
               2.58871217                2.56248856               28.24858506                1.00000000               -0.24339000               -0.23594830                0.79215790                0.00864090                0.21515087                0.10045860
               3.58661371                2.41355179               28.15414193                0.61169150               -0.16495998               -0.15195340                0.54305614                0.02132002                0.77770023               -1.33999937
               4.58541297                2.26433302               28.06756999                0.00010000               -1.18822304               -0.12971670                0.25690226                0.68829404                4.60721861               -2.04182113
               5.56284925                2.12726060               28.04966854                0.00010000               -1.26039642                0.09564380                0.06322627                1.23961048                5.36262425               -1.21584096
               6.56020504                1.99363255               27.97478127                0.00010000               -0.12113887               -0.07329070               -0.16031126                1.01395171                2.13769297               -0.24839599
               7.56042647                1.86129786               27.89220551                0.00010000                0.09271845               -0.11619083               -0.39241576                0.81016382                3.42564193                0.57037313
               8.56205941                1.73089974               27.84315283                0.00010000                0.20262475               -0.07705887               -0.64795865                0.52984012                4.03786971                1.12857168
               9.56447897                1.59897415               27.77356739                0.54307229                0.26569241                0.24849955               -0.83282900                0.07098289                2.03819260                1.56597987
              10.56737326                1.46613121               27.68485932                1.00000000                0.32644717                0.31477031               -1.07925515                0.00385717                0.72979772                0.70894706
              11.57100791                1.33339827               27.58908949                1.00000000                0.36346543                0.42148037               -1.34942823               -0.00657198                0.37631810               -1.01008754
               1.73953642                3.70796454               28.31579265                1.00000000               -0.23374179               -0.30208778                0.93176940               -0.01367980                0.08568696                1.48875509
               2.73719901                3.56028241               28.21059572                1.00000000               -0.19778472               -0.20358541                0.66942252                0.00734776                0.11223866               -0.03335887
               3.73558073                3.41217626               28.10586955                0.36855875               -0.10528928               -0.11087713                0.41479372               -0.02203098                1.05905403               -1.66748049
               4.73509322                3.26307566               28.01958800                0.00010000               -0.59306778               -0.08351636                0.15208608                0.65800937                4.99089980               -2.75184289
               5.72371937                3.12754876               27.99343898                0.00010000               -1.12507564                0.00207706               -0.01091866                1.74579633                7.55111788               -3.07675956
               6.71259171                2.99084457               27.95750633                0.00010000               -0.90627039               -0.09230508               -0.18451906                1.40010244                6.73782073               -0.91982982
               7.70559397                2.85810336               27.91397248                0.00010000               -0.56755735               -0.16812578               -0.37220663                1.11670275                6.27839154                1.28108470
               8.70124056                2.72740562               27.86821737                0.00010000               -0.42124787               -0.17966615               -0.56623025                0.87818194                5.92656111                1.60953632
               9.69716901                2.60139799               27.81708764                0.16185797               -0.07671390                0.13239278               -0.76975255                0.26137080                3.78523745                2.93580433
              10.69970628                2.46914380               27.72786260                1.00000000                0.29848469                0.28230877               -1.00373097               -0.03033301                0.94910837                1.11562440
              11.70313870                2.33762050               27.61994492                1.00000000                0.34324200                0.41966944               -1.30396405               -0.00998986                0.01326708               -0.69435853
               1.88657218                4.70505779               28.28368840                1.00000000               -0.19247820               -0.27316826                0.80487842               -0.02086150                0.12404932                1.30877397
               2.88464740                4.55841685               28.17108003                0.88127424               -0.15961737               -0.16286794                0.53792598               -0.00196615                0.18247840               -0.22644234
               3.88337983                4.41133424               28.05958207                0.17928254               -0.07233725               -0.05594149                0.28304300               -0.06437986                1.19373485               -1.63668267
               4.88320065                4.26266269               27.96718345                0.00010000               -0.66917823                0.06051239                0.01642281                0.46952187                6.45418473               -2.67869574
               5.86999627                4.12730214               27.96090941                0.00010000               -1.27740829                0.08048991               -0.09272539                0.91202360               10.40561384               -1.44387472
               6.85765249                3.99178645               27.94683200                0.00010000               -1.18983966                0.15707549               -0.20942873                0.77437518                9.73449073               -0.30500987
               7.84619948                3.85793534               27.92631802                0.00010000               -1.06620360                0.09234430               -0.34621223                0.63160149                9.27397779                0.92472976
               8.83632842                3.72730642               27.90199566                0.00010000               -0.91156378                0.05579799               -0.50206185                0.57739961                9.11181636                2.11950226
               9.82796820                3.60162201               27.87713927                0.10742608               -0.28921675               -0.01126804               -0.68145148                0.23280208                5.00088897                3.55903859
              10.83054408                3.47177738               27.76928106                0.84362276                0.29432517                0.23649430               -0.95087249               -0.00445265                0.50225130                1.17987572
              11.83385470                3.34179166               27.65423860                1.00000000                0.33106225                0.42448143               -1.25397440               -0.02918832                0.14129274               -0.46348259
               2.03240106                5.70250117               28.24951846                1.00000000               -0.15178359               -0.23215970                0.66906751               -0.02541366                0.12833164                1.11050500
               3.03088323                5.55702505               28.12918432                0.67328342               -0.11768852               -0.11379509                0.38650095               -0.00903242                0.28116056               -0.47054492
               4.03004729                5.41105743               28.01184485                0.08785009               -0.11837341                0.00215310                0.11992432               -0.03032450                1.72902260               -1.91756978
               5.02851576                5.26428591               27.92045802                0.00010000               -0.86056023                0.27352400               -0.16791258                0.24182319                8.44292880               -1.38963339
               6.01283609                5.12915856               27.93727857                0.00010000               -1.55348734                0.29133681               -0.17155383                0.60442197               13.28314891               -0.58780151
               6.99744601                4.99398608               27.94210140                0.00010000               -1.50650297                0.31093485               -0.22837937                0.36819053               12.43964514                0.21498641
               7.98270603                4.85995025               27.94117074                0.00010000               -1.41720645                0.27055160               -0.31747543                0.22971893               12.07724368                1.13801056
               8.96910188                4.72852158               27.93755284                0.00010000               -1.26759731                0.15485286               -0.42955588                0.21394062               12.00627943                2.17057302
               9.95735408                4.60117263               27.93376089                0.11178495               -0.48271546               -0.04347878               -0.56543536                0.08692272                6.26613286                3.22493959
              10.95944757                4.47387368               27.81369724                0.68429068                0.25861464                0.19646582               -0.86194363                0.02364696                0.26997662                1.28295002
              11.96252638                4.34611013               27.68970789                1.00000000                0.30788014                0.42640533               -1.20016075               -0.02398268                0.07813300               -0.40268277
               2.17701616                6.70041459               28.21344241                0.99014405               -0.11056693               -0.18347779                0.52802152               -0.02464860                0.06427973                0.95418088
               3.17591049                6.55614095               28.08472632                0.54330355               -0.07518406               -0.06534197                0.23619051               -0.00798194                0.25876715               -0.64261479
               4.17551248                6.41137731               27.95983528                0.03795989               -0.29872517                0.05604851               -0.04346802                0.08850236                3.39296662               -2.25276376
               5.16993599                6.26813317               27.89379927                0.00010000               -1.15639703                0.43191938               -0.29487499                0.11796817               11.05554774                0.16817902
               6.15238454                6.13312888               27.92191476                0.00010000               -1.78556889                0.48649520               -0.22249910                0.34200874               15.39147079                0.11772316
               7.13422461                5.99800515               27.94206973                0.00010000               -1.80630931                0.50024213               -0.23620266                0.08391431               14.84285183                0.57755326
               8.11625836                5.86334637               27.95819067                0.00010000               -1.74198832                0.41930403               -0.28301229               -0.13417756               14.63820194                1.25979436
               9.09938485                5.73040347               27.97286135                0.00010000               -1.59519040                0.22956125               -0.35120826               -0.22162067               14.66514328                2.08292726
              10.08435455                5.60075243               27.98787824                0.13116222               -0.66526644               -0.03592115               -0.43456658               -0.15657169                7.49802978                2.96261623
              11.08607952                5.47570670               27.85742308                0.59974847                0.22738047                0.17413580               -0.77404568                0.02481986                0.14633119                1.18871254
              12.08890216                5.35031977               27.72511670                1.00000000                0.28226391                0.40867728               -1.12868665               -0.01669298                0.05939420               -0.44200474
               2.32045538                7.69883162               28.17613028                0.97286806               -0.06944991               -0.13382358                0.38803373               -0.02340105                0.02568263                0.87271613
               3.31976088                7.55571821               28.03931523                0.47623927               -0.03151287               -0.02080310                0.08947147               -0.00358922                0.16731850               -0.69567899
               4.31982512                7.41217840               27.90526478                0.00480256               -0.53186637                0.09904943               -0.20527539                0.23611463                5.67324849               -2.41624377
               5.30912355                7.27292430               27.87856458                0.00010000               -1.50104152                0.51675783               -0.26996881                0.23273507               14.08274860                0.65901735
               6.28980429                7.13888846               27.91263134                0.00010000               -2.01083728                0.67054167               -0.24243318                0.25443617               17.07267437                0.48832713
               7.26890680                7.00399092               27.94496165                0.00010000               -2.10900690                0.72040711               -0.23354066               -0.10747520               16.98299037                0.72500054
               8.24762415                6.86833633               27.97597904                0.00010000               -2.08216978                0.60944987               -0.24445767               -0.47669974               17.00627173                1.22843965
               9.22726341                6.73311280               28.00722967                0.00010000               -1.93523642                0.33832471               -0.27377827               -0.69791719               17.16893689                1.91120906
              10.20891942                6.60045420               28.03979044                0.15842728               -0.84433873               -0.02132812               -0.31554863               -0.44416290                8.70864977                2.71913955
              11.21037663                6.47735640               27.90009810                0.55836845                0.20234765                0.15936961               -0.68851333                0.00994072                0.07100372                1.05977950
              12.21296638                6.35428368               27.75960673                0.98761373                0.25897410                0.38025344               -1.06098061               -0.00955860                0.03888781               -0.54306414
               2.46277496                8.69773812               28.13839544                0.96381657               -0.02830381               -0.08619322                0.25031754               -0.02255658                0.00870106                0.85906492
               3.46249193                8.55572489               27.99371813                0.46594333                0.01268602                0.02160048               -0.05461029                0.00060219                0.05268124               -0.69756396
               4.46302869                8.41335829               27.84984814                0.00010000               -0.73056481                0.13364901               -0.36164475                0.40278522                7.90715578               -2.30755802
               5.44788063                8.27846833               27.86224749                0.00010000               -1.83110214                0.64343762               -0.24828143                0.52109390               17.25314887                0.48495009
               6.42640664                8.14653971               27.90513860                0.00010000               -2.26266922                0.88971388               -0.25866320                0.30839372               18.85197595                0.48378061
               7.40262725                8.01241329               27.94840281                0.00010000               -2.44020821                0.95900007               -0.23027428               -0.17122563               19.00559044                0.63579299
               8.37760248                7.87553537               27.99294511                0.00010000               -2.46593113                0.89189677               -0.20085162               -0.70320016               19.25200592                1.00695126
               9.35330862                7.73716997               28.03962078                0.00010000               -2.31873938                0.53265417               -0.19742896               -1.21450531               19.58932059                1.64505737
              10.33122769                7.60032587               28.08929128                0.19044015               -1.04298816                0.00035494               -0.22233608               -0.78379381                9.93381516                2.38599290
              11.33244886                7.47889409               27.94131292                0.54935525                0.18143703                0.15286354               -0.61725584               -0.01102373                0.03993611                0.92193844
              12.33485643                7.35792484               27.79278428                0.98175483                0.24075711                0.34647753               -1.00619936               -0.00321882                0.02272740               -0.67444685
               2.60403071                9.69710775               28.10076126                0.95829899                0.01220392               -0.04168634                0.11519064               -0.02223169               -0.01166471                0.74573801
               3.60415275                9.55615022               27.94819454                0.48734557                0.05533369                0.06326622               -0.19684587                0.00196160                0.07748973               -0.59218797
               4.60513738                9.41485138               27.79733435                0.00010000               -0.88943695                0.16506943               -0.50460784                0.63926198               10.04105879               -1.57447389
               5.58636401                9.28579305               27.84401538                0.00010000               -2.15550907                0.96948077               -0.33996160                0.64765245               20.24860227                0.27925694
               6.56202720                9.15668274               27.89635945                0.00010000               -2.49386886                1.07262713               -0.29902085                0.30318278               20.67819316                0.27130696
               7.53648663                9.02317092               27.95011110                0.00010000               -2.66118671                1.13401800               -0.23958346               -0.10602838               20.97289994                0.36211087
               8.50880347                8.88617426               28.00690926                0.00010000               -2.91519163                1.14784549               -0.16505130               -0.61542165               21.45720958                0.57331129
               9.47818280                8.74376588               28.06908810                0.00010000               -2.86420236                1.03941965               -0.06954160               -1.30082247               21.93963484                1.05828542
              10.45151942                8.60046130               28.13452173                0.22372975               -1.28128050                0.03983135               -0.15985661               -1.18352400               11.23250839                1.54951040
              11.45255719                8.48041367               27.98116245                0.56363483                0.16605417                0.15333897               -0.56464962               -0.03065845                0.14212951                0.70587929
              12.45484051                8.36121323               27.82442879                0.96271701                0.22833138                0.31399627               -0.96690335               -0.00174505               -0.01321065               -0.66529203
               2.74424541               10.69690440               28.06068676                0.97935657                0.05421255               -0.02033584               -0.01820692                0.03005133                0.40967320                0.62845501
               3.74478753               10.55699021               27.90463709                0.78468821                0.09628436                0.08399973               -0.33542720                0.05124245                0.80949441               -0.49068998
               4.74617109               10.41665968               27.75650444                0.46263688               -1.28926052                0.18083007               -0.63713908                1.14675733               11.98688998               -0.98793265
               5.71900232               10.29785794               27.82398578                0.31384197               -2.55393332                1.20648953               -0.47036193                0.83045953               22.60052655                0.15046579
               6.69509243               10.16799225               27.88522822                0.30404185               -2.39935815                1.13095131               -0.36120969                0.16830754               22.48590366                0.12661141
               7.67101516               10.03509365               27.94861348                0.31984536               -2.51966727                1.19227281               -0.27168034               -0.02214635               22.84623742                0.18183375
               8.64469908                9.89849228               28.01567811                0.35982612               -2.90050132                1.23180177               -0.16248279               -0.26720322               23.45512388                0.30297094
               9.61300513                9.75795836               28.09019262                0.48365052               -3.68948283                1.41924756                0.01460045               -1.38625607               23.95856325                0.63071406
              10.57090942                9.60112250               28.16704543                0.63224133               -2.09606820                0.06611936               -0.13733331               -1.86087419               12.79321707                0.93444250
              11.57108377                9.48196087               28.01783387                0.80227111                0.11564964                0.15472003               -0.52837337                0.00677096                0.95669022                0.56425440
              12.57322242                9.36420476               27.85755930                0.97708477                0.21386497                0.29915367               -0.93363692                0.06258052                0.42002480               -0.57789752
               1.37676790                0.76507633               29.42712523                1.00000000               -0.34412056               -0.36990032                1.28868451               -0.06287453               -0.88949239                0.91412607
               2.37332670                0.60695224               29.33324749                1.00000000               -0.29417169               -0.29110360                1.03545940               -0.04756337               -1.15060974                0.09411977
               3.37088447                0.44848976               29.23413219                1.00000000               -0.18053733               -0.21275029                0.77211408               -0.04330861               -1.11320724               -0.20918132
               4.36971595                0.29048176               29.14104175                0.63140707                0.18380352               -0.16516991                0.51758786                0.31697473               -0.24513555               -0.78115516
               5.37456054                0.14070468               29.05942780                0.68498202                0.32398084               -0.06306007                0.23726335               -0.07050911                0.13663597                0.24265648
               6.37619557               -0.00275532               28.97498645                0.75354289                0.13637036                0.02197185               -0.03968593               -0.01838013               -0.19600618                0.14240474
               7.37728794               -0.14476484               28.88700379                0.73382075                0.12541142                0.09666925               -0.31649734               -0.00320740               -0.41983851               -0.07593861
               8.37870379               -0.28635310               28.79805028                0.84671409                0.16400084                0.18185758               -0.59945291               -0.00437484               -0.68074153                0.10587922
               9.38056796               -0.42866313               28.70455751                1.00000000                0.23639544                0.26568922               -0.87786278               -0.00832993               -0.99385466                0.54018254
              10.38343170               -0.57175147               28.60907264                1.00000000                0.33179710                0.34099838               -1.14684887               -0.03424914               -0.98285796                0.00474027
              11.38720390               -0.71498645               28.51571690                1.00000000                0.37722005                0.42493682               -1.40665735               -0.04413689               -0.87654513               -0.87227923
               1.53426324                1.76137732               29.38867734                1.00000000               -0.31188919               -0.35306864                1.16102046               -0.02182909               -0.12819533                1.24517008
               2.53114435                1.60404121               29.29450357                1.00000000               -0.27883058               -0.27057253                0.90877476               -0.00391848               -0.12946679                0.13115372
               3.52868663                1.44636226               29.20027067                0.94877094               -0.21830537               -0.18864763                0.64639161                0.00476468                0.04128472               -0.55140630
               4.52677824                1.28883006               29.10946420                0.22863386               -0.41063208               -0.14789520                0.37751867                0.45079581                1.62884509               -1.16968736
               5.52047398                1.14007408               29.04686835                0.33680018               -0.40158567                0.04289930                0.14904030               -0.08251683                2.42466046                1.04034098
               6.51874652                0.99746440               28.97087118                0.41426915               -0.07096108                0.07391480               -0.10522698                0.08455831                1.53871683                0.46153500
               7.51905476                0.85620185               28.89023526                0.32405911                0.09313333                0.09668085               -0.36422599                0.13307528                1.45080151               -0.33732787
               8.52060919                0.71546547               28.81248879                0.48719623                0.20645417                0.19215835               -0.61803647                0.11347933                1.46650297                0.58882450
               9.52318385                0.57399376               28.73240284                1.00000000                0.28208399                0.26050297               -0.86127944                0.05183089                0.74684801                0.78593652
              10.52625087                0.43165851               28.64044942                1.00000000                0.34068354                0.33523775               -1.12077664                0.00775738                0.08791227                0.11513796
              11.52999752                0.28926292               28.54719237                1.00000000                0.37466460                0.42668739               -1.37884770               -0.00208912                0.02272305               -1.02566329
               1.69100355                2.75801495               29.35682503                1.00000000               -0.27401552               -0.32489647                1.04300088               -0.01453880                0.04542111                1.58025856
               2.68826339                2.60154079               29.25647671                1.00000000               -0.24063174               -0.23457585                0.78618061                0.00851137                0.21883014                0.10855083
               3.68619091                2.44471681               29.15955331                0.62747967               -0.16216733               -0.14870137                0.53766092                0.01514673                0.76660020               -1.33433291
               4.68502005                2.28752385               29.07011092                0.00010000               -1.09575273               -0.12565012                0.25075915                0.63104832                4.62714365               -2.03787297
               5.66427586                2.14156266               29.05032999                0.00010000               -1.16305437                0.07747155                0.07011670                1.11854215                5.43940225               -1.19683059
               6.66175896                1.99872298               28.97317660                0.00010000               -0.11637409               -0.07446598               -0.16266310                0.89935077                2.19730851               -0.21598575
               7.66194838                1.85716877               28.88825861                0.00010000                0.07112565               -0.10559050               -0.39599060                0.70969648                3.46789346                0.60753755
               8.66318147                1.71749006               28.83660486                0.00010000                0.17315810               -0.06386728               -0.66281351                0.45986367                4.10051805                1.16898456
               9.66541154                1.57654693               28.76520476                0.54763484                0.25681107                0.24663467               -0.84129327                0.04913484                2.10472459                1.60083867
              10.66831769                1.43495329               28.67404425                1.00000000                0.32708891                0.31383715               -1.08580009                0.00160975                0.75310266                0.73629265
              11.67195332                1.29354730               28.57558017                1.00000000                0.36356238                0.42982901               -1.35573388               -0.00547708                0.38890121               -1.02366939
               1.84692078                3.75487939               29.32506745                1.00000000               -0.23080601               -0.30220547                0.92373692               -0.01341195                0.08949670                1.50386554
               2.84461272                3.59934969               29.21725845                1.00000000               -0.19571386               -0.20175814                0.66327414                0.00720274                0.11982644               -0.03032919
               3.84300650                3.44338823               29.11000307                0.37839668               -0.10296854               -0.10648664                0.41105878               -0.02921787                1.06649302               -1.67433064
               4.84255335                3.28631705               29.02110610                0.00010000               -0.56804000               -0.07418328                0.14864582                0.58249039                5.03809271               -2.74645353
               5.83164570                3.14162351               28.99331680                0.00010000               -1.07129599               -0.00758237               -0.01463850                1.55069681                7.65233765               -3.06199969
               6.82112743                2.99597508               28.95563112                0.00010000               -0.85820489               -0.09689593               -0.19143848                1.22288934                6.83865410               -0.87395944
               7.81448160                2.85409004               28.91019631                0.00010000               -0.53495582               -0.16781994               -0.38392791                0.95656875                6.37605936                1.34905563
               8.81042831                2.71418813               28.86248552                0.00010000               -0.38891413               -0.17768928               -0.58043054                0.76226509                6.02137351                1.70382382
               9.80670332                2.57892645               28.80932295                0.15971394               -0.05728084                0.11448718               -0.78510680                0.21390323                3.86671114                3.00118509
              10.80928270                2.43793526               28.71783112                1.00000000                0.29983160                0.27748586               -1.00879901               -0.03832267                0.98636197                1.15103522
              11.81269995                2.29785950               28.60694726                1.00000000                0.34172583                0.42437262               -1.29934022               -0.01058810                0.01963958               -0.69092681
               2.00179471                4.75197084               29.29168890                1.00000000               -0.18961006               -0.27320932                0.79558940               -0.02086311                0.13205932                1.31466677
               2.99989861                4.59750563               29.17642612                0.87085283               -0.15777598               -0.16032674                0.53141056               -0.00246418                0.19645449               -0.23816157
               3.99863919                4.44258707               29.06239538                0.18305270               -0.07320179               -0.05130397                0.27946854               -0.06777877                1.20776000               -1.66196837
               4.99843458                4.28604019               28.96734191                0.00010000               -0.65037117                0.06860102                0.01634926                0.39448821                6.53468101               -2.70636813
               5.98563177                4.14141101               28.95998181                0.00010000               -1.23421816                0.08073613               -0.09388963                0.76978848               10.56974780               -1.42769847
               6.97375021                3.99678506               28.94469806                0.00010000               -1.13825327                0.14387030               -0.21871619                0.63422837                9.89380641               -0.25702128
               7.96286670                3.85381237               28.92278205                0.00010000               -1.00799261                0.07598589               -0.36220587                0.49998001                9.42473854                0.99746042
               8.95359036                3.71393628               28.89687565                0.00010000               -0.84621152                0.03480902               -0.52238772                0.45512959                9.25123062                2.20721175
               9.94594247                3.57883667               28.87021982                0.10266197               -0.24860829               -0.04607690               -0.70550542                0.17469004                5.09831131                3.65313952
              10.94861820                3.44050300               28.75980439                0.82265111                0.29753010                0.22720087               -0.94374094               -0.01147356                0.53874011                1.21821032
              11.95189308                3.30203475               28.64175942                1.00000000                0.32748807                0.42722142               -1.24585475               -0.03279045                0.15806896               -0.45667914
               2.15543394                5.74941521               29.25615501                1.00000000               -0.14867365               -0.23183602                0.65839539               -0.02549016                0.12888510                1.10874621
               3.15394721                5.59614316               29.13301161                0.66464918               -0.11587851               -0.11048166                0.37902670               -0.00976950                0.28986771               -0.49187693
               4.15311637                5.44236215               29.01302473                0.08935828               -0.11640171                0.00796618                0.11611591               -0.03663527                1.73988234               -1.95859651
               5.15161917                5.28768907               28.91887247                0.00010000               -0.84098860                0.26511015               -0.14714378                0.16593633                8.57724070               -1.40874835
               6.13629660                5.14323823               28.93560007                0.00010000               -1.51042676                0.28298121               -0.16482794                0.45999672               13.53515977               -0.55595738
               7.12141064                4.99885249               28.93978185                0.00010000               -1.44833081                0.29411043               -0.23688912                0.23581699               12.66120253                0.27022628
               8.10732998                4.85560976               28.93790565                0.00010000               -1.34520133                0.24622901               -0.33690238                0.10314387               12.28533023                1.21291262
               9.09450661                4.71488431               28.93313195                0.00010000               -1.18497925                0.12659656               -0.45578745                0.08591225               12.20410973                2.26380051
              10.08363040                4.57800491               28.92796271                0.10663490               -0.43257322               -0.07676524               -0.59418156                0.02432046                6.38788433                3.33831887
              11.08585515                4.44247927               28.80501876                0.66349256                0.26751270                0.18731092               -0.87495801                0.02406495                0.29265635                1.34101080
              12.08898065                4.30640392               28.67767992                1.00000000                0.31255078                0.43419252               -1.20772737               -0.02341217                0.07712203               -0.38620609
               2.30782901                6.74733412               29.21866185                0.98847492               -0.10727304               -0.18253537                0.51581899               -0.02468687                0.06332452                0.94979473
               3.30675628                6.59529600               29.08704927                0.53624890               -0.07342203               -0.06151172                0.22834094               -0.00890914                0.26403539               -0.66139313
               4.30636057                6.44274640               28.95938403                0.03769434               -0.29395283                0.06278076               -0.04674027                0.06766352                3.43144035               -2.29269631
               5.30087722                6.29134239               28.89111657                0.00010000               -1.13461383                0.40710995               -0.24004479                0.02288774               11.25482489                0.24488644
               6.28366829                6.14707064               28.91977156                0.00010000               -1.73910989                0.46676920               -0.20697471                0.19660559               15.70471964                0.17393682
               7.26609502                6.00266727               28.93967627                0.00010000               -1.73852668                0.47568572               -0.24402460               -0.05141368               15.11682110                0.63958898
               8.24889776                5.85873695               28.95525619                0.00010000               -1.65907880                0.39033738               -0.30541928               -0.26217969               14.90257013                1.33634178
               9.23291345                5.71646821               28.96919895                0.00010000               -1.50319213                0.20079453               -0.38229459               -0.35448503               14.92674288                2.17592598
              10.21883392                5.57730136               28.98335574                0.12629674               -0.61064829               -0.05685477               -0.47012474               -0.22068802                7.64111534                3.07549991
              11.22070048                5.44424922               28.84958040                0.58164168                0.23708075                0.16911181               -0.79271715                0.03005229                0.15665500                1.24697460
              12.22357553                5.31071860               28.71377200                1.00000000                0.28750483                0.41926937               -1.14001966               -0.01674868                0.06051917               -0.41627024
               2.45901646                7.74576450               29.17994342                0.97171124               -0.06597064               -0.13191967                0.37436165               -0.02350341                0.02495371                0.86975438
               3.45835675                7.59491292               29.04016915                0.47064406               -0.02966019               -0.01691612                0.08117372               -0.00434450                0.16863625               -0.71119357
               4.45842325                7.44361776               28.90319763                0.00302031               -0.53020321                0.10544045               -0.20808984                0.19590341                5.80766306               -2.45222681
               5.44775268                7.29583127               28.87619979                0.00010000               -1.47597085                0.48842850               -0.20401026                0.12100043               14.36393310                0.78906688
               6.42890383                7.15257361               28.91029936                0.00010000               -1.95183188                0.64175628               -0.22609798                0.11853675               17.38401284                0.55232796
               7.40871605                7.00836620               28.94258814                0.00010000               -2.03091937                0.68977887               -0.24307741               -0.23697891               17.29913872                0.78672022
               8.38828545                6.86341650               28.97341668                0.00010000               -1.99317738                0.57735869               -0.26968450               -0.60197822               17.32255976                1.30570694
               9.36885250                6.71890020               29.00432017                0.00010000               -1.84249097                0.31290866               -0.30908012               -0.82735968               17.48635566                2.00061122
              10.35143563                6.57686782               29.03643226                0.15448041               -0.79067713               -0.02779103               -0.35555163               -0.51052993                8.87093474                2.81143117
              11.35303896                6.44586151               28.89307054                0.54167872                0.21356481                0.15922604               -0.71650070                0.01314629                0.07120210                1.10847196
              12.35570692                6.31478931               28.74890582                0.98671996                0.26679670                0.39122340               -1.07999728               -0.00831716                0.03888321               -0.52616779
               2.60906210                8.74469573               29.14082475                0.96316211               -0.02459718               -0.08305399                0.23515802               -0.02273826                0.00827857                0.85865872
               3.60881612                8.59495768               28.99312891                0.46141300                0.01490948                0.02522825               -0.06345215                0.00009932                0.05143199               -0.71080718
               4.60936029                8.44485521               28.84622039                0.00010000               -0.72373709                0.13835170               -0.36399648                0.34639332                8.12608029               -2.33445134
               5.59434138                8.30111096               28.86000114                0.00010000               -1.79280923                0.61986038               -0.20822330                0.41427780               17.61984010                0.54049035
               6.57350410                8.15990576               28.90259986                0.00010000               -2.19144136                0.85765698               -0.25224476                0.19750576               19.17426987                0.53012387
               7.55051256                8.01646284               28.94604122                0.00010000               -2.35899525                0.92821638               -0.24443026               -0.27887193               19.36883487                0.68587506
               8.52632420                7.87028413               28.99081690                0.00010000               -2.37988070                0.86208782               -0.22654730               -0.81228125               19.62009927                1.07824078
               9.50291494                7.72272638               29.03746619                0.00010000               -2.23310953                0.50831305               -0.23441328               -1.33367696               19.94497665                1.76194238
              10.48166201                7.57674554               29.08682401                0.18788760               -0.99365132                0.00683822               -0.27030973               -0.84522700               10.10622707                2.44790619
              11.48304192                7.44743374               28.93494497                0.53298030                0.19457895                0.16029018               -0.65652273               -0.00998062                0.03581974                0.95372773
              12.48555358                7.31854307               28.78258570                0.98173015                0.25116697                0.35811063               -1.03503085               -0.00129957                0.02239349               -0.67149465
               2.75803780                9.74410342               29.10183310                0.95814525                0.01614603               -0.03732033                0.09863106               -0.02246253               -0.01245396                0.74800516
               3.75819926                9.59541749               28.94617907                0.48221494                0.05800180                0.06661816               -0.20648815                0.00167437                0.07914439               -0.60279197
               4.75919783                9.44638480               28.79227615                0.00010000               -0.86057884                0.16822831               -0.50845602                0.57080511               10.28328748               -1.59072629
               5.74098768                9.30822848               28.84067165                0.00010000               -2.08478850                0.93820567               -0.33562518                0.56905454               20.67767741                0.25829930
               6.71750206                9.16972675               28.89335024                0.00010000               -2.41137188                1.04193892               -0.30646849                0.23403248               21.06498194                0.29204431
               7.69276024                9.02693053               28.94762652                0.00010000               -2.58628908                1.10849027               -0.26021812               -0.16998357               21.39385264                0.39006035
               8.66577628                8.88065826               29.00514153                0.00010000               -2.85213499                1.12843391               -0.19047380               -0.68682322               21.91484935                0.61840141
               9.63571754                8.72906646               29.06831297                0.00010000               -2.79762770                1.02038970               -0.08494238               -1.38211365               22.31556336                1.17659547
              10.60982373                8.57700458               29.13261588                0.22308279               -1.23378615                0.05618692               -0.22070629               -1.22770553               11.37303505                1.57496784
              11.61104182                8.44906731               28.97525896                0.54631151                0.18192765                0.16788542               -0.61675566               -0.03049858                0.14149973                0.72049289
              12.61346228                8.32195152               28.81457224                0.98199671                0.24204604                0.32687773               -1.00647935                0.00047025               -0.01088646               -0.67204722
               2.90598471               10.74394932               29.06042078                0.97944992                0.05835223               -0.01540965               -0.03574553                0.02876279                0.41052511                0.63215245
               3.90656823               10.59629004               28.90123011                0.78175299                0.09903416                0.08725516               -0.34605971                0.05041988                0.81833305               -0.49955164
               4.90796539               10.44821977               28.75010908                0.46049817               -1.20938569                0.18349738               -0.64318232                1.05600763               12.23665796               -0.99948316
               5.88238052               10.31987507               28.81924152                0.31415177               -2.42413448                1.16465911               -0.48156534                0.76552226               23.07798868                0.10897921
               6.85948270               10.18074454               28.88154846                0.30421694               -2.30995716                1.10177901               -0.37871021                0.13594285               22.94451475                0.13382086
               7.83618138               10.03863265               28.94577298                0.31963738               -2.45154522                1.17021217               -0.29974071               -0.05247363               23.32194116                0.19475941
               8.81045180                9.89285281               29.01391597                0.35905320               -2.86275147                1.21945460               -0.19239404               -0.30737191               23.99536137                0.32775854
               9.77892635                9.74313418               29.09032294                0.48671275               -3.66723797                1.40677175                0.01223723               -1.42829603               24.35624245                0.72030025
              10.73710704                9.57786928               29.16529970                0.63279452               -2.07206727                0.08646998               -0.21221324               -1.88880519               12.91622355                0.93988234
              11.73748500                9.45079145               29.01222955                0.79317386                0.13437638                0.17241359               -0.59412260                0.00488491                0.97581558                0.57146879
              12.73979457                9.32508062               28.84798292                0.97747013                0.23095669                0.31290965               -0.98452736                0.06214576                0.43477133               -0.58617157
               1.46296019                0.81335735               30.43998804                1.00000000               -0.34310316               -0.36864869                1.28363231               -0.06226317               -0.90119085                0.92518806
               2.45952916                0.64729555               30.34358593                1.00000000               -0.29448210               -0.29003187                1.03203802               -0.04653328               -1.16644276                0.09876560
               3.45707055                0.48089348               30.24185247                1.00000000               -0.18489745               -0.21273951                0.77103980               -0.04214705               -1.12825516               -0.20934618
               4.45583121                0.31486599               30.14623786                0.63007952                0.15303719               -0.16589047                0.51814070                0.28410072               -0.26974060               -0.79948304
               5.46013129                0.15620716               30.06182682                0.68518765                0.28922922               -0.06666447                0.24029863               -0.06757562                0.09206343                0.25551397
               6.46161579                0.00315122               29.97460725                0.75508538                0.12967876                0.01997116               -0.03609049               -0.02262483               -0.23862072                0.14891253
               7.46272486               -0.14852847               29.88385441                0.73487931                0.13357706                0.09542721               -0.31175474               -0.00640368               -0.46520694               -0.07767351
               8.46428733               -0.29963973               29.79206920                0.84369956                0.17823836                0.18084278               -0.59508117               -0.01080554               -0.72740465                0.10616084
               9.46628963               -0.45113498               29.69579286                1.00000000                0.24537966                0.26344674               -0.87368796               -0.01247469               -1.03267740                0.55185166
              10.46919493               -0.60322426               29.59762365                1.00000000                0.33377745                0.34037977               -1.14206001               -0.03282546               -1.01249066                0.00258856
              11.47296518               -0.75544560               29.50167171                1.00000000                0.37702549                0.42599627               -1.40206099               -0.04136855               -0.90206384               -0.89599129
               1.62839936                1.80967086               30.40025980                1.00000000               -0.31035993               -0.35213704                1.15543469               -0.02124472               -0.13156189                1.26102238
               2.62529576                1.64439523               30.30356885                1.00000000               -0.27677515               -0.26954242                0.90475324               -0.00367231               -0.13804296                0.13722200
               3.62286385                1.47876608               30.20671388                0.95969885               -0.21401916               -0.18803728                0.64317427                0.00264092                0.02440070               -0.54283884
               4.62101537                1.31320708               30.11323089                0.23247682               -0.37754687               -0.14661648                0.38148430                0.40611909                1.62909438               -1.17771258
               5.61531292                1.15554051               30.04839849                0.34304740               -0.36290088                0.03341915                0.15790389               -0.07079135                2.44158969                1.05622360
               6.61375736                1.00335093               29.96983605                0.42218969               -0.06283089                0.07008399               -0.10177765                0.07460414                1.53975161                0.46987891
               7.61405630                0.85242580               29.88659342                0.33373931                0.08625880                0.10080145               -0.36290293                0.12244919                1.45165627               -0.33177378
               8.61548253                0.70216870               29.80628924                0.49204647                0.19504257                0.19612130               -0.62196502                0.09549862                1.47553899                0.57407252
               9.61795715                0.55149948               29.72377643                1.00000000                0.27697231                0.26029022               -0.86454280                0.04276391                0.75300350                0.79836447
              10.62102198                0.40017954               29.62922961                1.00000000                0.34078441                0.33498086               -1.12406066                0.00899265                0.08680885                0.11734888
              11.62477284                0.24881436               29.53339576                1.00000000                0.37508598                0.43078006               -1.38208145                0.00092799                0.02317778               -1.05167207
               1.79308656                2.80631461               30.36722432                1.00000000               -0.27260719               -0.32464396                1.03708426               -0.01374124                0.04498077                1.59989945
               2.79036049                2.64190470               30.26430867                1.00000000               -0.23875256               -0.23344045                0.78181785                0.00911395                0.22103476                0.11645793
               3.78831151                2.47713273               30.16489515                0.64085257               -0.15906642               -0.14592531                0.52760616                0.01140236                0.75104727               -1.32532381
               4.78717916                2.31193366               30.07258517                0.00010000               -0.98699473               -0.11457426                0.24153556                0.56343865                4.64199995               -2.01909377
               5.76857161                2.15687554               30.05107087                0.00010000               -1.04782870                0.05582154                0.07237214                0.97737141                5.51506704               -1.18417088
               6.76622259                2.00455290               29.97152801                0.00010000               -0.11077693               -0.07535084               -0.16935854                0.76699712                2.24613923               -0.18986265
               7.76635608                1.85348756               29.88428570                0.00010000                0.04505180               -0.09323823               -0.39646740                0.59671284                3.49679962                0.64126249
               8.76712362                1.70428270               29.82989656                0.00010000                0.13889983               -0.04786957               -0.67912365                0.38210614                4.15601811                1.20759612
               9.76913407                1.55407082               29.75674153                0.55165242                0.24681390                0.24535732               -0.85348202                0.01965700                2.17353090                1.63364581
              10.77205990                1.40347536               29.66314332                1.00000000                0.32900131                0.31124121               -1.09624534               -0.00567917                0.77513799                0.76517515
              11.77571410                1.25317000               29.56197482                1.00000000                0.36541985                0.44041756               -1.36675056               -0.00421670                0.39896411               -1.03037408
               1.95694435                3.80317798               30.33426739                1.00000000               -0.22844393               -0.30255193                0.91668915               -0.01253792                0.09364552                1.51778970
               2.95465991                3.63972642               30.22386121                1.00000000               -0.19407048               -0.20021150                0.65762804                0.00895562                0.12755465               -0.02675179
               3.95306294                3.47584758               30.11409072                0.38536988               -0.10592855               -0.10297562                0.40697551               -0.02515449                1.07205600               -1.67782651
               4.95254134                3.31091560               30.02256092                0.00010000               -0.54109186               -0.05823470                0.14767126                0.49690246                5.07952092               -2.72681826
               5.94224110                3.15665694               29.99314621                0.00010000               -1.00280293               -0.02053170               -0.02202563                1.31958889                7.74914349               -3.05262119
               6.93248528                3.00184391               29.95367756                0.00010000               -0.79901754               -0.10287988               -0.20091705                1.02049449                6.93265371               -0.82976959
               7.92626075                2.85056103               29.90629392                0.00010000               -0.49719447               -0.16561741               -0.39824608                0.77639941                6.46717023                1.41192282
               8.92254139                2.70121131               29.85660876                0.00010000               -0.35515609               -0.17392379               -0.59639599                0.63186153                6.11103214                1.79838493
               9.91915763                2.55640663               29.80138551                0.15734635               -0.03660886                0.09871115               -0.80081753                0.15323332                3.94746528                3.06315162
              10.92180922                2.40640436               29.70768662                1.00000000                0.30707967                0.27392971               -1.03390281               -0.05322662                1.02976130                1.20431702
              11.92529922                2.25762271               29.59395812                1.00000000                0.34900096                0.43777060               -1.31746634               -0.00856926                0.03750297               -0.67609618
               2.11973893                4.80026357               30.29960019                1.00000000               -0.18689221               -0.27374153                0.78679531               -0.02024953                0.14056642                1.31911915
               3.11787001                4.63790047               30.18170824                0.86069039               -0.15598439               -0.15810290                0.52519509               -0.00197007                0.21112282               -0.24985580
               4.11661924                4.47507322               30.06517144                0.18549604               -0.07810815               -0.04753635                0.27586059               -0.06051824                1.22348456               -1.68576612
               5.11630784                4.31076896               29.96751043                0.00010000               -0.62920822                0.07103419                0.02233042                0.31677873                6.61645284               -2.72069606
               6.10403508                4.15646490               29.95903162                0.00010000               -1.17897301                0.07963615               -0.09774899                0.60575691               10.72730890               -1.40649225
               7.09272838                4.00249530               29.94245768                0.00010000               -1.07592050                0.12842410               -0.23122860                0.47947527               10.04290173               -0.20788060
               8.08251667                3.85017521               29.91907390                0.00010000               -0.94065621                0.05866627               -0.38148413                0.35553516                9.56716641                1.06924223
               9.07391526                3.70080423               29.89154791                0.00010000               -0.77554902                0.01314828               -0.54514668                0.32277331                9.38261196                2.29223360
              10.06700568                3.55604504               29.86302916                0.09755241               -0.20679873               -0.08017695               -0.72906347                0.11085291                5.20408759                3.74541831
              11.06977928                3.40895395               29.75040624                0.80228040                0.30501659                0.22567620               -0.95638162               -0.01726813                0.58994729                1.26804221
              12.07310602                3.26192541               29.62932151                1.00000000                0.33267334                0.43753592               -1.26613661               -0.03049141                0.17544142               -0.44698400
               2.28126556                5.79770315               30.26268637                1.00000000               -0.14547028               -0.23207455                0.64781004               -0.02543477                0.12951947                1.10537650
               3.27981086                5.63656436               30.13676485                0.65615504               -0.11407405               -0.10724606                0.37170121               -0.01036466                0.29899319               -0.51303870
               4.27898408                5.47489685               30.01416717                0.08999299               -0.11628145                0.01386288                0.11269686               -0.03866686                1.76278356               -1.99808464
               5.27748523                5.31233628               29.91751514                0.00010000               -0.81770878                0.24673097               -0.12218276                0.08449679                8.71671182               -1.40590336
               6.26262990                5.15824966               29.93398201                0.00010000               -1.45603729                0.27217116               -0.15978332                0.29801390               13.76841977               -0.51497412
               7.24836448                5.00441240               29.93736362                0.00010000               -1.37836864                0.27476646               -0.24873716                0.09163615               12.86570961                0.32892416
               8.23506253                4.85173436               29.93443269                0.00010000               -1.26187298                0.21934834               -0.36006825               -0.03338549               12.48055466                1.28848042
               9.22312702                4.70147428               29.92843709                0.00010000               -1.09187856                0.09647750               -0.48504150               -0.05131863               12.39363764                2.35608515
              10.21322496                4.55480309               29.92187726                0.10091170               -0.37717705               -0.11260814               -0.62583171               -0.03833314                6.51222199                3.45280336
              11.21558348                4.41091789               29.79619808                0.64181078                0.27607604                0.18202272               -0.88631861                0.02937063                0.32287414                1.39606733
              12.21874648                4.26637343               29.66555334                1.00000000                0.31629983                0.44215283               -1.21492273               -0.02327958                0.07840129               -0.36543494
               2.44150781                6.79562208               30.22375879                0.98674815               -0.10387992               -0.18196723                0.50338143               -0.02478187                0.06247450                0.94383975
               3.44046901                6.63575555               30.08929314                0.52918452               -0.07169156               -0.05748332                0.22037554               -0.01015344                0.26955972               -0.67947054
               4.44007398                6.47535048               29.95890047                0.03658091               -0.29120259                0.07003321               -0.04990855                0.04558515                3.49765614               -2.33010094
               5.43464496                6.31570358               29.88899837                0.00010000               -1.10773715                0.37423964               -0.18348611               -0.08134465               11.45901360                0.34068342
               6.41791924                6.16190833               29.91777527                0.00010000               -1.67842761                0.44285306               -0.19406847                0.03766657               15.98066198                0.23539410
               7.40107641                6.00799063               29.93718924                0.00010000               -1.65660825                0.44739917               -0.25576007               -0.19691915               15.36669040                0.70424149
               8.38478707                5.85456217               29.95208228                0.00010000               -1.56281272                0.35776974               -0.33185816               -0.39880313               15.15036674                1.41463611
               9.36982016                5.70273378               29.96521545                0.00010000               -1.39958317                0.16917557               -0.41662621               -0.49606849               15.17693621                2.27035640
              10.35679541                5.55379288               29.97847575                0.12072404               -0.55119004               -0.07942692               -0.50687083               -0.28882919                7.78563107                3.18981374
              11.35879635                5.41259441               29.84156874                0.56246046                0.24669650                0.16216880               -0.80900435                0.03596097                0.17308401                1.30621754
              12.36172934                5.27076847               29.70231631                0.99833568                0.29329857                0.42865945               -1.15228094               -0.01624416                0.06197203               -0.38493213
               2.60050299                7.79406381               30.18361752                0.97051951               -0.06235960               -0.13002289                0.36015627               -0.02369125                0.02425690                0.86540929
               3.59987939                7.63541469               30.04093871                0.46489469               -0.02776197               -0.01283588                0.07259511               -0.00551898                0.17007318               -0.72591715
               4.59994775                7.47629751               29.90110298                0.00043677               -0.52894522                0.11201358               -0.21078319                0.15052321                5.97319588               -2.48524123
               5.58930048                7.31982107               29.87448438                0.00010000               -1.44257786                0.45513469               -0.14204497                0.00311069               14.64985330                0.90757598
               6.57109619                7.16710673               29.90810938                0.00010000               -1.87641158                0.60914911               -0.21506145               -0.02639865               17.65218516                0.61296768
               7.55177225                7.01336038               29.94010011                0.00010000               -1.93764327                0.65508894               -0.25745872               -0.37532378               17.58874503                0.84902241
               8.53234332                6.85888975               29.97058535                0.00010000               -1.88986520                0.54065817               -0.29929844               -0.73550884               17.61994983                1.38667175
               9.51397495                6.70485779               30.00104806                0.00010000               -1.73777900                0.28411198               -0.34725491               -0.96471590               17.79066809                2.09390944
              10.49758774                6.55321455               30.03267941                0.14984127               -0.73239180               -0.03462547               -0.39535184               -0.58092412                9.02986024                2.90652496
              11.49932711                6.41416126               29.88576808                0.52434586                0.22428674                0.15929098               -0.74444929                0.01696412                0.07317032                1.15564191
              12.50207348                6.27494662               29.73800679                0.98583142                0.27463646                0.40300271               -1.10214880               -0.00678902                0.03873954               -0.50719986
               2.75833221                8.79302162               30.14309860                0.96249753               -0.02072854               -0.07959902                0.21920689               -0.02294396                0.00785045                0.85704119
               3.75812493                8.63549883               29.99244908                0.45665293                0.01729268                0.02892410               -0.07272229               -0.00088377                0.05021391               -0.72336001
               4.75867807                8.47759075               29.84256821                0.00010000               -0.71134821                0.14253251               -0.36683806                0.28351304                8.35942084               -2.35967013
               5.74389796                8.32480628               29.85808302                0.00010000               -1.74130526                0.59487867               -0.18380811                0.30217748               17.98490358                0.56455539
               6.72385196                8.17409131               29.90009371                0.00010000               -2.10555287                0.82341479               -0.25318061                0.07809535               19.46541842                0.56797825
               7.70178691                8.02109241               29.94351420                0.00010000               -2.26362367                0.89399921               -0.26448836               -0.39579157               19.70887995                0.73525392
               8.67857949                7.86537534               29.98841416                0.00010000               -2.27929322                0.82767291               -0.25713586               -0.93028511               19.96907497                1.15535068
               9.65620104                7.70841601               30.03493251                0.00010000               -2.13530178                0.47916292               -0.27445776               -1.46150993               20.28248213                1.89659876
              10.63587345                7.55310037               30.08388509                0.18485901               -0.93987363                0.01352089               -0.31667009               -0.90946994               10.26865901                2.50914252
              11.63740357                7.41578023               29.92818246                0.51631274                0.20746989                0.16888429               -0.69667791               -0.00840685                0.03059370                0.98426310
              12.64002285                7.27882852               29.77208366                0.97729284                0.26192809                0.37142210               -1.06804318                0.00096579                0.02186289               -0.66628536
               2.91508969                9.79247182               30.10273388                0.95800458                0.02028971               -0.03247697                0.08095733               -0.02261338               -0.01340669                0.74934817
               3.91529258                9.63599317               29.94406478                0.47771171                0.06104357                0.06991342               -0.21649256                0.00086516                0.07931063               -0.61284326
               4.91631056                9.47914816               29.78716523                0.00010000               -0.82245558                0.17067058               -0.51463667                0.49701233               10.52175436               -1.60675690
               5.89884347                9.33171865               29.83730288                0.00010000               -1.99692975                0.90457475               -0.34432106                0.48258041               21.09573622                0.21737515
               6.87637196                9.18357502               29.89023008                0.00010000               -2.31355395                1.00904548               -0.32211063                0.15605108               21.43180952                0.30609186
               7.85257239                9.03124036               29.94490674                0.00010000               -2.49789743                1.08017582               -0.28788904               -0.24161209               21.79623869                0.41731895
               8.82641401                8.87544321               30.00309978                0.00010000               -2.77763375                1.10616139               -0.22185530               -0.76612268               22.36562867                0.66832469
               9.79701972                8.71444105               30.06738925                0.00010000               -2.71899419                0.99642012               -0.10237359               -1.47065172               22.66402305                1.32060515
              10.77203413                8.55348497               30.13010760                0.22246050               -1.17944474                0.07260643               -0.27991841               -1.27241316               11.48356110                1.59636425
              11.77343082                8.41753895               29.96882734                0.52913013                0.19810369                0.18344155               -0.67029666               -0.02983062                0.13890972                0.73312893
              12.77599620                8.28237506               29.80429921                0.96160321                0.25653808                0.34157279               -1.05083607                0.00302402               -0.00854631               -0.67645091
               3.07083724               10.79237208               30.05997185                0.97955677                0.06286478               -0.00997460               -0.05486823                0.02725741                0.41072428                0.63513037
               4.07146589               10.63689710               29.89771589                0.77984549                0.10277984                0.09039210               -0.35665494                0.04893479                0.82447388               -0.50799261
               5.07289284               10.48100416               29.74364080                0.45865313               -1.11715898                0.18559967               -0.65025769                0.95826196               12.47673149               -1.01158107
               6.04912271               10.34289777               29.81435447                0.31444646               -2.27207875                1.11791246               -0.49863184                0.69132693               23.53709112                0.05993754
               7.02745127               10.19427222               29.87765401                0.30438386               -2.20181201                1.06971980               -0.40498819                0.09783788               23.38266744                0.13730329
               8.00508647               10.04269592               29.94261867                0.31943142               -2.36974581                1.14555619               -0.33584979               -0.08727486               23.77974907                0.20804487
               8.98005635                9.88749857               30.01183023                0.35826489               -2.81701110                1.20553530               -0.22961973               -0.35334192               24.53728831                0.35688330
               9.94874625                9.72834442               30.09043736                0.48990634               -3.63645326                1.39033704                0.00646374               -1.47465025               24.71946179                0.83319530
              10.90732728                9.55455250               30.16280117                0.63352652               -2.04146936                0.10675296               -0.28728886               -1.91545260               12.99320151                0.94004241
              11.90791686                9.41944906               30.00595142                0.78432953                0.15419111                0.19101085               -0.66298421                0.00397786                0.99221273                0.57612468
              12.91041111                9.28565998               29.83786875                0.97792079                0.24942434                0.32849163               -1.04164065                0.06258208                0.44969073               -0.59210151
               1.55154830                0.86303656               31.45279788                1.00000000               -0.34148966               -0.36750734                1.27837203               -0.06092645               -0.91461527                0.93781641
               2.54813340                0.68896171               31.35388825                1.00000000               -0.29404322               -0.28988023                1.02900816               -0.04322584               -1.18500302                0.10351142
               3.54566744                0.51458003               31.24955298                1.00000000               -0.18933072               -0.21172290                0.76800907               -0.03826758               -1.14895569               -0.21419068
               4.54434679                0.34050602               31.15140457                0.62841485                0.11824868               -0.15775303                0.51279857                0.23745227               -0.29906179               -0.81769594
               5.54803241                0.17267163               31.06423377                0.68665440                0.25243882               -0.07171290                0.24013556               -0.07021395                0.05146277                0.26613038
               6.54939557                0.00976533               30.97426464                0.75734944                0.12447227                0.01758894               -0.03166377               -0.02829316               -0.27499247                0.15334208
               7.55052185               -0.15179635               30.88076870                0.73723034                0.14108396                0.09314237               -0.30331103               -0.01047988               -0.50583909               -0.07764232
               8.55221724               -0.31266996               30.78614866                0.84112846                0.19190546                0.17895308               -0.58643845               -0.01787154               -0.77240220                0.10560577
               9.55435996               -0.47359322               30.68708375                1.00000000                0.25429003                0.26056093               -0.86541698               -0.01772472               -1.07035245                0.56333139
              10.55730305               -0.63491161               30.58623144                1.00000000                0.33532782                0.33974391               -1.13469618               -0.03159141               -1.04159747               -0.00029791
              11.56106652               -0.79635439               30.48767568                1.00000000                0.37634749                0.42807528               -1.39652548               -0.03805167               -0.92790070               -0.92060476
               1.72501389                1.85936149               31.41178603                1.00000000               -0.30844807               -0.35156057                1.14972046               -0.02055069               -0.13441858                1.27830521
               2.72192941                1.68606290               31.31259863                1.00000000               -0.27506450               -0.26920530                0.90114579               -0.00094164               -0.14605367                0.14404231
               3.71951260                1.51246280               31.21313416                0.95328327               -0.21269477               -0.18732743                0.64503506                0.00667589                0.01292137               -0.54420439
               4.71767551                1.33892849               31.11709388                0.23843088               -0.34059923               -0.13470363                0.39572946                0.34146143                1.63452456               -1.20399705
               5.71270062                1.17195450               31.05002643                0.35137355               -0.31644475                0.02299491                0.16193096               -0.06926629                2.45092417                1.05961624
               6.71134662                1.00994122               30.96883563                0.43054638               -0.05329579                0.06594449               -0.09924257                0.06259640                1.53265288                0.46959780
               7.71163470                0.84913508               30.88297720                0.34367971                0.07951745                0.10449369               -0.35954352                0.10861606                1.44653251               -0.32338359
               8.71293697                0.68911957               30.80004949                0.49612068                0.18344220                0.19962120               -0.62522201                0.07530362                1.48193826                0.55636226
               9.71530354                0.52901238               30.71511199                1.00000000                0.27153715                0.26019925               -0.86893619                0.03208397                0.76031280                0.80943109
              10.71836771                0.36848582               30.61796821                1.00000000                0.34126148                0.33556995               -1.12918177                0.00990507                0.08627130                0.11981359
              11.72212877                0.20792637               30.51955074                1.00000000                0.37610627                0.43659205               -1.38902568                0.00420886                0.02366341               -1.07686777
               1.89773445                2.85600535               31.37756671                1.00000000               -0.27211984               -0.32510863                1.03085820               -0.01316644                0.04727782                1.61989358
               2.89501326                2.68357760               31.27211307                1.00000000               -0.23995455               -0.23239090                0.77902500                0.01196020                0.22192252                0.12354973
               3.89293536                2.51083348               31.17010543                0.64927691               -0.16644664               -0.14536985                0.52051936                0.02348307                0.73583362               -1.32182288
               4.89168432                2.33781195               31.07494163                0.00010000               -0.86505035               -0.10365347                0.24203452                0.48554049                4.66990428               -2.02452313
               5.87563436                2.17313152               31.05177743                0.00010000               -0.91087055                0.03279198                0.05636917                0.80417931                5.57573184               -1.19306259
               6.87346691                2.01108422               30.96978943                0.00010000               -0.10592664               -0.07455995               -0.17800898                0.62240879                2.28131445               -0.17464271
               7.87351582                1.85029353               30.88032926                0.00010000                0.01895488               -0.07973891               -0.39641154                0.47486739                3.50998236                0.67098442
               8.87384601                1.69132247               30.82302239                0.00010000                0.10597835               -0.03075488               -0.69548755                0.29688156                4.20082007                1.24604167
               9.87563539                1.53161076               30.74813512                0.55535210                0.23705770                0.24447347               -0.86992407               -0.01257259                2.24423825                1.66926561
              10.87858716                1.37179978               30.65211934                1.00000000                0.33171103                0.31364255               -1.11277429               -0.01478541                0.79844776                0.78841333
              11.88226961                1.21237746               30.54824516                1.00000000                0.36824475                0.45322574               -1.38511430               -0.00332131                0.40928574               -1.03998123
               2.06960606                3.85285931               31.34340123                1.00000000               -0.22655802               -0.30355503                0.90949985               -0.01164885                0.09893152                1.53033639
               3.06734048                3.68141509               31.23041101                1.00000000               -0.19290751               -0.19863662                0.65261088                0.01163248                0.13762304               -0.02516979
               4.06574791                3.50955541               31.11814258                0.39016437               -0.11260989               -0.10190881                0.40413676               -0.00941653                1.08308821               -1.67926081
               5.06508828                3.33685542               31.02405953                0.00010000               -0.51179890               -0.05699557                0.15452445                0.41370326                5.12960750               -2.72661204
               6.05551193                3.17261034               30.99287629                0.00010000               -0.92277460               -0.03430803               -0.03266326                1.05954718                7.84296737               -3.04723082
               7.04663279                3.00845002               30.95161278                0.00010000               -0.73090647               -0.10714165               -0.21520581                0.80145093                7.01968728               -0.78777165
               8.04089380                2.84754030               30.90223139                0.00010000               -0.45377121               -0.16175415               -0.41714901                0.58292157                6.55042819                1.46712267
               9.03755737                2.68850447               30.85055760                0.00010000               -0.31595150               -0.16849212               -0.61712503                0.49014435                6.19896688                1.89381509
              10.03457477                2.53390185               30.79330660                0.15458537               -0.01260295                0.08212630               -0.81578447                0.08923499                4.01916996                3.12742869
              11.03730531                2.37475868               30.69715306                1.00000000                0.31661158                0.27763017               -1.06792810               -0.06866720                1.06590746                1.26119522
              12.04090701                2.21699088               30.58059793                1.00000000                0.36016973                0.45611961               -1.35233125               -0.01169091                0.05501328               -0.66433680
               2.24038994                4.84993425               31.30742480                1.00000000               -0.18401210               -0.27475885                0.77770355               -0.01987305                0.15013819                1.32142286
               3.23854982                4.67960487               31.18693002                0.85116024               -0.15416212               -0.15587983                0.51898308               -0.00165763                0.22708224               -0.26224652
               4.23730669                4.50879531               31.06791259                0.18722845               -0.08231789               -0.04419890                0.27257075               -0.05294922                1.24619684               -1.70924776
               5.23690346                4.33667204               30.96778852                0.00010000               -0.60379955                0.06138218                0.03395325                0.23501680                6.71074129               -2.75527462
               6.22523070                4.17244536               30.95802683                0.00010000               -1.11687452                0.07923802               -0.10371279                0.42869694               10.87344775               -1.37801787
               7.21456597                4.00894139               30.94007349                0.00010000               -1.00554506                0.11246936               -0.24780489                0.31272198               10.18151965               -0.15647074
               8.20511980                3.84705844               30.91515237                0.00010000               -0.86393127                0.04153421               -0.40664688                0.19925169                9.70088839                1.14123350
               9.19728734                3.68795262               30.88597271                0.00010000               -0.69769562               -0.00830055               -0.57340921                0.17861374                9.51329635                2.37548852
              10.19116589                3.53325329               30.85563855                0.09195799               -0.15812752               -0.11437332               -0.75258570                0.04694226                5.31193050                3.82971357
              11.19412479                3.37735239               30.74067675                0.78061703                0.32027451                0.22397266               -0.98625488               -0.02111017                0.63646628                1.34177383
              12.19757138                3.22149985               30.61643669                1.00000000                0.34465879                0.45547703               -1.30024559               -0.03869688                0.18067394               -0.41618804
               2.40986736                5.84736414               31.26911121                1.00000000               -0.14210921               -0.23272391                0.63677764               -0.02567144                0.13042936                1.10005490
               3.40844627                5.67829749               31.14044563                0.64786425               -0.11228044               -0.10360660                0.36437268               -0.01183678                0.30875130               -0.53409564
               4.40762175                5.50867143               31.01527867                0.08977443               -0.11538543                0.02066294                0.10959442               -0.04563295                1.79948166               -2.03574379
               5.40613856                5.33808307               30.91642881                0.00010000               -0.79026154                0.22573926               -0.10062031               -0.00985448                8.85750908               -1.39212328
               6.39181652                5.17419510               30.93240441                0.00010000               -1.39322066                0.26028971               -0.15740907                0.12381526               13.97796610               -0.46488629
               7.37827415                5.01069941               30.93480710                0.00010000               -1.29744608                0.25371094               -0.26540271               -0.06341292               13.05170846                0.39228265
               8.36586760                4.84837098               30.93070429                0.00010000               -1.16696745                0.19092867               -0.38938457               -0.18009349               12.66354436                1.36630150
               9.35493480                4.68833846               30.92343112                0.00010000               -0.98768741                0.06558704               -0.52062808               -0.19926170               12.57639895                2.44842287
              10.34611385                4.53161439               30.91544607                0.09449223               -0.31491285               -0.14789001               -0.66362287               -0.10364835                6.64632780                3.56198647
              11.34863654                4.37923813               30.78729238                0.61825609                0.28621469                0.17255885               -0.89568622                0.03414240                0.36726465                1.46114188
              12.35183815                4.22610042               30.65338147                1.00000000                0.32016046                0.45333309               -1.22278667               -0.02634830                0.08407817               -0.32547796
               2.57800981                6.84527977               31.22872948                0.98493866               -0.10040152               -0.18156287                0.49043055               -0.02511089                0.06167959                0.93626433
               3.57700579                6.67753274               31.09145678                0.52198238               -0.07006748               -0.05294283                0.21225239               -0.01223644                0.27526565               -0.69679520
               4.57660846                6.50920856               30.95838586                0.03463761               -0.29115459                0.07868895               -0.05295860                0.01869171                3.59156567               -2.36496074
               5.57118270                6.34118682               30.88744685                0.00010000               -1.07588944                0.34075396               -0.12839991               -0.19763079               11.66675645                0.45028340
               6.55509067                6.17765116               30.91589019                0.00010000               -1.60304386                0.41597175               -0.18603944               -0.13279668               16.21651166                0.30065763
               7.53912182                6.01401561               30.93456107                0.00010000               -1.56058953                0.41611366               -0.27331400               -0.35166574               15.59171221                0.77222224
               8.52387888                5.85087702               30.94861902                0.00010000               -1.45315589                0.32235373               -0.36474961               -0.54411802               15.38246711                1.49632208
               9.51005870                5.68926436               30.96086643                0.00010000               -1.28428098                0.13614320               -0.45730886               -0.64722637               15.41896932                2.36816139
              10.49819326                5.53029549               30.97321832                0.11431095               -0.48685498               -0.10127030               -0.54861094               -0.36309190                7.93729254                3.30957201
              11.50032160                5.38080356               30.83340031                0.54206931                0.25632841                0.15612458               -0.82723046                0.04047327                0.19871074                1.36296368
              12.50331983                5.23056651               30.69072638                0.99624286                0.29982211                0.43887705               -1.17013815               -0.01539770                0.06283790               -0.35371007
               2.74485922                7.84373288               31.18714654                0.96928730               -0.05864682               -0.12797883                0.34533469               -0.02400877                0.02356459                0.85969224
               3.74427275                7.67723863               31.04162105                0.45874958               -0.02588585               -0.00841657                0.06368594               -0.00713371                0.17163540               -0.73973941
               4.74434150                7.51024521               30.89898197                0.00010000               -0.52646967                0.11954963               -0.21365853                0.09829130                6.16682303               -2.51581384
               5.73374335                7.34489815               30.87335889                0.00010000               -1.40048454                0.41983708               -0.08807840               -0.11997084               14.93741848                1.00692827
               6.71633181                7.18251453               30.90599813                0.00010000               -1.78641906                0.57467331               -0.21142325               -0.17929240               17.87715004                0.66930137
               7.69801497                7.01902168               30.93743897                0.00010000               -1.82976620                0.61728420               -0.27886054               -0.52242986               17.85232087                0.91246660
               8.67973648                6.85481806               30.96743072                0.00010000               -1.77215844                0.49998477               -0.33576057               -0.87759224               17.90024682                1.47262704
               9.66257180                6.69106133               30.99737507                0.00010000               -1.62118348                0.25264053               -0.39088246               -1.10970597               18.08619791                2.19335830
              10.64731281                6.52958898               31.02852522                0.14435085               -0.66984098               -0.03976437               -0.43745477               -0.65543637                9.19025841                3.00908594
              11.64917499                6.38236062               30.87818155                0.50649583                0.23457446                0.16280904               -0.77540717                0.02112962                0.07863698                1.20278272
              12.65200430                6.23487796               30.72686284                0.97912066                0.28293190                0.41792156               -1.13171362               -0.00483442                0.03874564               -0.48539008
               2.91051813                8.84272019               31.14520889                0.96181494               -0.01673364               -0.07578742                0.20251977               -0.02314662                0.00737047                0.85407952
               3.91035079                8.67736440               30.99167446                0.45177981                0.01983202                0.03275909               -0.08246189               -0.00196318                0.04860720               -0.73488227
               4.91091477                8.51159956               30.83888363                0.00010000               -0.69184170                0.14659321               -0.37145801                0.21362430                8.59860112               -2.38411946
               5.89651396                8.34958357               30.85632497                0.00010000               -1.67667415                0.57031925               -0.17659798                0.18196308               18.34381448                0.55555266
               6.87738128                8.18914462               30.89753625                0.00010000               -2.00721296                0.78868751               -0.26330466               -0.05098450               19.72946896                0.59732000
               7.85636970                8.02636129               30.94075145                0.00010000               -2.15469494                0.85753811               -0.29285637               -0.52337809               20.02675449                0.78426316
               8.83428739                7.86087671               30.98567418                0.00010000               -2.16380184                0.78953149               -0.29583327               -1.05871276               20.30127753                1.23881796
               9.81309366                7.69431717               31.03197704                0.00010000               -2.02510744                0.44561927               -0.32048172               -1.59790684               20.60799059                2.05026672
              10.79378524                7.52950020               31.08049061                0.18120791               -0.88192230                0.02134029               -0.36202071               -0.97566919               10.42617760                2.57382977
              11.79545521                7.38405975               30.92101141                0.49942275                0.22016065                0.18001586               -0.73896956               -0.00609142                0.02481569                1.01610768
              12.79818845                7.23892494               30.76122484                0.96189354                0.27332354                0.38797246               -1.10758720                0.00368548                0.02130675               -0.65644121
               3.07510786                9.84221713               31.10345224                0.95787738                0.02462570               -0.02721017                0.06228857               -0.02268294               -0.01451428                0.74927843
               4.07535412                9.67789381               30.94184922                0.47483490                0.06434795                0.07317758               -0.22677051               -0.00010464                0.07677185               -0.62150943
               5.07639482                9.51317707               30.78198342                0.00010000               -0.77582852                0.17187265               -0.52076354                0.41786973               10.74914963               -1.62029769
               6.05983755                9.35630453               30.83378522                0.00010000               -1.89302143                0.86935324               -0.36449665                0.38531901               21.49700936                0.16318144
               7.03853439                9.19828828               30.88690803                0.00010000               -2.20111144                0.97490629               -0.34756533                0.06792425               21.77975510                0.31363895
               8.01581532                9.03617244               30.94186874                0.00010000               -2.39640244                1.05041973               -0.32524143               -0.32245744               22.18046513                0.44387494
               8.99060635                8.87060869               31.00070442                0.00010000               -2.69125695                1.08264315               -0.26378105               -0.85536231               22.81199362                0.72301940
               9.96199018                8.69997371               31.06626549                0.00010000               -2.62747429                0.96923384               -0.13006108               -1.56709576               22.99288342                1.49035420
              10.93805686                8.53001579               31.12701751                0.22190594               -1.11808839                0.08914046               -0.33668563               -1.31704981               11.56968305                1.61562458
              11.93962841                8.38596094               30.96185302                0.51212493                0.21453820                0.20030200               -0.72529136               -0.02859605                0.13453869                0.74547013
              12.94234762                8.24263741               30.79355552                0.94838643                0.27192089                0.35872776               -1.10095930                0.00591071               -0.00628300               -0.67665823
               3.23871110               10.84217599               31.05932342                0.97966750                0.06776553               -0.00411413               -0.07534198                0.02552058                0.41036714                0.63660207
               4.23938876               10.67882796               30.89409701                0.77910789                0.10751700                0.09341417               -0.36727832                0.04651492                0.82697615               -0.51466834
               5.24086144               10.51503701               30.73710393                0.45725990               -1.01398170                0.18599404               -0.65537175                0.85379595               12.70039885               -1.01834455
               6.21910913               10.36697063               30.80926889                0.31471316               -2.09947933                1.06660993               -0.52172935                0.60744449               23.97228932                0.01049371
               7.19887186               10.20864275               30.87344870                0.30454978               -2.07544917                1.03544678               -0.44136453                0.05369907               23.79772948                0.13694832
               8.17760014               10.04736969               30.93905598                0.31921597               -2.27464939                1.11972415               -0.38291896               -0.12717654               24.21905748                0.22148693
               9.15337887                9.88252958               31.00932358                0.35746095               -2.76277483                1.19208888               -0.27962667               -0.40613921               25.08175460                0.39017871
              10.12234465                9.71370185               31.09045221                0.49331735               -3.59609270                1.37281380               -0.01550007               -1.52688208               25.05596370                0.96898227
              11.08145702                9.53128301               31.15955393                0.63453452               -2.00414889                0.12672205               -0.36122681               -1.94178758               13.03078659                0.93571156
              12.08226167                9.38806579               30.99896987                0.77573366                0.17483486                0.21048481               -0.73426576                0.00414977                1.00625709                0.57894363
              13.08495371                9.24609950               30.82715011                0.97476713                0.26920452                0.34620830               -1.10527072                0.06398003                0.46475033               -0.59473672
               1.64248712                0.91413736               32.46555548                1.00000000               -0.34131361               -0.36692341                1.27425259               -0.05936907               -0.92950500                0.95166733
               2.63907399                0.73194501               32.36416609                1.00000000               -0.29560023               -0.28937565                1.02746724               -0.03924563               -1.20846662                0.10701236
               3.63657512                0.54944731               32.25721265                1.00000000               -0.19524008               -0.21177650                0.76664704               -0.03538746               -1.17958595               -0.21594444
               4.63516919                0.36713344               32.15649383                0.62808454                0.08626769               -0.15433579                0.51246377                0.18929689               -0.33356096               -0.82629639
               5.63830047                0.18994443               32.06662953                0.68637485                0.22059127               -0.07552619                0.23919508               -0.07395028                0.01994154                0.27077013
               6.63958101                0.01707607               31.97397398                0.75886677                0.12117940                0.01420234               -0.02540552               -0.03427493               -0.30154605                0.15701369
               7.64072406               -0.15449833               31.87778819                0.74067095                0.14716103                0.08958909               -0.29096608               -0.01536469               -0.53840233               -0.07539539
               8.64252423               -0.32532928               31.78034044                0.84057915                0.20378705                0.17514920               -0.57143866               -0.02509652               -0.81267753                0.10494128
               9.64479980               -0.49592482               31.67848452                1.00000000                0.26234086                0.25615635               -0.84972094               -0.02423497               -1.10586807                0.57323117
              10.64777105               -0.66670375               31.57492973                1.00000000                0.33594404                0.33916609               -1.12248679               -0.03038933               -1.07031782               -0.00426763
              11.65151868               -0.83760782               31.47374120                1.00000000                0.37476337                0.43153457               -1.38835902               -0.03417039               -0.95420351               -0.94688762
               1.82408578                1.91046813               32.42325421                1.00000000               -0.30592240               -0.35200410                1.14418257               -0.01907321               -0.13812374                1.29629478
               2.82102656                1.72905126               32.32159177                1.00000000               -0.27293738               -0.26908497                0.89790739                0.00238244               -0.15189430                0.15155688
               3.81862703                1.54732954               32.21961458                0.94711257               -0.21064821               -0.18797288                0.64850536                0.00816615                0.00968119               -0.55154100
               4.81681359                1.36559008               32.12114548                0.24842383               -0.30186910               -0.13279417                0.40222787                0.27978431                1.63947532               -1.24557759
               5.81258965                1.18918917               32.05163711                0.35783873               -0.26769745                0.01099965                0.15298896               -0.07170008                2.45013590                1.04548632
               6.81145964                1.01721810               31.96785120                0.43779478               -0.04082815                0.06034106               -0.10069551                0.04622100                1.52631242                0.46552671
               7.81177309                0.84639756               31.87940255                0.35323134                0.07634351                0.10756935               -0.35594142                0.09014091                1.43912842               -0.31235632
               8.81298651                0.67642222               31.79378480                0.49913736                0.17358011                0.20123501               -0.62529614                0.05245573                1.48598738                0.53759984
               9.81524469                0.50663674               31.70639770                1.00000000                0.26610689                0.25931717               -0.87372932                0.01938872                0.76870130                0.81879204
              10.81830865                0.33668791               31.60664598                1.00000000                0.34181755                0.33812608               -1.13612467                0.01092787                0.08666415                0.12054282
              11.82208104                0.16670753               31.50561525                1.00000000                0.37723899                0.44655010               -1.40040681                0.00843734                0.02441161               -1.10482792
               2.00493940                2.90709728               32.38784148                1.00000000               -0.26791816               -0.32707547                1.02372594               -0.01251464                0.05097949                1.64011829
               3.00226022                2.72656331               32.27988917                1.00000000               -0.23698895               -0.23225920                0.77449824                0.01175191                0.22441855                0.13129278
               4.00019962                2.54568785               32.17530554                0.65800907               -0.16774867               -0.14371736                0.52558811                0.01816988                0.73240304               -1.32825582
               4.99890525                2.36447755               32.07742586                0.00010000               -0.74805842               -0.10268066                0.25900716                0.40313806                4.70500023               -2.07228018
               5.98523845                2.19016443               32.05219826                0.00010000               -0.78041017                0.01368751                0.02209472                0.63814427                5.61892441               -1.20630999
               6.98329704                2.01828289               31.96796783                0.00010000               -0.09578468               -0.07068399               -0.18995901                0.47764581                2.32173076               -0.16443444
               7.98332276                1.84765306               31.87635747                0.00010000                0.00185633               -0.06585879               -0.40277727                0.34819690                3.51454547                0.69654308
               8.98333417                1.67869542               31.81598680                0.00010000                0.07995625               -0.01424621               -0.70996810                0.20337346                4.23786932                1.28508971
               9.98492188                1.50926152               31.73934305                0.55676599                0.22923240                0.24075151               -0.89260147               -0.04678893                2.31488783                1.71190863
              10.98791882                1.34005877               31.64088784                1.00000000                0.33631507                0.31914743               -1.13756249               -0.02054753                0.82250202                0.81227374
              11.99164819                1.17132319               31.53427253                1.00000000                0.37293693                0.47184571               -1.41569915               -0.00212217                0.42104170               -1.04918732
               2.18490342                3.90392662               32.35245739                1.00000000               -0.22323965               -0.30576146                0.90083723               -0.01246152                0.10492703                1.54251782
               3.18267102                3.72440607               32.23691342                1.00000000               -0.19136130               -0.19711981                0.64760124                0.00961108                0.14913923               -0.02470259
               4.18107619                3.54445520               32.12217346                0.39682099               -0.11356214               -0.09678364                0.40257673               -0.01922773                1.10033185               -1.68300007
               5.18039978                3.36353646               32.02565141                0.00010000               -0.47644989               -0.05916840                0.15731242                0.32554533                5.18750291               -2.75624928
               6.17154720                3.18946292               31.99249294                0.00010000               -0.84379249               -0.03939968               -0.04302614                0.81242796                7.92362607               -3.02601975
               7.16352393                3.01580442               31.94937344                0.00010000               -0.66113494               -0.10556649               -0.23581612                0.57768324                7.09688238               -0.74555923
               8.15832450                2.84508039               31.89795094                0.00010000               -0.40392042               -0.15630382               -0.44250608                0.38226643                6.62464103                1.51757454
               9.15544552                2.67613729               31.84426626                0.00010000               -0.26894644               -0.16274722               -0.64707247                0.33661081                6.28324835                1.98943808
              10.15294557                2.51145177               31.78506982                0.15080856                0.01952567                0.06191608               -0.83107409                0.02759660                4.08329871                3.19253762
              11.15583603                2.34307086               31.68632805                1.00000000                0.32820979                0.27956714               -1.09716331               -0.07578355                1.09713843                1.32254470
              12.15950976                2.17614444               31.56691150                1.00000000                0.36737286                0.47474620               -1.38480766               -0.01506912                0.07324653               -0.63883368
               2.36373126                4.90098205               32.31515426                1.00000000               -0.18073992               -0.27635203                0.76759919               -0.02101930                0.15991832                1.32263807
               3.36192386                4.72262092               32.19208791                0.84187420               -0.15232922               -0.15251920                0.51230735               -0.00412340                0.24338808               -0.27483893
               4.36068468                4.54375218               32.07062286                0.18851898               -0.07577164               -0.03732475                0.26921445               -0.07061965                1.27508400               -1.73191431
               5.36040843                4.36329418               31.96818950                0.00010000               -0.57328073                0.06495096                0.03615349                0.13670727                6.79511026               -2.78979815
               6.34921906                4.18937643               31.95695736                0.00010000               -1.05875920                0.08128295               -0.11111187                0.25705603               10.99914876               -1.34016432
               7.33923324                4.01617156               31.93750158                0.00010000               -0.92919239                0.09830269               -0.26957206                0.13626952               10.30469361               -0.09939762
               8.33063521                3.84452698               31.91094096                0.00010000               -0.77691215                0.02566736               -0.44016601                0.03269117                9.82328781                1.21658086
               9.32369500                3.67544048               31.88007972                0.00010000               -0.60474805               -0.02941382               -0.61288877                0.02202786                9.64095698                2.46063564
              10.31854025                3.51049984               31.84797744                0.08551012               -0.09922647               -0.14943595               -0.78262069               -0.02228428                5.42378310                3.89946210
              11.32171047                3.34565011               31.73068115                0.75219676                0.33296884                0.21731564               -1.00376084               -0.02621935                0.68532263                1.42710424
              12.32519963                3.18081811               31.60331659                1.00000000                0.34891573                0.47148681               -1.31594063               -0.04619455                0.18483448               -0.36424434
               2.54120530                5.89839958               32.27542192                1.00000000               -0.13868729               -0.23350123                0.62497134               -0.02661182                0.13131520                1.09357673
               3.53981842                5.72135569               32.14405231                0.63952305               -0.11073822               -0.09883489                0.35682088               -0.01483983                0.31855205               -0.55441616
               4.53899053                5.54370870               32.01635906                0.08871320               -0.11543769                0.02978901                0.10634255               -0.06448299                1.84365965               -2.07088234
               5.53750967                5.36483548               31.91550274                0.00010000               -0.75897988                0.22424958               -0.08919427               -0.12763930                8.99658259               -1.35463874
               6.52381094                5.19108858               31.93083383                0.00010000               -1.32054494                0.24756616               -0.15949775               -0.05744093               14.16481575               -0.40541158
               7.51109877                5.01777047               31.93205556                0.00010000               -1.20507658                0.23158224               -0.28868142               -0.22731345               13.21603398                0.46142573
               8.49970940                4.84559373               31.92664500                0.00010000               -1.05927769                0.16176033               -0.42791738               -0.33628064               12.83209914                1.44965516
               9.48991322                4.67554902               31.91802453                0.00010000               -0.87095770                0.03562869               -0.56804356               -0.36127179               12.75338891                2.54476889
              10.48229025                4.50846305               31.90860480                0.08717544               -0.24599200               -0.17973351               -0.71351140               -0.18323588                6.79475095                3.66985617
              11.48499338                4.34741717               31.77828435                0.59201054                0.29798122                0.16572005               -0.91086397                0.03315833                0.42449694                1.53580287
              12.48824987                4.18557418               31.64109761                1.00000000                0.32564961                0.46973908               -1.24302819               -0.02758224                0.08955718               -0.27681735
               2.71728680                6.89631202               32.23356740                0.98305189               -0.09688615               -0.18106685                0.47689983               -0.02578252                0.06083460                0.92764966
               3.71631794                6.72064422               32.09353819                0.51453036               -0.06857895               -0.04767351                0.20384312               -0.01529084                0.28097440               -0.71313926
               4.71591522                6.54434796               31.95784130                0.03181534               -0.29210876                0.08873854               -0.05611614               -0.01546016                3.71125696               -2.39703833
               5.71047576                6.36777918               31.88643038                0.00010000               -1.03899825                0.31230170               -0.07660071               -0.32485906               11.87443499                0.57827610
               6.69513526                6.19432776               31.91405448                0.00010000               -1.51469700                0.38790592               -0.18492889               -0.31138972               16.41050018                0.37025914
               7.68018182                6.02080321               31.93172296                0.00010000               -1.45021005                0.38244306               -0.29892338               -0.51391276               15.79095342                0.84467451
               8.66613105                5.84776219               31.94478729                0.00010000               -1.32907882                0.28467035               -0.40718041               -0.69736991               15.59838081                1.58404429
               9.65360025                5.67615305               31.95606928                0.00010000               -1.15618372                0.10326662               -0.50877819               -0.80829161               15.65391763                2.47422116
              10.64300738                5.50690517               31.96750353                0.10695237               -0.41688690               -0.11695363               -0.60181768               -0.44461828                8.10049666                3.44168933
              11.64526251                5.34896451               31.82502413                0.52100635                0.26632910                0.15943232               -0.85547280                0.04382861                0.23698825                1.42352065
              12.64833396                5.19021289               31.67891355                0.99024771                0.30714535                0.45830911               -1.20309438               -0.01336529                0.06405690               -0.31891438
               2.89202526                7.89477824               32.19052421                0.96802863               -0.05485845               -0.12572583                0.33001603               -0.02451888                0.02282153                0.85294932
               3.89147667                7.72040222               32.04221242                0.45234827               -0.02394420               -0.00356012                0.05429714               -0.00951874                0.17309016               -0.75254260
               4.89154637                7.54548347               31.89682981                0.00010000               -0.52219904                0.12794749               -0.21769755                0.03818287                6.38343220               -2.54455828
               5.88103269                7.37108152               31.87272281                0.00010000               -1.34936331                0.38559078               -0.04580311               -0.24954517               15.22259450                1.08158700
               6.86455911                7.19884670               31.90388091                0.00010000               -1.68233036                0.54000291               -0.21705784               -0.33912883               18.05989707                0.72178354
               7.84738609                7.02541933               31.93452289                0.00010000               -1.70734734                0.57723437               -0.30958506               -0.67786604               18.09038207                0.97815435
               8.83041216                6.85128714               31.96387014                0.00010000               -1.63908413                0.45579001               -0.38207555               -1.02782944               18.16478966                1.56534221
               9.81460440                6.67761435               31.99323042                0.00010000               -1.49128679                0.21889344               -0.44364819               -1.26094931               18.37697798                2.30252879
              10.80058643                6.50612398               32.02393031                0.13791004               -0.60210867               -0.04102489               -0.48584880               -0.73266431                9.35713634                3.12748666
              11.80256223                6.35060582               31.87025994                0.48853599                0.24496923                0.17331992               -0.81279582                0.02597664                0.08969810                1.25607497
              12.80548581                6.19474036               31.71537251                0.96104588                0.29235804                0.43970644               -1.17270094               -0.00213628                0.03931404               -0.45548587
               3.06554846                8.89379751               32.14714899                0.96113934               -0.01261344               -0.07176884                0.18534092               -0.02343940                0.00673093                0.84986171
               4.06542233                8.72057302               31.99079985                0.44743504                0.02255573                0.03691092               -0.09278662               -0.00352124                0.04532193               -0.74505435
               5.06599958                8.54690691               31.83513905                0.00010000               -0.66503484                0.15192177               -0.37815381                0.13645728                8.83478559               -2.40549666
               6.05212163                8.37549099               31.85455106                0.00010000               -1.59923570                0.54784220               -0.18678461                0.05236326               18.69131012                0.51435928
               7.03401486                8.20512781               31.89482761                0.00010000               -1.89687857                0.75443235               -0.28418586               -0.19093280               19.97057490                0.61878542
               8.01418406                8.03234790               31.93765708                0.00010000               -2.03177081                0.81969970               -0.33189559               -0.66253077               20.32315715                0.83361151
               8.99337945                7.85687799               31.98249750                0.00010000               -2.03198201                0.74835312               -0.34657881               -1.19859988               20.61913568                1.32885649
               9.97354442                7.68053092               32.02852288                0.00010000               -1.90084116                0.40793028               -0.37618514               -1.74167091               20.92921846                2.22131703
              10.95536263                7.50608467               32.07664467                0.17673537               -0.81893823                0.03050833               -0.40797315               -1.04230873               10.58548736                2.64815495
              11.95716566                7.35243091               31.91340307                0.48251808                0.23297586                0.19420425               -0.78432408               -0.00281463                0.01927580                1.05381958
              12.96002214                7.19900702               31.74993192                0.94682405                0.28564859                0.40881317               -1.15472817                0.00659800                0.02077813               -0.63694109
               3.23800545                9.89334286               32.10397965                0.95776104                0.02913955               -0.02178660                0.04305086               -0.02279626               -0.01565194                0.74771577
               4.23829685                9.72114044               31.93952937                0.47247220                0.06760465                0.07675608               -0.23758566               -0.00091903                0.07247508               -0.62838661
               5.23935755                9.54852191               31.77674996                0.00010000               -0.72188977                0.17446702               -0.52529522                0.33136450               10.96024713               -1.62777871
               6.22385905                9.38203836               31.83001294                0.00010000               -1.77369994                0.83246641               -0.39446305                0.27577655               21.87536572                0.10200943
               7.20388355                9.21393535               31.88327878                0.00010000               -2.07368778                0.94010111               -0.38406896               -0.03105714               22.10931707                0.31537196
               8.18238530                9.04181333               31.93840191                0.00010000               -2.28132047                1.02016424               -0.37481336               -0.41362314               22.54620385                0.47000245
               9.15825714                8.86625420               31.99782416                0.00010000               -2.59104987                1.05929229               -0.32178924               -0.95623045               23.25386986                0.78190554
              10.13056430                8.68577295               32.06478803                0.00010000               -2.52084378                0.94098493               -0.17966392               -1.67146513               23.31440401                1.68039016
              11.10784026                8.50673415               32.12337389                0.22120095               -1.04903552                0.10546149               -0.39068501               -1.36101574               11.64275037                1.63570795
              12.10958359                8.35448990               31.95432151                0.49527110                0.23126442                0.21816674               -0.78143079               -0.02686760                0.12847604                0.75991467
              13.11246555                8.20291663               31.78228002                0.93525228                0.28819611                0.37845259               -1.15671475                0.00884701               -0.00434245               -0.66999866
               3.40949739               10.89336178               32.05846501                0.97979032                0.07275125                0.00189135               -0.09641091                0.02383011                0.40952341                0.63643530
               4.41022490               10.72210814               31.89037033                0.77848484                0.11157766                0.09677020               -0.37874675                0.04452923                0.82745770               -0.51922264
               5.41172894               10.55039625               31.73053336                0.45610690               -0.90005889                0.18743411               -0.65955115                0.73874891               12.90457141               -1.01736011
               6.39222373               10.39214032               31.80391989                0.31495055               -1.90550930                1.01019579               -0.55125584                0.51314671               24.37783673               -0.03445910
               7.37361876               10.22392984               31.86882672                0.30470969               -1.93154914                0.99944903               -0.48844844                0.00406425               24.18734158                0.13338241
               8.35359274               10.05275118               31.93496029                0.31900992               -2.16617733                1.09378558               -0.44374894               -0.17255552               24.63805212                0.23497706
               9.33029521                9.87806383               32.00623770                0.35663523               -2.69787836                1.18096315               -0.34891407               -0.46622057               25.62487358                0.42678509
              10.29963518                9.69935062               32.09012736                0.49683271               -3.54349242                1.35776674               -0.07114212               -1.58640889               25.37955062                1.12228765
              11.25942536                9.50819390               32.15557663                0.63572690               -1.95946760                0.14597579               -0.43262982               -1.96930860               13.04476371                0.92806088
              12.26044582                9.35679425               31.99126610                0.76735179                0.19601348                0.23043449               -0.80656015                0.00533197                1.01845146                0.58111470
              13.26334563                9.20657607               31.81576334                0.96870435                0.28998090                0.36594467               -1.17448701                0.06619095                0.47981193               -0.59287332
               1.73573697                0.96667244               33.47828293                1.00000000               -0.34300773               -0.36710673                1.27282196               -0.05825235               -0.94393755                0.96412797
               2.73230689                0.77625060               33.37443760                1.00000000               -0.29944954               -0.28796380                1.02718490               -0.03833104               -1.23084447                0.11041677
               3.72974798                0.58545730               33.26488592                1.00000000               -0.20241007               -0.21181995                0.76904773               -0.03823713               -1.20524990               -0.21246063
               4.72825869                0.39467679               33.16165384                0.62896973                0.06015550               -0.15918780                0.51974102                0.14910918               -0.36747005               -0.83431284
               5.73095109                0.20807188               33.06901767                0.68423066                0.19736490               -0.07763825                0.23720220               -0.07162930               -0.01256158                0.27423293
               6.73220599                0.02515116               32.97375653                0.75789943                0.12181301                0.01067451               -0.01894808               -0.04010040               -0.31894584                0.16015539
               7.73338735               -0.15653299               32.87494938                0.74374731                0.15306831                0.08516522               -0.27672708               -0.02091896               -0.56018418               -0.07173472
               8.73526736               -0.33745986               32.77471989                0.84362930                0.21329785                0.16850630               -0.54841993               -0.03167745               -0.84199363                0.10492595
               9.73765331               -0.51795496               32.67008934                1.00000000                0.26863289                0.24846610               -0.82427180               -0.03217114               -1.13617283                0.57952149
              10.74064001               -0.69842946               32.56378170                1.00000000                0.33531041                0.33680358               -1.10321839               -0.02992066               -1.09749068               -0.00888906
              11.74435952               -0.87904024               32.45990850                1.00000000                0.37195010                0.43387154               -1.37485174               -0.02918283               -0.97915973               -0.97393177
               1.92557629                1.96300138               33.43466968                1.00000000               -0.30451381               -0.35339547                1.13991855               -0.01695710               -0.14292081                1.31293116
               2.92253116                1.77337096               33.33055678                1.00000000               -0.27118907               -0.26843981                0.89573516                0.00342005               -0.15889462                0.15783504
               3.92015251                1.58333910               33.22610427                0.96186797               -0.20443320               -0.18739071                0.64354399                0.00063556                0.00032246               -0.54599435
               4.91844249                1.39308491               33.12513844                0.25760734               -0.25774497               -0.14081835                0.38621068                0.22946594                1.63016712               -1.25780151
               5.91499761                1.20729550               33.05308621                0.36271086               -0.21675358                0.00388026                0.13380020               -0.06536137                2.45005104                1.02367535
               6.91410742                1.02525790               32.96682172                0.44282530               -0.02569716                0.05610686               -0.10967886                0.02797436                1.53081346                0.46201395
               7.91448367                0.84431867               32.87585837                0.36141265                0.07770733                0.11044951               -0.35601528                0.06838538                1.43658909               -0.30071649
               8.91566157                0.66422520               32.78754357                0.50141662                0.16663619                0.20013308               -0.62034956                0.02807526                1.48852665                0.52005392
               9.91781639                0.48452970               32.69763740                1.00000000                0.26109404                0.25658871               -0.87616142                0.00460927                0.77623010                0.82537935
              10.92088345                0.30493858               32.59524571                1.00000000                0.34310352                0.33963210               -1.14374259                0.01182400                0.08742506                0.11984060
              11.92467846                0.12529848               32.49154260                1.00000000                0.37950166                0.45688497               -1.41430711                0.01406737                0.02531883               -1.13629872
               2.11465866                2.95960453               33.39804123                1.00000000               -0.26210914               -0.33022424                1.01667659               -0.01146148                0.05110376                1.65973079
               3.11203757                2.77088180               33.28760304                1.00000000               -0.23059625               -0.23243287                0.76920322                0.00904946                0.22808370                0.14014597
               4.11004674                2.58170948               33.18061719                0.67300849               -0.15729812               -0.13805080                0.53089727               -0.00786631                0.72903253               -1.32498439
               5.10889161                2.39186042               33.08012177                0.00197476               -0.62879334               -0.10590562                0.26183384                0.32581845                4.68996349               -2.07509566
               6.09747087                2.20814949               33.05221933                0.00010000               -0.65746496                0.00176670               -0.01741698                0.48388392                5.64768906               -1.20199141
               7.09574231                2.02627329               32.96599025                0.00010000               -0.08415565               -0.06264067               -0.21208154                0.32657692                2.37904543               -0.14926057
               8.09578776                1.84567600               32.87227372                0.00010000               -0.00622440               -0.05051824               -0.42092760                0.21398190                3.52063056                0.72073929
               9.09561782                1.66654280               32.80882303                0.00010000                0.06221786               -0.00124412               -0.72003040                0.09713509                4.26511705                1.32122211
              10.09703212                1.48717682               32.73028309                0.55185797                0.22449486                0.22942525               -0.92408362               -0.09085276                2.38168102                1.76905466
              11.10010772                1.30836318               32.62936809                1.00000000                0.34444710                0.32388418               -1.17058317               -0.02782022                0.84751049                0.84072093
              12.10392106                1.13009746               32.51993117                1.00000000                0.38133382                0.49358330               -1.45759806               -0.00024253                0.43303767               -1.05605704
               2.30279253                3.95639689               33.36141798                1.00000000               -0.21853362               -0.30910291                0.89165812               -0.01434135                0.10979752                1.55513722
               3.30060720                3.76872230               33.24336304                1.00000000               -0.18879835               -0.19562979                0.64217137                0.00462993                0.15827616               -0.02108160
               4.29901657                3.58057808               33.12619412                0.40361169               -0.10441690               -0.08690310                0.40214704               -0.05477304                1.11189622               -1.68678246
               5.29851886                3.39096680               33.02720577                0.00010000               -0.43770724               -0.04178379                0.15368971                0.21661498                5.22024443               -2.75352135
               6.29026242                3.20733083               32.99201577                0.00010000               -0.77032078               -0.04241505               -0.05565715                0.57345070                7.98346627               -2.98113331
               7.28311244                3.02400509               32.94689646                0.00010000               -0.58843087               -0.10009891               -0.26237204                0.34556989                7.16004194               -0.69611959
               8.27849380                2.84330830               32.89338127                0.00010000               -0.35044936               -0.14900026               -0.47377126                0.17074423                6.68985601                1.56829976
               9.27610346                2.66420032               32.83761615                0.00010000               -0.21574238               -0.15678648               -0.68744072                0.16310428                6.36348780                2.08948085
              10.27417896                2.48911821               32.77668512                0.14397666                0.06514718                0.02653651               -0.84299073               -0.03880228                4.11607841                3.23927957
              11.27740640                2.31141626               32.67520980                1.00000000                0.35130493                0.27874971               -1.14235859               -0.07818462                1.12177270                1.40478680
              12.28120505                2.13517014               32.55290178                1.00000000                0.37986553                0.49656935               -1.43125990               -0.02080583                0.10324240               -0.58977572
               2.48972102                4.95342248               33.32277679                1.00000000               -0.17720370               -0.27871793                0.75704696               -0.02330889                0.16839625                1.32463516
               3.48794898                4.76696920               33.19717617                0.83254800               -0.15071182               -0.14817081                0.50540730               -0.00890362                0.25792651               -0.28572676
               4.48670678                4.57997142               33.07329688                0.18898614               -0.07389108               -0.02713724                0.26516826               -0.09582529                1.29846300               -1.75165013
               5.48647116                4.39102475               32.96851159                0.00010000               -0.54025921                0.08913086                0.02763251                0.02031722                6.85883422               -2.78201774
               6.47590160                4.20730119               32.95580460                0.00010000               -0.98974588                0.08294568               -0.12320819                0.07720816               11.10848749               -1.29212937
               7.46667624                4.02427132               32.93468205                0.00010000               -0.84470913                0.08507282               -0.29781009               -0.04669853               10.40781596               -0.03494414
               8.45900741                3.84269600               32.90634905                0.00010000               -0.68031206                0.01047294               -0.48342102               -0.14087161                9.92922300                1.29749851
               9.45307000                3.66340707               32.87371494                0.00010000               -0.49836427               -0.04780154               -0.66804576               -0.15245619                9.76584793                2.55570862
              10.44904013                3.48770755               32.83998614                0.07775076               -0.02889537               -0.18163933               -0.84358696               -0.09493985                5.55312396                3.96358753
              11.45249209                3.31393818               32.72060154                0.71695675                0.34785219                0.20974731               -1.01235922               -0.02257120                0.74538096                1.53032335
              12.45599717                3.14002885               32.59011788                1.00000000                0.35050800                0.48984900               -1.33191880               -0.05104651                0.19723638               -0.29084955
               2.67523290                5.95082253               33.28161063                1.00000000               -0.13527192               -0.23460005                0.61288314               -0.02816913                0.13174929                1.08730351
               3.67388018                5.76575889               33.14758205                0.63095667               -0.10941895               -0.09296859                0.34904674               -0.01923987                0.32773449               -0.57326492
               4.67304452                5.58003534               33.01740552                0.08661678               -0.11423698                0.04128110                0.10287270               -0.08874224                1.89017000               -2.10248377
               5.67159544                5.39274942               32.91464493                0.00010000               -0.72422518                0.22537648               -0.08054618               -0.25292650                9.12829447               -1.27142618
               6.65856001                5.20898975               32.92921445                0.00010000               -1.24058896                0.23540367               -0.16764804               -0.24681902               14.32973938               -0.33515129
               7.64678366                5.02570654               32.92903347                0.00010000               -1.10096989                0.20852240               -0.32036444               -0.39700731               13.35577992                0.53699916
               8.63654062                4.84351776               32.92214594                0.00010000               -0.93704387                0.13183834               -0.47851846               -0.49847493               12.98166978                1.54084666
               9.62804278                4.66324429               32.91207025                0.00010000               -0.73957829                0.00679158               -0.63320055               -0.53407616               12.91956414                2.65333926
              10.62174905                4.48548542               32.90117584                0.07885055               -0.17045545               -0.19518950               -0.78436153               -0.27124339                6.96131883                3.78691772
              11.62463367                4.31561121               32.76907510                0.56471116                0.31268635                0.16801068               -0.94552741                0.03204817                0.50116067                1.62449387
              12.62800278                4.14496712               32.62852090                1.00000000                0.33691050                0.49422327               -1.29176660               -0.02316060                0.09351030               -0.21876144
               2.85928493                6.94873048               33.23826747                0.98113508               -0.09335519               -0.18061279                0.46321165               -0.02674809                0.05982388                0.91881207
               3.85835138                6.76510983               33.09553364                0.50656546               -0.06717625               -0.04163835                0.19494905               -0.01923293                0.28649356               -0.72836278
               4.85794141                6.58079704               32.95726354                0.02810037               -0.29465796                0.10104786               -0.06008393               -0.05611578                3.85477573               -2.42602878
               5.85245822                6.39553228               32.88591484                0.00010000               -0.99666588                0.28298928               -0.02648137               -0.46195401               12.07672156                0.72646783
               6.83800809                6.21200926               32.91219161                0.00010000               -1.41250685                0.35936619               -0.19234459               -0.49604319               16.56041692                0.44497990
               7.82420808                6.02844176               32.92858260                0.00010000               -1.32539574                0.34720524               -0.33457432               -0.68133833               15.96289700                0.92274204
               8.81150017                5.84533277               32.94047542                0.00010000               -1.18936343                0.24484672               -0.46232388               -0.85573614               15.79566791                1.68085000
               9.80042081                5.66354290               32.95069087                0.00010000               -1.01259156                0.07070071               -0.57621624               -0.97602990               15.88000266                2.59527454
              10.79124834                5.48380376               32.96118197                0.09863456               -0.33847296               -0.12439239               -0.67498021               -0.52837717                8.27843990                3.59838899
              11.79365135                5.31729839               32.81629086                0.50036009                0.27868912                0.17459839               -0.89861476                0.05013149                0.29094918                1.50091889
              12.79682212                5.14991331               32.66666449                0.96893658                0.31707697                0.48913763               -1.25613763               -0.01037482                0.06625220               -0.26632590
               3.04193922                7.94721028               33.19374686                0.96678060               -0.05102689               -0.12342421                0.31460547               -0.02511073                0.02191758                0.84566075
               4.04142895                7.76492612               33.04270700                0.44558741               -0.02197299                0.00182706                0.04421319               -0.01190942                0.17379638               -0.76429294
               5.04149976                7.58205629               32.89462802                0.00010000               -0.51424041                0.13862173               -0.22415806               -0.02995283                6.61678386               -2.57136775
               6.03114414                7.39840920               32.87244282                0.00010000               -1.28850483                0.35241703               -0.01830591               -0.38429243               15.50186717                1.12681256
               7.01572966                7.21617707               32.90165697                0.00010000               -1.56553779                0.50566040               -0.23323264               -0.50399373               18.20267429                0.77074063
               7.99983339                7.03265065               32.93124727                0.00010000               -1.57024533                0.53563715               -0.35166862               -0.84037518               18.30281612                1.04761256
               8.98432476                6.84841469               32.95978920                0.00010000               -1.48910977                0.40835295               -0.44142637               -1.18441124               18.41376365                1.66657201
               9.97005119                6.66465830               32.98850210                0.00010000               -1.34493693                0.18215014               -0.50994253               -1.41535389               18.66566099                2.42585203
              10.95742602                6.48299757               33.01880824                0.13043407               -0.52622229               -0.03920191               -0.54573259               -0.80943386                9.53587730                3.27120769
              11.95952675                6.31910317               32.86192564                0.47073867                0.25697071                0.18880867               -0.85751179                0.03272168                0.10941191                1.32515983
              12.96256543                6.15474988               32.70340882                0.94399556                0.30386866                0.46826496               -1.22464743                0.00088038                0.04079230               -0.40603373
               3.22335103                8.94626199               33.14891570                0.96048916               -0.00838610               -0.06774232                0.16809768               -0.02375329                0.00590377                0.84472549
               4.22326717                8.76514637               32.98981873                0.44318179                0.02541160                0.04147418               -0.10388331               -0.00440749                0.04011199               -0.75386404
               5.22385927                8.58356948               32.83132055                0.00010000               -0.63077891                0.15854429               -0.38600442                0.05253357                9.06012585               -2.42258313
               6.21065159                8.40258062               32.85258928                0.00010000               -1.50862502                0.52833468               -0.21393086               -0.08875549               19.02451193                0.44423693
               7.19368677                8.22212247               32.89185253                0.00010000               -1.77443195                0.72097692               -0.31609535               -0.34120015               20.19219850                0.63331269
               8.17516296                8.03915451               32.93411354                0.00010000               -1.89412344                0.78093159               -0.38371737               -0.81310070               20.59795486                0.88445886
               9.15580430                7.85349982               32.97874260                0.00010000               -1.88160503                0.70459529               -0.41351687               -1.34978677               20.92449862                1.42495175
              10.13753086                7.66718590               33.02445333                0.00010000               -1.75947523                0.36593664               -0.44563516               -1.89013826               21.25472338                2.40402900
              11.12061479                7.48301972               33.07233115                0.17128244               -0.74886844                0.04002069               -0.45675387               -1.10794885               10.75466669                2.73884661
              12.12255349                7.32107456               32.90532493                0.46560239                0.24657669                0.20965131               -0.83288593                0.00119780                0.01532037                1.10208948
              13.12554633                7.15927861               32.73813027                0.93212085                0.29928395                0.43280700               -1.20821918                0.00932142                0.02029117               -0.60250284
               3.40369539                9.94585543               33.10431326                0.95768717                0.03379264               -0.01640064                0.02380558               -0.02298788               -0.01675954                0.74508924
               4.40403331                9.76575560               32.93709751                0.47001042                0.07104011                0.08076047               -0.24941324               -0.00129326                0.06774609               -0.63381139
               5.40511619                9.58522718               32.77147751                0.00010000               -0.66086346                0.17767589               -0.53073110                0.23821705               11.15205063               -1.63075964
               6.39081604                9.40897590               32.82589596                0.00010000               -1.63922094                0.79434741               -0.43365000                0.15451671               22.22874984                0.03918712
               7.37233177                9.23059661               32.87922665                0.00010000               -1.93110141                0.90460193               -0.43131410               -0.14075467               22.41986378                0.31294308
               8.35219402                9.04826928               32.93437248                0.00010000               -2.15170730                0.98989797               -0.43881057               -0.51513764               22.89174692                0.49610516
               9.32929762                8.86250660               32.99426864                0.00010000               -2.47327426                1.03691916               -0.40150836               -1.06936380               23.68693718                0.84365143
              10.30272853                8.67197703               33.06267221                0.00010000               -2.39596217                0.91415144               -0.26475946               -1.78213710               23.64420201                1.87812692
              11.28137838                8.48379799               33.11920381                0.21994093               -0.97183618                0.12095155               -0.44218889               -1.40410382               11.72065425                1.66005560
              12.28329181                8.32329620               32.94622441                0.47848298                0.24826894                0.23621671               -0.83800984               -0.02507352                0.12098426                0.77862791
              13.28634376                8.16340602               32.77042123                0.92216540                0.30519524                0.39983887               -1.21674681                0.01143944               -0.00291529               -0.65478275
               3.58309093               10.94593398               33.05739520                0.97993000                0.07786239                0.00785474               -0.11744496                0.02231528                0.40802787                0.63519163
               4.58386956               10.76676158               32.88652208                0.77802501                0.11561897                0.10059819               -0.39170211                0.04307539                0.82645021               -0.52246220
               5.58540331               10.58712300               32.72391290                0.45502966               -0.77485291                0.18958160               -0.66647348                0.61401149               13.09025079               -1.01429171
               6.56837250               10.41846756               32.79824377                0.31517025               -1.69125138                0.94916694               -0.58645188                0.41022105               24.74959483               -0.07218789
               7.55157829               10.24021451               32.86367973                0.30486617               -1.77111438                0.96178965               -0.54639994               -0.05110336               24.54867976                0.12824809
               8.53295021               10.05895247               32.93018101                0.31877898               -2.04345091                1.06831846               -0.52050728               -0.22319528               25.03295031                0.24821648
               9.51070927                9.87423821               33.00234530                0.35578422               -2.61767440                1.17316075               -0.44404083               -0.53301231               26.15599091                0.46500565
              10.48059672                9.68546893               33.08902937                0.50012585               -3.47478593                1.34918983               -0.17989946               -1.65315349               25.70906145                1.28155828
              11.44121355                9.48543875               33.15090133                0.63679420               -1.90763683                0.16407619               -0.50035515               -1.99998487               13.06140006                0.91880032
              12.44244399                9.32579890               32.98283866                0.75904127                0.21709658                0.25026976               -0.87785761                0.00705008                1.02945685                0.58380322
              13.44555548                9.16727539               32.80366037                0.96263328                0.31114933                0.38693745               -1.24714254                0.06882150                0.49468969               -0.58624677
               1.83129903                1.02064641               34.49101192                1.00000000               -0.34449270               -0.36779610                1.27394475               -0.05772860               -0.95689842                0.97418963
               2.82785410                0.82191498               34.38470979                1.00000000               -0.30225752               -0.28724608                1.02728341               -0.03825183               -1.24888897                0.11623046
               3.82525388                0.62276141               34.27259361                1.00000000               -0.20830313               -0.20830235                0.76917929               -0.04205534               -1.22225646               -0.21108901
               4.82368804                0.42347798               34.16688865                0.62985783                0.03463388               -0.15118663                0.51929235                0.10122496               -0.39842588               -0.85167914
               5.82594656                0.22729201               34.07137358                0.68063825                0.17911742               -0.08309853                0.23171528               -0.07037594               -0.04529026                0.28008588
               6.82727039                0.03414879               33.97359502                0.75333135                0.13052315                0.00758620               -0.01684423               -0.04881517               -0.32614516                0.16272216
               7.82855702               -0.15775102               33.87225364                0.74340443                0.16370065                0.08099100               -0.26596339               -0.02874554               -0.56639528               -0.06772625
               8.83054440               -0.34887812               33.76937204                0.84722826                0.22287545                0.15982755               -0.52140089               -0.04061319               -0.85261558                0.10571789
               9.83301453               -0.53943052               33.66199909                1.00000000                0.27288349                0.23810981               -0.79410909               -0.04130961               -1.15633443                0.58329970
              10.83600207               -0.72980956               33.55286536                1.00000000                0.33336831                0.33078859               -1.07782506               -0.03121873               -1.11925139               -0.01075208
              11.83968189               -0.92035466               33.44624416                1.00000000                0.36798237                0.43135407               -1.35537194               -0.02333578               -0.99806852               -0.99419146
               2.02945317                2.01696845               34.44605258                1.00000000               -0.30390861               -0.35514022                1.13803744               -0.01565053               -0.14741527                1.32731872
               3.02641408                1.81904252               34.33950647                1.00000000               -0.27006714               -0.26775020                0.89366734                0.00508846               -0.17050497                0.16537568
               4.02405183                1.62067839               34.23248546                0.97375334               -0.19895456               -0.18315478                0.63426448               -0.00343748               -0.02184290               -0.53094287
               5.02243499                1.42196612               34.12886970                0.26612095               -0.20722169               -0.12848385                0.36655059                0.15984894                1.61028178               -1.25432656
               6.01990739                1.22646102               34.05431311                0.36679438               -0.15656202               -0.00484834                0.11059017               -0.06821287                2.45489903                1.00362213
               7.01930375                1.03422466               33.96565762                0.44530745               -0.00621845                0.05370758               -0.12694779                0.00755186                1.54665960                0.46005846
               8.01978302                0.84305889               33.87228225                0.36639205                0.08371355                0.11479851               -0.36464641                0.04205334                1.44729221               -0.28967736
               9.02097802                0.65272015               33.78137781                0.50108867                0.16420628                0.19627035               -0.61572833               -0.00127890                1.49534498                0.50801691
              10.02306715                0.46295057               33.68887447                1.00000000                0.25869644                0.25127106               -0.87504457               -0.01129546                0.78231230                0.83027723
              11.02615195                0.27349833               33.58377113                1.00000000                0.34632455                0.33593292               -1.15056851                0.01135901                0.08799933                0.12254995
              12.02999364                0.08395888               33.47732911                1.00000000                0.38416889                0.45987661               -1.42684663                0.02109946                0.02673188               -1.16336678
               2.22683787                3.01354360               34.40817502                1.00000000               -0.25919379               -0.33373203                1.01163802               -0.01055854                0.04962450                1.67822855
               3.22424593                2.81655998               34.29527324                1.00000000               -0.22881668               -0.23156061                0.76545915                0.01005180                0.22958343                0.15040716
               4.22226153                2.61909832               34.18592348                0.68662100               -0.15717734               -0.13192637                0.52715350               -0.01160583                0.71275228               -1.30690270
               5.22110238                2.42090831               34.08266254                0.00372381               -0.49688872               -0.09449483                0.24549918                0.23223748                4.64016917               -2.03720026
               6.21232376                2.22719504               34.05184992                0.00010000               -0.51394127               -0.01030187               -0.05428910                0.29665415                5.66290217               -1.18385882
               7.21082356                2.03522294               33.96372620                0.00010000               -0.07105852               -0.05172166               -0.24411683                0.17027140                2.44437277               -0.12500058
               8.21090259                1.84454495               33.86793892                0.00010000               -0.00982094               -0.03439182               -0.45208681                0.07216195                3.53906612                0.74986519
               9.21062714                1.65504728               33.80158620                0.00010000                0.05539254                0.01574248               -0.73312957               -0.02583231                4.28381368                1.35362499
              10.21201044                1.46559490               33.72086137                0.52736515                0.22969012                0.17918700               -0.96219391               -0.17659195                2.44140587                1.85751032
              11.21522094                1.27690910               33.61747617                1.00000000                0.35861692                0.32174088               -1.21055757               -0.04245709                0.87272909                0.87447050
              12.21918278                1.08884287               33.50512057                1.00000000                0.39618370                0.51016724               -1.50216999                0.00322812                0.44005041               -1.05839071
               2.42320925                4.01029381               34.37029055                1.00000000               -0.21488410               -0.31307533                0.88428429               -0.01512172                0.11299558                1.56809284
               3.42106041                3.81441131               34.24975685                1.00000000               -0.18689326               -0.19363038                0.63689461                0.00312099                0.16590295               -0.01495489
               4.41947138                3.61803986               34.13021640                0.40855964               -0.10386955               -0.07952697                0.40133141               -0.06390566                1.11843009               -1.68598925
               5.41898301                3.42007622               34.02872520                0.00010000               -0.39727731               -0.03468145                0.15184889                0.10950694                5.22992045               -2.71885112
               6.41152584                3.22625499               33.99137980                0.00010000               -0.68118725               -0.04299382               -0.07686678                0.30042969                8.02491433               -2.91549110
               7.40535927                3.03319022               33.94412600                0.00010000               -0.50619560               -0.09436394               -0.29500153                0.10688119                7.21300194               -0.63613316
               8.40140192                2.84237105               33.88847551                0.00010000               -0.29739205               -0.14163345               -0.51202360               -0.04355121                6.75134170                1.62443186
               9.39941143                2.65303500               33.83051745                0.00010000               -0.18642168               -0.14733624               -0.73034810               -0.05445054                6.47122441                2.17971140
              10.39767349                2.46653431               33.76821000                0.13272892                0.13217009               -0.01570154               -0.93429082               -0.11980824                4.20296939                3.36278463
              11.40205483                2.27993315               33.66348088                1.00000000                0.42585845                0.27410851               -1.23800472               -0.05533382                1.13084607                1.53609311
              12.40619066                2.09416223               33.53828630                1.00000000                0.41358280                0.52695578               -1.52029805               -0.03064694                0.15034037               -0.50988780
               2.61830043                5.00728210               34.33029520                1.00000000               -0.17381308               -0.28194212                0.74770307               -0.02506236                0.17551720                1.32745833
               3.61656230                4.81268737               34.20219605                0.82323831               -0.14909577               -0.14391962                0.49876879               -0.01282477                0.27017411               -0.29455793
               4.61531851                4.61750778               34.07592622                0.18815596               -0.07424491               -0.01737457                0.26018804               -0.11065095                1.31600801               -1.76883615
               5.61507740                4.42021468               33.96874215                0.00010000               -0.50500797                0.09637467                0.02286485               -0.09444997                6.91672418               -2.75499357
               6.60521835                4.22633516               33.95449320                0.00010000               -0.91161418                0.08717768               -0.14205586               -0.11938351               11.20299551               -1.23150715
               7.59684511                4.03333567               33.93154538                0.00010000               -0.75157827                0.07098399               -0.33377083               -0.23496355               10.49205917                0.03617969
               8.59018679                3.84171228               33.90127254                0.00010000               -0.57351226               -0.00433781               -0.53690658               -0.31655018               10.01839805                1.37966574
               9.58537487                3.65210056               33.86671881                0.00010000               -0.37353286               -0.06975656               -0.74266782               -0.32841236                9.86647707                2.65671030
              10.58271613                3.46528087               33.83110570                0.06848013                0.05557415               -0.17643681               -0.94002527               -0.14355032                5.69522517                4.05754777
              11.58648635                3.28239127               33.71043396                0.68268460                0.36977758                0.21422908               -1.05565601               -0.01410880                0.84509201                1.67433014
              12.59011168                3.09938199               33.57667822                1.00000000                0.36253294                0.52450540               -1.40039307               -0.04903723                0.22185042               -0.18925359
               2.81189745                6.00465496               34.28767959                1.00000000               -0.13192203               -0.23650306                0.60160673               -0.02967896                0.13153962                1.08163562
               3.81057823                5.81153292               34.15103324                0.62130171               -0.10831973               -0.08676767                0.34120575               -0.02365751                0.33633010               -0.59087798
               4.80973106                5.61769237               34.01841651                0.08331506               -0.11558021                0.05485541                0.09899702               -0.11090889                1.94165582               -2.13154653
               5.80826663                5.42200371               33.91389181                0.00010000               -0.68569405                0.21479790               -0.06927461               -0.38445533                9.25021744               -1.15036749
               6.79601718                5.22799854               33.92748087                0.00010000               -1.14918720                0.22248338               -0.18225778               -0.44681660               14.46827639               -0.25417903
               7.78528288                5.03460990               33.92564827                0.00010000               -0.98555739                0.18542955               -0.36173697               -0.57016967               13.46903585                0.61823702
               8.77630603                4.84228430               33.91707463                0.00010000               -0.80041428                0.10118209               -0.54320682               -0.66103354               13.10635288                1.63890208
               9.76927460                4.65163987               33.90536052                0.00010000               -0.58971295               -0.02369353               -0.72020279               -0.70799193               13.06596597                2.77855388
              10.76451177                4.46300558               33.89291757                0.06959255               -0.08015332               -0.20201577               -0.88859473               -0.35810403                7.14757319                3.94055585
              11.76767153                4.28421773               33.75937380                0.53937448                0.33583556                0.18705428               -1.01064700                0.03796859                0.60326495                1.73623804
              12.77122848                4.10465234               33.61526228                0.99063101                0.35569495                0.53082323               -1.37128697               -0.01653681                0.09491865               -0.13685438
               3.00395094                7.00255203               34.24283163                0.97925850               -0.08992002               -0.18058703                0.45012319               -0.02770704                0.05841885                0.91016642
               4.00305174                6.81095202               34.09743717                0.49752075               -0.06607014               -0.03508243                0.18540829               -0.02269664                0.29169977               -0.74282610
               5.00262954                6.61860488               33.95663962                0.02355443               -0.29848094                0.11533701               -0.06588907               -0.10131077                4.02379002               -2.45556373
               5.99708212                6.42451063               33.88590075                0.00010000               -0.94768533                0.24698063                0.02099260               -0.60227991               12.27552482                0.88405348
               6.98367583                6.23078483               33.91020759                0.00010000               -1.29630796                0.33010296               -0.20901815               -0.68377009               16.66270975                0.52352547
               7.97115596                6.03704426               33.92503147                0.00010000               -1.18698416                0.31153729               -0.38167992               -0.85108077               16.10553583                1.00666250
               8.95993615                5.84373592               33.93554081                0.00010000               -1.03311061                0.20335476               -0.53303533               -1.01454994               15.96960641                1.78835859
               9.95049375                5.65162669               33.94454495                0.00010000               -0.84799790                0.03645255               -0.66524227               -1.14356930               16.09111086                2.73665587
              10.94297619                5.46124055               33.95400393                0.08935776               -0.24473922               -0.13033136               -0.77825483               -0.60628302                8.47474122                3.78805627
              11.94559896                5.28613236               33.80705183                0.48058090                0.29677718                0.19286027               -0.95281690                0.06181304                0.36790923                1.60753054
              12.94891173                5.10999845               33.65379079                0.94993457                0.33127677                0.52507863               -1.32067905               -0.00805041                0.07045935               -0.17655864
               3.19454335                8.00104322               34.19681632                0.96557977               -0.04718973               -0.12132067                0.29970509               -0.02571822                0.02077071                0.83814499
               4.19407145                7.81083127               34.04309669                0.43859176               -0.01985613                0.00766052                0.03319870               -0.01380650                0.17309002               -0.77516940
               5.19414622                7.61999911               33.89234665                0.00010000               -0.50151843                0.15004332               -0.23389488               -0.10429667                6.86020962               -2.59769603
               6.18404108                7.42694333               33.87235669                0.00010000               -1.21690363                0.32059780               -0.00965623               -0.52003693               15.77382127                1.13622749
               7.16980815                7.23460060               33.89921626                0.00010000               -1.43654516                0.47197817               -0.26022261               -0.67219641               18.30839968                0.81777432
               8.15531018                7.04084065               33.92748952                0.00010000               -1.41877765                0.49338037               -0.40689018               -1.00760414               18.48846054                1.12175805
               9.14143260                6.84635139               33.95504161                0.00010000               -1.32057968                0.35808324               -0.51687233               -1.34391250               18.64546412                1.77717923
              10.12889858                6.65236892               33.98303156                0.00010000               -1.17760802                0.14073514               -0.59471985               -1.56979234               18.95221151                2.56727911
              11.11788044                6.46039895               34.01301566                0.12177200               -0.43743482               -0.03872564               -0.62401969               -0.88429075                9.73242258                3.45088327
              12.12014989                6.28807494               33.85310970                0.45315670                0.27274210                0.20207855               -0.90832623                0.04144662                0.14256953                1.41466266
              13.12333528                6.11515391               33.69087957                0.92793880                0.31853928                0.49730543               -1.28208616                0.00317507                0.04249636               -0.33049314
               3.38386048                9.00012562               34.15051094                0.95988291               -0.00407608               -0.06390343                0.15132671               -0.02411805                0.00496363                0.83898923
               4.38381972                8.81110523               33.98872218                0.43882758                0.02855311                0.04647970               -0.11605325               -0.00519010                0.03357878               -0.76153808
               5.38443155                8.62160575               33.82741896                0.00010000               -0.58699149                0.16576266               -0.39570125               -0.03643802                9.26797244               -2.43632052
               6.37207989                8.43092259               33.85027244                0.00010000               -1.40484831                0.51121446               -0.25227524               -0.23687591               19.33439661                0.34992590
               7.35633458                8.24022440               33.88850570                0.00010000               -1.64134045                0.68832042               -0.35939569               -0.50072835               20.39557930                0.64348849
               8.33925308                8.04691186               33.92998273                0.00010000               -1.74024782                0.74136559               -0.45020604               -0.97293719               20.84921277                0.93783267
               9.32152962                7.85089759               33.97422716                0.00010000               -1.71013699                0.65865725               -0.50033678               -1.51034650               21.21816203                1.52583870
              10.30505034                7.65444139               34.01961018                0.00010000               -1.59726317                0.31952665               -0.53270913               -2.04084830               21.59269194                2.58810826
              11.28958436                7.46046604               34.06750959                0.16460032               -0.66887026                0.04830625               -0.51223639               -1.17233724               10.94191159                2.85391394
              12.29167294                7.29017393               33.89674535                0.44861814                0.26164640                0.22368968               -0.88427606                0.00572496                0.01433787                1.16307035
              13.29481729                7.11994456               33.72576753                0.91773793                0.31443487                0.45684843               -1.26491871                0.01097978                0.01972048               -0.55212005
               3.57210177                9.99976515               34.10445576                0.95765742                0.03857444               -0.01119428                0.00502648               -0.02324404               -0.01787231                0.74168528
               4.57248752                9.81176086               33.93454110                0.46775864                0.07491632                0.08522604               -0.26260464               -0.00171567                0.06240318               -0.63812087
               5.57360010                9.62331436               33.76613534                0.00010000               -0.59013007                0.18169416               -0.53957118                0.13937372               11.32170904               -1.63081327
               6.56068492                9.43716761               33.82133994                0.00010000               -1.48978951                0.75391784               -0.47825028                0.02107732               22.55001888               -0.01928934
               7.54380431                9.24836701               33.87465250                0.00010000               -1.77533376                0.86821168               -0.48898842               -0.25895584               22.70945236                0.30691827
               8.52517824                9.05566796               33.92962570                0.00010000               -2.00540840                0.95932937               -0.51885591               -0.62546849               23.21316278                0.52296921
               9.50369614                8.85952454               33.98979399                0.00010000               -2.33325370                1.01565229               -0.50732717               -1.19357325               24.10192236                0.90637820
              10.47851317                8.65875945               34.05949284                0.00010000               -2.24974941                0.89130414               -0.39788663               -1.89747174               24.00020378                2.06399742
              11.45870115                8.46136508               34.11453011                0.21768905               -0.88636535                0.13544187               -0.49214601               -1.44755067               11.82748093                1.69276698
              12.46078586                8.29254873               33.93756132                0.46163278                0.26562272                0.25339348               -0.89438485               -0.02356070                0.11220307                0.80318082
              13.46401361                8.12429088               33.75794508                0.90901018                0.32277478                0.42141469               -1.27918041                0.01315144               -0.00234761               -0.63169909
               3.75940419               10.99990174               34.05611611                0.98008502                0.08320150                0.01365821               -0.13811995                0.02104254                0.40589646                0.63311730
               4.76023620               10.81280975               33.88253628                0.77769137                0.12040408                0.10488861               -0.40621983                0.04176326                0.82365218               -0.52473235
               5.76181227               10.62523963               33.71720389                0.45395683               -0.63937028                0.19252716               -0.67675256                0.48077678               13.25633801               -1.00958790
               6.74744880               10.44600095               33.79219085                0.31536164               -1.45785748                0.88333326               -0.62768194                0.29383772               25.08660646               -0.09881087
               7.73265512               10.25758863               33.85789872                0.30501169               -1.59313062                0.92216231               -0.61497223               -0.11004390               24.87799812                0.12054519
               8.71558618               10.06609845               33.92455014                0.31857284               -1.90442274                1.04304924               -0.61458705               -0.27810559               25.39818441                0.26124229
               9.69456666                9.87121063               33.99735688                0.35492746               -2.51629057                1.16860959               -0.56988710               -0.60449674               26.65715160                0.50230768
              10.66526037                9.67226747               34.08652937                0.50291129               -3.38612956                1.35080191               -0.35873704               -1.72706743               26.06760432                1.42956675
              11.62684407                9.46317488               34.14556953                0.63740849               -1.84922241                0.18097998               -0.56417154               -2.03699184               13.11726454                0.91015849
              12.62827592                9.29524180               33.97370895                0.75073461                0.23759743                0.26930706               -0.94605282                0.00890547                1.04043761                0.58824189
              13.63159602                9.12837286               33.79082049                0.95641180                0.33200972                0.40819804               -1.32057044                0.07134708                0.50950683               -0.57581758
               1.92920326                1.07607491               35.50376182                1.00000000               -0.34558343               -0.36902573                1.27679827               -0.05761215               -0.96891425                0.98360642
               2.92574742                0.86898184               35.39498327                1.00000000               -0.30396317               -0.28668157                1.02723449               -0.03707837               -1.26664497                0.12291504
               3.92312399                0.66145182               35.28026951                1.00000000               -0.21186068               -0.20614565                0.76466908               -0.04219231               -1.24064573               -0.20937486
               4.92151021                0.45368111               35.17203969                0.63032824                0.01074625               -0.14566201                0.50941748                0.04816219               -0.42794621               -0.86803852
               5.92333892                0.24779453               35.07365198                0.67545372                0.16464055               -0.09029308                0.22031397               -0.07316181               -0.06749862                0.28470971
               6.92480302                0.04428038               34.97341964                0.74509728                0.14717534                0.00475044               -0.02423329               -0.06011684               -0.31994742                0.16531096
               7.92628242               -0.15794472               34.86963011                0.73779023                0.18332918                0.07845596               -0.26601891               -0.03918101               -0.55136422               -0.06359546
               8.92846960               -0.35935705               34.76429187                0.84477452                0.23754345                0.15284283               -0.50372051               -0.05408699               -0.84162723                0.10663230
               9.93103329               -0.56003973               34.65420715                1.00000000                0.27701544                0.23126974               -0.77155029               -0.05134564               -1.16192223                0.59122909
              10.93400991               -0.76045603               34.54222520                1.00000000                0.33036257                0.32347916               -1.05211969               -0.03482175               -1.12907562               -0.00714367
              11.93764054               -0.96109395               34.43280106                1.00000000                0.36306334                0.42486891               -1.33409958               -0.01813283               -1.00548587               -0.99878772
               2.13572020                2.07238465               35.45743043                1.00000000               -0.30320227               -0.35718877                1.13844754               -0.01439007               -0.15254382                1.34084476
               3.13268818                1.86611502               35.34843013                1.00000000               -0.26838853               -0.26711373                0.89114362                0.00695336               -0.18392677                0.17500202
               4.13035243                1.65939037               35.23878956                0.98449685               -0.19338528               -0.18056683                0.62688242               -0.00510180               -0.04689435               -0.51493484
               5.12882047                1.45222449               35.13246945                0.27372923               -0.15223841               -0.12101010                0.35503877                0.08797944                1.58570801               -1.25638543
               6.12730766                1.24689160               35.05529802                0.36911926               -0.08744999               -0.01944559                0.08586605               -0.07851361                2.45772940                0.98617546
               7.12707147                1.04432789               34.96428277                0.44479211                0.02008328                0.05122623               -0.15141124               -0.01570073                1.57248657                0.46105656
               8.12770933                0.84283984               34.86856545                0.36785954                0.09523830                0.12123788               -0.38400355                0.01350764                1.47612036               -0.27862070
               9.12897624                0.64217138               34.77522900                0.49465992                0.16799973                0.19163553               -0.62173168               -0.03324187                1.51897510                0.50179962
              10.13106932                0.44227296               34.68013651                1.00000000                0.26062807                0.25156139               -0.87597475               -0.02278234                0.79360337                0.83592730
              11.13418880                0.24277877               34.57223434                1.00000000                0.35139084                0.32994305               -1.15677967                0.00874852                0.08987215                0.13276781
              12.13809714                0.04315474               34.46300567                1.00000000                0.39083391                0.45332039               -1.43665204                0.02723378                0.02935287               -1.17082816
               2.34145471                3.06893113               35.41827399                1.00000000               -0.25739354               -0.33730449                1.00959426               -0.00917474                0.04830470                1.69584651
               3.33888077                2.86363957               35.30291222                1.00000000               -0.22711107               -0.23073171                0.76219096                0.01102900                0.23046769                0.16262758
               4.33691249                2.65784049               35.19116026                0.70055421               -0.15561062               -0.12674053                0.51918753               -0.01571345                0.69412784               -1.28527908
               5.33576856                2.45126091               35.08503176                0.00538752               -0.36236182               -0.08571650                0.22935655                0.13492636                4.58890822               -2.00870155
               6.32966525                2.24740562               35.05113354                0.00010000               -0.36138992               -0.02569372               -0.08800912                0.10481198                5.67036099               -1.15331230
               7.32854076                2.04530491               34.96110791                0.00010000               -0.04780830               -0.04323199               -0.28113213                0.01398563                2.51562789               -0.09027541
               8.32870908                1.84448004               34.86323198                0.00010000               -0.00845594               -0.01882631               -0.49163654               -0.07046932                3.57750279                0.78326169
               9.32837164                1.64447566               34.79416044                0.00010000                0.06305868                0.02452781               -0.76266479               -0.13356669                4.32415691                1.40047589
              10.32997026                1.44499149               34.71103921                0.50706413                0.24657315                0.19283036               -0.99650193               -0.20636207                2.49470818                1.89561066
              11.33330311                1.24614284               34.60515694                1.00000000                0.37315084                0.32007835               -1.25164484               -0.06304068                0.89662334                0.89573840
              12.33743328                1.04797246               34.48988777                1.00000000                0.41301685                0.51300000               -1.53887960                0.00815670                0.44173918               -1.05762629
               2.54611984                4.06563856               35.37910366                1.00000000               -0.21204373               -0.31742623                0.87991646               -0.01506950                0.11580357                1.58054449
               3.54399941                3.86150039               35.25610093                1.00000000               -0.18515135               -0.19189551                0.63204992                0.00288307                0.17448061               -0.00805339
               4.54241682                3.65685556               35.13422074                0.41222433               -0.10227699               -0.07229496                0.39797339               -0.07109350                1.12663514               -1.68253627
               5.54195387                3.45051016               35.03024275                0.00010000               -0.35284548               -0.02513243                0.14674098               -0.00038609                5.23559865               -2.69272919
               6.53535991                3.24637773               34.99047843                0.00010000               -0.58385502               -0.04178254               -0.10481960                0.02230555                8.05191610               -2.83300495
               7.53027677                3.04346325               34.94099643                0.00010000               -0.41153592               -0.09161349               -0.33455407               -0.13585449                7.26203488               -0.56703091
               8.52712919                2.84246332               34.88314080                0.00010000               -0.22416566               -0.13949238               -0.55916608               -0.26542262                6.81973956                1.68481490
               9.52579345                2.64266193               34.82300919                0.00010000               -0.09271406               -0.13887280               -0.78628718               -0.20695054                6.54628324                2.25397757
              10.52527491                2.44612957               34.75799930                0.11757811                0.20767860               -0.04202780               -1.10508360               -0.21111905                4.32179702                3.55626566
              11.52994703                2.24918033               34.65044970                0.96023499                0.46630618                0.26945120               -1.37595034               -0.10982606                1.17855133                1.71329594
              12.53460103                2.05341474               34.52249581                1.00000000                0.46540062                0.56476714               -1.64342479               -0.05093984                0.20169160               -0.41388324
               2.74942966                5.06258261               35.33773085                1.00000000               -0.17082221               -0.28598748                0.74090361               -0.02626883                0.18213616                1.32989606
               3.74772144                4.85980166               35.20715154                0.81439512               -0.14744091               -0.14000898                0.49237626               -0.01587870                0.28134003               -0.30231550
               4.74648084                4.65639459               35.07850064                0.18612370               -0.07413864               -0.00822741                0.25355412               -0.12205732                1.33425388               -1.78393401
               5.74623867                4.45075826               34.96896889                0.00010000               -0.46612833                0.10366518                0.01952545               -0.21215292                6.96781914               -2.72786499
               6.73715828                4.24656997               34.95296348                0.00010000               -0.82502920                0.09070244               -0.16637978               -0.32382247               11.27833759               -1.15941374
               7.72973808                4.04347264               34.92800663                0.00010000               -0.64781664                0.05609720               -0.37840694               -0.42929640               10.55912316                0.11203663
               8.72420195                3.84169019               34.89561091                0.00010000               -0.45858523               -0.02178930               -0.60136649               -0.49740965               10.08800411                1.45838096
               9.72056638                3.64169820               34.85886158                0.00010000               -0.24862329               -0.08363575               -0.83757703               -0.49067713                9.94686104                2.74635953
              10.71922948                3.44415094               34.82118563                0.05759457                0.16275197               -0.23656275               -1.05320743               -0.23770119                5.84259809                4.22035695
              11.72382142                3.25153186               34.69948842                0.65442114                0.43580943                0.22688821               -1.19605170               -0.02379499                0.95841588                1.91037487
              12.72794567                3.05926780               34.56211001                1.00000000                0.41242494                0.58513616               -1.56129407               -0.05024730                0.23539341               -0.03274668
               2.95115638                6.05991881               35.29364277                1.00000000               -0.12865210               -0.23927703                0.59224894               -0.03123109                0.13103612                1.07582050
               3.94986985                5.85870021               35.15440616                0.61135735               -0.10686560               -0.08058951                0.33300228               -0.02859294                0.34496959               -0.60770627
               4.94901906                5.65669101               35.01938546                0.07903220               -0.11672143                0.06805213                0.09346617               -0.13219815                2.00050790               -2.15810991
               5.94753543                5.45258347               34.91325943                0.00010000               -0.64249900                0.19951032               -0.05904193               -0.51685744                9.36596558               -1.00683019
               6.93616908                5.24819178               34.92556930                0.00010000               -1.04824054                0.20872051               -0.20346436               -0.65124971               14.57684902               -0.16580449
               7.92657062                5.04458519               34.92179873                0.00010000               -0.86068276                0.16305631               -0.41354878               -0.74583759               13.55335993                0.70304335
               8.91895543                4.84202753               34.91128180                0.00010000               -0.65257243                0.07213813               -0.62311785               -0.82095481               13.20104202                1.73921354
               9.91351917                4.64098922               34.89766619                0.00010000               -0.41340993               -0.05466169               -0.83143117               -0.87078393               13.17889057                2.91443515
              10.91068723                4.44139832               34.88340395                0.05942960                0.04175490               -0.23420747               -1.04465930               -0.41321566                7.34241602                4.11803932
              11.91435426                4.25371810               34.74886216                0.51660962                0.37184876                0.20906206               -1.09474992                0.05602000                0.73638986                1.88925304
              12.91812421                4.06511746               34.60109517                0.97019869                0.37699408                0.57485257               -1.45461352               -0.01967759                0.10294386                0.00068460
               3.15124224                7.05779707               35.24726994                0.97744605               -0.08648585               -0.18124726                0.43854722               -0.02884422                0.05654178                0.90154297
               4.15037739                6.85818986               35.09924181                0.48782530               -0.06443096               -0.02812474                0.17491739               -0.02754357                0.29645551               -0.75680660
               5.14995363                6.65775563               34.95594576                0.01850145               -0.29883178                0.13160150               -0.07519930               -0.15082544                4.21711246               -2.48476811
               6.14440075                6.45474847               34.88633469                0.00010000               -0.89110329                0.20892944                0.06009994               -0.73978590               12.46816275                1.03764715
               7.13213156                6.25074438               34.90801125                0.00010000               -1.17075864                0.30213324               -0.23505875               -0.87094824               16.71488335                0.60375417
               8.12098558                6.04673376               34.92094900                0.00010000               -1.03763695                0.27746803               -0.44134423               -1.02023974               16.21575672                1.09480636
               9.11137882                5.84313296               34.92981471                0.00010000               -0.86028312                0.16221996               -0.62155337               -1.16961121               16.11331049                1.90503320
              10.10377992                5.64060497               34.93738602                0.00010000               -0.65712659               -0.00252801               -0.78187301               -1.30319802               16.27415339                2.89856705
              11.09823629                5.43946679               34.94561687                0.07914141               -0.12786209               -0.14443714               -0.92215560               -0.67913845                8.69288022                4.01602963
              12.10122267                5.25571310               34.79723452                0.46126744                0.32585495                0.19924035               -1.01589130                0.07290148                0.47982308                1.74620584
              13.10475339                5.07076485               34.64025091                0.93257957                0.35307141                0.55229068               -1.38508787               -0.00725359                0.07399636               -0.04842698
               3.34979390                8.05629387               35.19974097                0.96444884               -0.04334765               -0.11973661                0.28602730               -0.02633562                0.01933515                0.83046140
               4.34936042                7.85813772               35.04337097                0.43101664               -0.01749736                0.01406670                0.02101855               -0.01587403                0.17060467               -0.78535924
               5.34944395                7.65932304               34.88995012                0.00010000               -0.48047320                0.16493766               -0.24735951               -0.18304163                7.10529532               -2.62228844
               6.33975096                7.45676206               34.87224970                0.00010000               -1.13395633                0.29237059               -0.02120813               -0.66182827               16.03318529                1.10919455
               7.32676482                7.25423444               34.89645252                0.00010000               -1.29868567                0.44058108               -0.29889756               -0.84354990               18.38190971                0.86169223
               8.31377724                7.05013455               34.92310946                0.00010000               -1.25364140                0.45206106               -0.47655959               -1.17611659               18.64492669                1.20014412
               9.30169200                6.84527193               34.94945176                0.00010000               -1.13279355                0.30656312               -0.61109308               -1.50173111               18.85560232                1.89672373
              10.29112137                6.64093866               34.97660771                0.00010000               -0.98478325                0.09409122               -0.70363838               -1.72200062               19.23149099                2.73060113
              11.28199633                6.43850957               35.00632785                0.11187466               -0.33035707               -0.04416215               -0.73022661               -0.95770983                9.95116622                3.67652708
              12.28451423                6.25770290               34.84375911                0.43549082                0.29396506                0.20856284               -0.96408126                0.05066672                0.19596222                1.52174264
              13.28787563                6.07616327               34.67776710                0.91266393                0.33614007                0.52029222               -1.33816285                0.00318667                0.04426544               -0.23428914
               3.54702783                9.05540234               35.15194224                0.95933777                0.00028997               -0.06049472                0.13554655               -0.02444584                0.00397659                0.83268893
               4.54703073                8.85847120               34.98749767                0.43419934                0.03203090                0.05206826               -0.12963519               -0.00532864                0.02604792               -0.76824355
               5.54766845                8.66105438               34.82340653                0.00010000               -0.53889764                0.17514714               -0.40902609               -0.12838701                9.45820986               -2.44639586
               6.53625278                8.46059588               34.84754378                0.00010000               -1.28901938                0.49548239               -0.29423435               -0.39750389               19.61787318                0.24131791
               7.52188807                8.25955600               34.88466461                0.00010000               -1.49135123                0.65537569               -0.41618409               -0.66753285               20.57970555                0.64992137
               8.50642576                8.05577498               34.92510942                0.00010000               -1.56739872                0.70133501               -0.53240268               -1.13766268               21.07501810                0.99467853
               9.49054009                7.84926422               34.96873587                0.00010000               -1.51617486                0.61162570               -0.60948843               -1.67556271               21.49954192                1.63000052
              10.47610226                7.64248680               35.01379915                0.00010000               -1.41111217                0.26995631               -0.64091559               -2.19027805               21.94832977                2.76081894
              11.46231785                7.43858355               35.06208642                0.15643765               -0.57599768                0.05419113               -0.58058374               -1.23696240               11.15438119                3.00392804
              12.46458231                7.25988436               34.88763941                0.43141266                0.27892660                0.23466574               -0.93874578                0.00969083                0.01921088                1.23626847
              13.46789638                7.08117070               34.71283190                0.90364798                0.33140732                0.47779019               -1.32193569                0.01131573                0.01917718               -0.49138681
               3.74316726               10.05508397               35.10441379                0.95766588                0.04345460               -0.00633544               -0.01293689               -0.02345532               -0.01895795                0.73747960
               4.74360180                9.85917908               34.93184541                0.46542200                0.07921365                0.09026869               -0.27734605               -0.00169546                0.05640943               -0.64136667
               5.74475153                9.66282598               34.76068609                0.00010000               -0.51512704                0.18698691               -0.55260424                0.03498402               11.47119262               -1.62776254
               6.73329926                9.46667170               34.81633096                0.00010000               -1.32582326                0.70968285               -0.52351503               -0.11635043               22.83918703               -0.07304279
               7.71823506                9.26734196               34.86944688                0.00010000               -1.59917436                0.82884750               -0.55784334               -0.38097814               22.97485192                0.29956353
               8.70131577                9.06416125               34.92399536                0.00010000               -1.83830663                0.92767173               -0.61542219               -0.74037608               23.50676588                0.55184586
               9.68146893                8.85750444               34.98412210                0.00010000               -2.16596444                0.99471850               -0.64079800               -1.32452434               24.48521785                0.96839519
              10.65799649                8.64633779               35.05471448                0.00010000               -2.08047049                0.87501997               -0.58580586               -2.01385721               24.40008848                2.21385825
              11.63985952                8.43959340               35.10936089                0.21393246               -0.79377931                0.14897749               -0.54265317               -1.49400756               11.99134831                1.74002124
              12.64212090                8.26239622               34.92833671                0.44459712                0.28348750                0.26920534               -0.95062355               -0.02274224                0.10239594                0.83423177
              13.64552927                8.08571908               34.74483762                0.89578256                0.34083722                0.44187676               -1.34262043                0.01359423               -0.00287509               -0.60505579
               3.93836851               11.05527563               35.05463280                0.98024947                0.08863054                0.01916548               -0.15808186                0.02022005                0.40320464                0.63015080
               4.93925482               10.86027657               34.87839768                0.77740213                0.12534995                0.10974918               -0.42226779                0.04122617                0.81937857               -0.52600464
               5.94087551               10.66479412               34.71037785                0.45281318               -0.49225093                0.19681407               -0.69084733                0.33804638               13.40174222               -1.00207591
               6.92940980               10.47478954               34.78569013                0.31553739               -1.20482785                0.81178343               -0.67603473                0.17799521               25.38769581               -0.11904775
               7.91677895               10.27613295               34.85138029                0.30515787               -1.39770261                0.87909967               -0.69382495               -0.16866697               25.17398444                0.11205385
               8.90145575               10.07432842               34.91788926                0.31834554               -1.74529418                1.01671671               -0.72599733               -0.33472097               25.72807517                0.27435032
               9.88187307                9.86915859               34.99094755                0.35406165               -2.38597913                1.16541447               -0.72743118               -0.67664734               27.10497679                0.53594993
              10.85373616                9.65998719               35.08185463                0.50480428               -3.27469037                1.36494093               -0.61565410               -1.80580684               26.47944682                1.54503879
              11.81637926                9.44156310               35.13961790                0.63721254               -1.78671927                0.19697000               -0.62532113               -2.08396244               13.25638799                0.90521995
              12.81800178                9.26526846               34.96391761                0.74231225                0.25716406                0.28722452               -1.00990322                0.01034460                1.05359391                0.59584199
              13.82152254                9.09000823               34.77724896                0.95002556                0.35207657                0.42891517               -1.39292045                0.07330385                0.52496827               -0.56434271
               2.02947785                1.13298131               36.51654788                1.00000000               -0.34643382               -0.37081429                1.28162069               -0.05767104               -0.98198705                0.99337012
               3.02601352                0.91747956               36.40525448                1.00000000               -0.30466556               -0.28659485                1.02731181               -0.03608400               -1.28670031                0.12984004
               4.02338454                0.70153382               36.28788699                1.00000000               -0.21334328               -0.20448840                0.75808389               -0.04208638               -1.26242364               -0.20832538
               5.02174665                0.48525769               36.17707700                0.63091512               -0.00839562               -0.14113463                0.49668755               -0.00258070               -0.45971094               -0.88466851
               6.02321663                0.26969412               36.07577986                0.66956226                0.15733281               -0.09911588                0.19937429               -0.07324233               -0.08260724                0.28685289
               7.02489331                0.05572877               35.97311035                0.73468669                0.17204398                0.00287509               -0.04633124               -0.07011190               -0.30074462                0.16675511
               8.02665751               -0.15689361               35.86693327                0.72854217                0.21207528                0.07782075               -0.28294895               -0.04725753               -0.51521175               -0.06005158
               9.02913481               -0.36861975               35.75929763                0.83719401                0.25926198                0.15073223               -0.50672234               -0.06338760               -0.80954114                0.10722829
              10.03184275               -0.57946465               35.64656808                1.00000000                0.28459194                0.23017171               -0.76419268               -0.05843576               -1.14789175                0.60553527
              11.03482665               -0.78997071               35.53182297                1.00000000                0.32888545                0.31926595               -1.03467560               -0.03839077               -1.12186019                0.00072708
              12.03842046               -1.00073963               35.41956217                1.00000000                0.35938079                0.41952392               -1.31851567               -0.01513359               -0.99956384               -0.98622433
               2.24440290                2.12927317               36.46882153                1.00000000               -0.30264757               -0.35970053                1.14095894               -0.01347331               -0.15851350                1.35467282
               3.24137642                1.91461361               36.35732934                1.00000000               -0.26641416               -0.26689150                0.88908238                0.00856302               -0.19888643                0.18530236
               4.23907462                1.69948894               36.24502310                0.99473386               -0.18678653               -0.17861369                0.61913088               -0.00636304               -0.07322100               -0.49924753
               5.23764069                1.48384634               36.13597047                0.28021514               -0.09129746               -0.11483555                0.34366736                0.01873224                1.55559415               -1.26083937
               6.23724867                1.26870296               36.05603043                0.36937577               -0.00773208               -0.03728726                0.05840301               -0.08253131                2.45637489                0.96795481
               7.23748605                1.05575752               35.96262940                0.44177629                0.05552629                0.04875031               -0.18290792               -0.03369947                1.60643913                0.46333675
               8.23835919                0.84388460               35.86460218                0.36679524                0.11502050                0.12642197               -0.41232859               -0.00636673                1.52163944               -0.26823878
               9.23978646                0.63288757               35.76894318                0.48917339                0.17873412                0.19481804               -0.63815916               -0.04396511                1.56298178                0.49357718
              10.24193387                0.42283706               35.67135498                1.00000000                0.26468854                0.25544866               -0.88302379               -0.03001389                0.81633868                0.84520878
              11.24508023                0.21322195               35.56063553                1.00000000                0.35520837                0.32896114               -1.16312216                0.00483699                0.09588039                0.14856466
              12.24903804                0.00345561               35.44859607                1.00000000                0.39578104                0.44699186               -1.44452698                0.03013803                0.03338985               -1.15395589
               2.45852751                3.12578730               36.42836690                1.00000000               -0.25584974               -0.34126666                1.01033296               -0.00816326                0.04694267                1.71347616
               3.45596901                2.91214173               36.31051706                1.00000000               -0.22514781               -0.23013469                0.75894037                0.01153773                0.23023032                0.17579770
               4.45402455                2.69796155               36.19630723                0.71462937               -0.15308718               -0.12200903                0.50968445               -0.01965536                0.67240872               -1.26033358
               5.45290727                2.48296098               36.08724967                0.00631855               -0.21848636               -0.07809177                0.21388570                0.03917179                4.52794696               -1.97696309
               6.44965483                2.26894838               36.05008973                0.00010000               -0.19347953               -0.04690063               -0.12369025               -0.08476940                5.67974390               -1.11221626
               7.44903768                2.05670377               35.95810356                0.00010000               -0.01273535               -0.04033185               -0.32088165               -0.14309942                2.59538902               -0.04975941
               8.44940012                1.84563483               35.85810619                0.00010000                0.01326859               -0.00980915               -0.53297481               -0.20012003                3.63053928                0.81569787
               9.44930305                1.63527661               35.78633290                0.00010000                0.07539903                0.02629176               -0.78993924               -0.21491935                4.38638620                1.44294146
              10.45090810                1.42564432               35.70093133                0.50014073                0.25008980                0.23380717               -1.01869506               -0.19665309                2.54335074                1.87182606
              11.45430485                1.21660851               35.59244328                1.00000000                0.38238993                0.33228218               -1.28656827               -0.06975006                0.91279083                0.88878082
              12.45855590                1.00820021               35.47434298                1.00000000                0.42510528                0.51033575               -1.56665601                0.01388097                0.44119635               -1.05660443
               2.67153078                4.12244784               36.38788888                1.00000000               -0.20978469               -0.32231961                0.87866611               -0.01497946                0.11868608                1.59241016
               3.66943294                3.91001092               36.26239785                1.00000000               -0.18342600               -0.19029518                0.62749052                0.00256034                0.18408488               -0.00048712
               4.66786226                3.69704876               36.13817587                0.41465350               -0.09978188               -0.06485818                0.39136891               -0.07823612                1.13414427               -1.67600406
               5.66743730                3.48228450               36.03166002                0.00010000               -0.30258911               -0.01601406                0.13374728               -0.11100648                5.22985389               -2.65879605
               6.66181048                3.26776495               35.98928341                0.00010000               -0.47498465               -0.04461740               -0.13650708               -0.26205456                8.06603508               -2.74131329
               7.65793760                3.05495088               35.93743492                0.00010000               -0.30132641               -0.09648407               -0.38027921               -0.38670332                7.30647991               -0.49297300
               8.65578395                2.84368842               35.87729219                0.00010000               -0.12295078               -0.14479702               -0.61457274               -0.49228342                6.88066621                1.74085947
               9.65547859                2.63341341               35.81479170                0.00010000                0.04424820               -0.14529322               -0.86241353               -0.33704453                6.56654466                2.32042596
              10.65666892                2.42751321               35.74610833                0.10012223                0.28253771               -0.06804809               -1.21957140               -0.27563332                4.34875538                3.65354958
              11.66112934                2.21986759               35.63596188                0.92510596                0.47316775                0.27889000               -1.47963591               -0.17127214                1.23179370                1.84596223
              12.66613227                2.01366232               35.50541780                1.00000000                0.50029277                0.59637499               -1.73069128               -0.06950393                0.23231869               -0.34433366
               2.88310176                5.11934091               36.34511327                1.00000000               -0.16824608               -0.29077759                0.73720516               -0.02747873                0.18879806                1.33136321
               3.88141930                4.90833583               36.21204358                0.80575519               -0.14577596               -0.13611946                0.48602223               -0.01872661                0.29223068               -0.30955572
               4.88018624                4.69666438               36.08099731                0.18292343               -0.07241790                0.00181495                0.24499039               -0.13347248                1.35312495               -1.79634516
               5.87997094                4.48264069               35.96913266                0.00010000               -0.42194426                0.11084011                0.00951793               -0.33217760                7.00938503               -2.68864056
               6.87174736                4.26805603               35.95116560                0.00010000               -0.72954008                0.09348637               -0.19680048               -0.53311136               11.33496560               -1.08015499
               7.86538014                4.05477409               35.92397724                0.00010000               -0.53277181                0.03887590               -0.43148338               -0.63085831               10.60688859                0.18916092
               8.86109192                3.84273889               35.88924521                0.00010000               -0.33213850               -0.04118225               -0.67765449               -0.68639417               10.13268374                1.52972937
               9.85873737                3.63237075               35.84996727                0.00010000               -0.10753345               -0.10046390               -0.94480901               -0.66019322               10.00819479                2.82038896
              10.85894125                3.42428336               35.81004156                0.04499476                0.29964569               -0.32890395               -1.21637880               -0.33446199                5.97053286                4.37567045
              11.86473029                3.22218631               35.68651293                0.62309640                0.53175517                0.21945502               -1.38677553               -0.02884421                1.02668802                2.20859827
              12.86957636                3.02012771               35.54545234                1.00000000                0.48460702                0.64314042               -1.72450050               -0.07140633                0.20815588                0.17501172
               3.09299138                6.11663229               36.29952456                1.00000000               -0.12564473               -0.24281080                0.58580133               -0.03256227                0.13027118                1.06920027
               4.09173493                5.90728853               36.15769329                0.59980923               -0.10517176               -0.07423733                0.32369793               -0.03307541                0.35407762               -0.62419714
               5.09088794                5.69708505               36.02028583                0.07379623               -0.11664163                0.08402387                0.08408839               -0.15472812                2.06697326               -2.18080299
               6.08940210                5.48450131               35.91271097                0.00010000               -0.59365448                0.18163089               -0.05280705               -0.65207180                9.47237967               -0.84031333
               7.07901485                5.26963468               35.92341158                0.00010000               -0.93822632                0.19603308               -0.23282313               -0.85805405               14.65379953               -0.07342200
               8.07063757                5.05572840               35.91737730                0.00010000               -0.72777214                0.14277819               -0.47608048               -0.92412036               13.60596482                0.78843412
               9.06445941                4.84286477               35.90461228                0.00010000               -0.49536558                0.04638690               -0.71789662               -0.98254253               13.25989586                1.83619917
              10.06073026                4.63140413               35.88873189                0.00010000               -0.21476486               -0.08571178               -0.96933283               -1.02461814               13.23688663                3.04467577
              11.06016411                4.42093513               35.87202438                0.04817272                0.19889242               -0.28230576               -1.26013387               -0.45516985                7.54054620                4.29348814
              12.06470811                4.22425669               35.73747880                0.49497246                0.43286200                0.19866087               -1.19700124                0.07105511                0.91262038                2.11848897
              13.06882135                4.02652513               35.58617000                0.95240067                0.41132442                0.61151369               -1.53689754               -0.03403020                0.11444037                0.21288823
               3.30113803                7.11448470               36.25160258                0.97573324               -0.08330086               -0.18260693                0.42936666               -0.02942861                0.05400325                0.89250725
               4.30030503                6.90685108               36.10093551                0.47662400               -0.06295662               -0.02101525                0.16324813               -0.03001896                0.30041695               -0.77047486
               5.29987890                6.69834486               35.95513564                0.01285492               -0.29625707                0.15037601               -0.08958913               -0.20461558                4.43253263               -2.51345644
               6.29437988                6.48627331               35.88710275                0.00010000               -0.82598587                0.17084117                0.08977189               -0.87839429               12.65033090                1.17994612
               7.28335918                6.27197669               35.90550641                0.00010000               -1.03561229                0.27732005               -0.27199776               -1.05359647               16.71709844                0.68193401
               8.27366764                6.05762966               35.91620459                0.00010000               -0.87969230                0.24773591               -0.51409668               -1.18690792               16.29033037                1.18458852
               9.26576534                5.84366663               35.92310974                0.00010000               -0.67464909                0.12499669               -0.72900528               -1.31930767               16.21755121                2.02676208
              10.26017466                5.63065651               35.92890749                0.00010000               -0.43900207               -0.04181591               -0.93026553               -1.45536712               16.40936915                3.07654781
              11.25698530                5.41863724               35.93556081                0.06783272                0.01933636               -0.17375928               -1.12117425               -0.74543726                8.92973673                4.29218211
              12.26056138                5.22615953               35.78673401                0.44183356                0.36867878                0.19241014               -1.08882588                0.08212533                0.63776944                1.90808263
              13.26435887                5.03235798               35.62608904                0.91643720                0.37974885                0.56810040               -1.44137584               -0.01099214                0.07531083                0.09614110
               3.50767004                8.11298015               36.20253687                0.96338958               -0.03956519               -0.11890601                0.27425472               -0.02663627                0.01767185                0.82225494
               4.50727439                7.90686822               36.04351706                0.42278393               -0.01483203                0.02074174                0.00756059               -0.01581025                0.16654858               -0.79505991
               5.50737340                7.70009257               35.88739946                0.00010000               -0.45360025                0.17985014               -0.26499031               -0.26396806                7.34639384               -2.64646107
               6.49820238                7.48791813               35.87193253                0.00010000               -1.03934095                0.26971893               -0.05212767               -0.80560564               16.28041227                1.04932921
               7.48658658                7.27518108               35.89323831                0.00010000               -1.14964552                0.41258882               -0.34978188               -1.01155727               18.42775778                0.89888392
               8.47520947                7.06068312               35.91795833                0.00010000               -1.07700900                0.41449423               -0.56122412               -1.34009079               18.76983948                1.28164584
               9.46504640                6.84536471               35.94281975                0.00010000               -0.92785817                0.25803137               -0.72586016               -1.65249582               19.03666319                2.02369466
              10.45665231                6.63056781               35.96895880                0.00010000               -0.76470229                0.04472398               -0.84240186               -1.87065180               19.49092329                2.92014346
              11.44975236                6.41745994               35.99841113                0.10063638               -0.20112153               -0.05628423               -0.87805148               -1.03082469               10.19406595                3.96183492
              12.45262988                6.22810489               35.83382808                0.41761243                0.32261270                0.20810863               -1.02568695                0.05887463                0.27934134                1.64370459
              13.45620461                6.03788714               35.66411631                0.89798553                0.35747299                0.53441660               -1.38974052                0.00107388                0.04611313               -0.13057461
               3.71282916                9.11210658               36.15322188                0.95885300                0.00472354               -0.05779814                0.12119081               -0.02459968                0.00303010                0.82550095
               4.71287639                8.90726591               35.98612948                0.42926202                0.03602373                0.05826452               -0.14495066               -0.00478472                0.01759508               -0.77418938
               5.71354963                8.70194186               35.81923844                0.00010000               -0.48485634                0.18476046               -0.42685473               -0.22166083                9.63363263               -2.45460751
               6.70317927                8.49166769               35.84438776                0.00010000               -1.15932908                0.48211366               -0.34543333               -0.56039556               19.88640694                0.12686453
               7.69036305                8.28022847               35.88018202                0.00010000               -1.32485369                0.62307634               -0.48498392               -0.83488915               20.74358122                0.65351982
               8.67668219                8.06591954               35.91933468                0.00010000               -1.37661630                0.66209550               -0.63037916               -1.29861706               21.27385739                1.05559555
               9.66283073                7.84882726               35.96203739                0.00010000               -1.30079029                0.56580231               -0.74132338               -1.83667876               21.76570803                1.73668064
              10.65066639                7.63155099               36.00679187                0.00010000               -1.19995013                0.22066631               -0.77339461               -2.33459358               22.32198031                2.91205571
              11.63883172                7.41751156               36.05589792                0.14652026               -0.46773545                0.05870399               -0.67042155               -1.30378784               11.39715508                3.20432183
              12.64131168                7.23032170               35.87797044                0.41395179                0.29920682                0.24251374               -0.99768076                0.01309637                0.03420352                1.31962165
              13.64481586                7.04304631               35.69932882                0.88975818                0.35041810                0.49427811               -1.37808081                0.00994518                0.01869923               -0.43147573
               3.91685937               10.11182419               36.10419702                0.95770651                0.04840368               -0.00199198               -0.03003097               -0.02359952               -0.01988370                0.73206759
               4.91734341                9.90803351               35.92899418                0.46306408                0.08395183                0.09596013               -0.29373779               -0.00170387                0.04981764               -0.64337858
               5.91853841                9.70378778               35.75508325                0.00010000               -0.43177692                0.19363630               -0.57065437               -0.07340402               11.60418573               -1.62264841
               6.90870787                9.49756040               35.81086964                0.00010000               -1.14507295                0.66169769               -0.57127210               -0.25620834               23.10103896               -0.12430649
               7.89563695                9.28764261               35.86349563                0.00010000               -1.40347647                0.78672113               -0.63766683               -0.50313766               23.21412352                0.29492005
               8.88063834                9.07392503               35.91731725                0.00010000               -1.64777872                0.89390520               -0.72756097               -0.85318134               23.76973665                0.58411694
               9.86268137                8.85668075               35.97697803                0.00010000               -1.96810993                0.97257281               -0.79899408               -1.45368903               24.82189844                1.02916040
              10.84127614                8.63498114               36.04777672                0.00010000               -1.88877413                0.86684799               -0.82402655               -2.12670785               24.85781513                2.30503823
              11.82490589                8.41863402               36.10367705                0.20803829               -0.69595441                0.16268519               -0.59767276               -1.54744197               12.23970024                1.81097746
              12.82735705                8.23295517               35.91854884                0.42725828                0.30242005                0.28375731               -1.00816966               -0.02281279                0.09211689                0.87249469
              13.83095429                8.04777270               35.73109268                0.88239745                0.35972393                0.46085063               -1.40726204                0.01259454               -0.00461256               -0.58165939
               4.11993851               11.11206674               36.05295447                0.98041005                0.09402060                0.02425507               -0.17688978                0.01975225                0.39948873                0.62583699
               5.12087872               10.90918512               35.87409093                0.77727922                0.13080752                0.11516033               -0.43993435                0.04092375                0.81315512               -0.52570793
               6.12255466               10.70581459               35.70338695                0.45156322               -0.33392198                0.20268051               -0.71056036                0.18745195               13.52740353               -0.99284639
               7.11420028               10.50490164               35.77867015                0.31570401               -0.93094941                0.73412408               -0.73148452                0.05665599               25.65285578               -0.13889168
               8.10393567               10.29596289               35.84402223                0.30530574               -1.18099303                0.83202836               -0.78278514               -0.22532733               25.43678283                0.10545752
               9.09058042               10.08379764               35.91003020                0.31812646               -1.56174208                0.98726171               -0.85279919               -0.39000084               26.01873142                0.28833331
              10.07270083                9.86827872               35.98280826                0.35315672               -2.22007270                1.15979614               -0.91100492               -0.74353868               27.47565269                0.56398242
              11.04617896                9.64888795               36.07421629                0.50537639               -3.13959888                1.39068128               -0.94234895               -1.88539044               26.96453528                1.60578369
              12.00990886                9.42076526               36.13306310                0.63573904               -1.72311106                0.21312397               -0.68716610               -2.14425890               13.52340666                0.90841825
              13.01171674                9.23599685               35.95351089                0.73374125                0.27619152                0.30416780               -1.07027404                0.01087215                1.07252167                0.60867381
              14.01543269                9.05226332               35.76296208                0.94345115                0.37159428                0.44906225               -1.46467927                0.07448705                0.54243530               -0.55608245
               2.13215032                1.19139501               37.52939424                1.00000000               -0.34760128               -0.37359238                1.28984508               -0.05821180               -0.99744983                1.00416521
               3.12867431                0.96742891               37.41552950                1.00000000               -0.30486589               -0.28704155                1.02855589               -0.03563904               -1.31077961                0.13697202
               4.12605300                0.74301309               37.29543119                1.00000000               -0.21255908               -0.20279151                0.74991611               -0.04201693               -1.28925092               -0.20771735
               5.12442312                0.51820080               37.18197344                0.63215626               -0.01997905               -0.13657606                0.48009246               -0.04894157               -0.49865031               -0.90114331
               6.12565342                0.29303044               37.07763946                0.66435787                0.16057956               -0.10896204                0.16476239               -0.06888936               -0.10098722                0.28573248
               7.12763472                0.06857739               36.97249302                0.72423493                0.20687464                0.00240295               -0.08751179               -0.07632073               -0.27456410                0.16518077
               8.12979091               -0.15448357               36.86397113                0.71875707                0.25046243                0.07857123               -0.31938244               -0.05030532               -0.46234004               -0.05927503
               9.13264396               -0.37650358               36.75415742                0.82884204                0.28796017                0.15112299               -0.52913103               -0.06705163               -0.75496811                0.10898556
              10.13555012               -0.59750282               36.63892330                1.00000000                0.29673267                0.23167079               -0.77037339               -0.06278873               -1.11147221                0.62182622
              11.13857862               -0.81806661               36.52153169                1.00000000                0.33103731                0.31963623               -1.03082855               -0.04049954               -1.09842421                0.01072400
              12.14217086               -1.03888622               36.40643075                1.00000000                0.35922448                0.41810399               -1.31399777               -0.01466042               -0.98216329               -0.96174764
               2.35553430                2.18765909               37.48024961                1.00000000               -0.30254265               -0.36308533                1.14658833               -0.01291303               -0.16579955                1.36938324
               3.35250888                1.96455849               37.36621178                1.00000000               -0.26437086               -0.26709473                0.88800823                0.00984122               -0.21621958                0.19604223
               4.35024689                1.74098517               37.25117217                1.00000000               -0.17919229               -0.17660178                0.60967233               -0.00742021               -0.10160158               -0.48386159
               5.34892503                1.51683504               37.13934280                0.28619045               -0.02353273               -0.10843492                0.32825415               -0.04612379                1.51863824               -1.26646080
               6.34977623                1.29194082               37.05646608                0.36831941                0.08517399               -0.05610608                0.02476403               -0.07404022                2.44773982                0.94429387
               7.35062851                1.06860141               36.96062461                0.43727955                0.10260553                0.04634076               -0.22271924               -0.04206514                1.64502252                0.46229447
               8.35182834                0.84630215               36.86031887                0.36536113                0.14272813                0.12937751               -0.44686459               -0.01470762                1.58151276               -0.26261941
               9.35348307                0.62500765               36.76246582                0.48795858                0.19376997                0.19947721               -0.65607496               -0.04289993                1.62193968                0.48873068
              10.35570374                0.40481389               36.66247603                1.00000000                0.26911245                0.25887418               -0.89260574               -0.03505559                0.84713074                0.85539173
              11.35886532                0.18512975               36.54897190                1.00000000                0.35700648                0.33293587               -1.16944595                0.00247968                0.10508462                0.16301043
              12.36284387               -0.03470518               36.43411513                1.00000000                0.39785486                0.44524277               -1.45092284                0.03085335                0.03881141               -1.12406851
               2.57809325                3.18413331               37.43848065                1.00000000               -0.25482024               -0.34593489                1.01424802               -0.00756297                0.04500290                1.73183003
               3.57554505                2.96208701               37.31809103                1.00000000               -0.22325979               -0.22971828                0.75622588                0.01164934                0.22828507                0.18977125
               4.57362805                2.73948105               37.20135395                0.72831002               -0.15000228               -0.11698853                0.49888438               -0.02321348                0.64857478               -1.23368228
               5.57254500                2.51603210               37.08930947                0.00676585               -0.06109076               -0.06918933                0.19657117               -0.05271797                4.45718345               -1.94598155
               6.57240624                2.29190832               37.04865974                0.00010000               -0.00564566               -0.07326144               -0.16613383               -0.26992099                5.68205459               -1.07085767
               7.57243209                2.06950420               36.95469028                0.00010000                0.03421446               -0.04356547               -0.36396135               -0.30176336                2.67922642               -0.01383603
               8.57309053                1.84810398               36.85257249                0.00010000                0.04210677               -0.00803304               -0.56971627               -0.32304263                3.69785314                0.83830059
               9.57327422                1.62748596               36.77836165                0.00010000                0.08181861                0.02142198               -0.79305956               -0.28020931                4.44061198                1.44967526
              10.57472690                1.40767466               36.69066531                0.50144628                0.24365294                0.26382272               -1.02926518               -0.17588761                2.57474724                1.82821503
              11.57814728                1.18859211               36.57942558                1.00000000                0.38654514                0.34500864               -1.30691350               -0.06239626                0.91660065                0.86896109
              12.58245780                0.97001863               36.45855465                1.00000000                0.43105200                0.50619439               -1.58157113                0.01723652                0.43770873               -1.04441840
               2.79947563                4.18074039               37.39667698                1.00000000               -0.20815097               -0.32795585                0.88080469               -0.01503781                0.12144027                1.60438892
               3.79739412                3.95996413               37.26865074                1.00000000               -0.18190479               -0.18859562                0.62329073                0.00209931                0.19381912                0.00753211
               4.79583753                3.73864540               37.14204812                0.41561084               -0.09753565               -0.05616676                0.38148077               -0.08433337                1.14034761               -1.66734458
               5.79544341                3.51545125               37.03291770                0.00010000               -0.24659104               -0.00488012                0.11489627               -0.22283700                5.21637083               -2.62253226
               6.79090571                3.29047559               36.98774829                0.00010000               -0.35229125               -0.05348132               -0.17376294               -0.55571873                8.06835906               -2.64366147
               7.78839758                3.06773011               36.93339084                0.00010000               -0.17599914               -0.10953615               -0.43117419               -0.64849732                7.34158944               -0.42236639
               8.78738573                2.84614148               36.87084934                0.00010000               -0.00446862               -0.15696430               -0.67486335               -0.72594768                6.92263464                1.78314859
               9.78830821                2.62543609               36.80576092                0.00010000                0.18470578               -0.16600844               -0.93875589               -0.46957172                6.56236630                2.34886809
              10.79107984                2.41009034               36.73360787                0.08323112                0.34826105               -0.09631834               -1.23116446               -0.30192921                4.31122629                3.60995590
              11.79527343                2.19202993               36.62085699                0.89394726                0.46278550                0.27973942               -1.51067379               -0.19372610                1.25759248                1.90415837
              12.80033555                1.97541870               36.48788199                1.00000000                0.50621251                0.59985993               -1.74938932               -0.07251385                0.24640948               -0.28925249
               3.01934502                5.17757419               37.35247495                1.00000000               -0.16629975               -0.29634394                0.73681452               -0.02847252                0.19555713                1.33249379
               4.01768202                4.95831510               37.21687199                0.79409435               -0.14453781               -0.13198992                0.47995547               -0.02102265                0.30379999               -0.31761798
               5.01645426                4.73835772               37.08340045                0.17845524               -0.07119751                0.01456077                0.23470220               -0.14386474                1.37303424               -1.80964099
               6.01625807                4.51593450               36.96915925                0.00010000               -0.37206272                0.11779301               -0.00836970               -0.45525804                7.04366104               -2.63777194
               7.00901301                4.29083869               36.94902747                0.00010000               -0.62309115                0.09534673               -0.23431430               -0.74739891               11.37437686               -0.99657166
               8.00379625                4.06731348               36.91937697                0.00010000               -0.40737084                0.01982099               -0.49218228               -0.83911777               10.63320117                0.26290014
               9.00086559                3.84496470               36.88205782                0.00010000               -0.19311586               -0.06272513               -0.76295439               -0.88673323               10.14956813                1.58882422
               9.99993393                3.62416579               36.83996540                0.00010000                0.06144427               -0.12467889               -1.05817595               -0.83399077               10.00773739                2.86617630
              11.00209448                3.40574830               36.79685806                0.03141953                0.45052332               -0.41707615               -1.42767368               -0.41537484                6.05608778                4.44118946
              12.00894440                3.19418690               36.67175291                0.58720382                0.60677453                0.19184366               -1.51790291               -0.02724228                1.09359905                2.47142202
              13.01422997                2.98201583               36.52762000                1.00000000                0.52855699                0.66599113               -1.79611583               -0.08235373                0.17388382                0.37550588
               3.23742435                6.17481351               37.30535879                1.00000000               -0.12342145               -0.24696392                0.58259901               -0.03334727                0.12856475                1.06191794
               4.23619014                5.95732433               37.16088012                0.58597872               -0.10417547               -0.06792530                0.31354821               -0.03531247                0.36397827               -0.64169028
               5.23534084                5.73893662               37.02106723                0.06769308               -0.11664342                0.10075791                0.07037216               -0.17672180                2.14563592               -2.20806408
               6.23385727                5.51780711               36.91220329                0.00010000               -0.53810450                0.15956708               -0.05237104               -0.78877857                9.57584592               -0.65379863
               7.22457875                5.29238253               36.92091283                0.00010000               -0.81840243                0.18588216               -0.27120358               -1.06609531               14.69961665                0.02046973
               8.21748922                5.06812653               36.91227713                0.00010000               -0.58900024                0.12655111               -0.54857796               -1.10514685               13.62620925                0.87085812
               9.21279875                4.84488698               36.89692387                0.00010000               -0.33222135                0.02480124               -0.82529993               -1.15113340               13.27492656                1.92422747
              10.21084479                4.62294251               36.87827953                0.00010000               -0.00237516               -0.11283844               -1.13013382               -1.17779336               13.21605243                3.15421098
              11.21275124                4.40174882               36.85820127                0.03585270                0.38081278               -0.34123065               -1.52712704               -0.50828383                7.73228453                4.46760312
              12.21846105                4.19586680               36.72492214                0.47249985                0.51396833                0.16692917               -1.31142931                0.07475761                1.12846911                2.40195051
              13.22303061                3.98873853               36.57035721                0.93581444                0.45695621                0.63627691               -1.61208923               -0.04684842                0.10728897                0.45294445
               3.45365644                7.17263491               37.25585727                0.97409605               -0.08037721               -0.18469217                0.42303996               -0.02970161                0.05109145                0.88256800
               4.45285267                6.95695660               37.10250677                0.46479463               -0.06096969               -0.01408875                0.15054779               -0.03116864                0.30374390               -0.78408609
               5.45243705                6.74037288               36.95415398                0.00645162               -0.29080379                0.16771993               -0.11003291               -0.26076198                4.67164044               -2.54702243
               6.44703659                6.51912584               36.88813013                0.00010000               -0.75326788                0.13282596                0.10922093               -1.00767272               12.82621096                1.30311411
               7.43737169                6.29455634               36.90257130                0.00010000               -0.89238678                0.25769923               -0.32070960               -1.22829572               16.67022944                0.75732303
               8.42918886                6.06984450               36.91066707                0.00010000               -0.71723744                0.22554270               -0.59938705               -1.34961216               16.32775436                1.27289741
               9.42302694                5.84546072               36.91523460                0.00010000               -0.48363145                0.09655971               -0.85418316               -1.46547145               16.27262096                2.14821759
              10.41951623                5.62190902               36.91878071                0.00010000               -0.20112140               -0.07426767               -1.10992903               -1.60166852               16.47041728                3.26411310
              11.41900451                5.39892368               36.92319338                0.05546332                0.19668073               -0.21698257               -1.38716256               -0.80632096                9.18197274                4.62232107
              12.42344984                5.19752548               36.77545800                0.42230087                0.42725160                0.17368819               -1.16937213                0.08762581                0.85867291                2.09922037
              13.42754954                4.99474137               36.61142339                0.90146101                0.40997014                0.57867367               -1.48876484               -0.01887004                0.07518218                0.25127590
               3.66818695                8.17111967               37.20522606                0.96240113               -0.03581492               -0.11913558                0.26476614               -0.02687172                0.01601938                0.81302764
               4.66782880                7.95704255               37.04352218                0.41430444               -0.01152945                0.02768465               -0.00713705               -0.01576229                0.16132071               -0.80442535
               5.66795636                7.74229102               36.88465031                0.00010000               -0.41542230                0.19527834               -0.28672139               -0.34665719                7.57765525               -2.67198165
               6.65952035                7.52046363               36.87120715                0.00010000               -0.93310917                0.25351084               -0.09978097               -0.93768810               16.51035147                0.95376613
               7.64929418                7.29753651               36.88945688                0.00010000               -0.99638814                0.39063713               -0.41288917               -1.16925844               18.44935939                0.93146682
               8.63959259                7.07263738               36.91188498                0.00010000               -0.89346917                0.38417363               -0.66049135               -1.49298266               18.85988939                1.36433983
               9.63142479                6.84681818               36.93493455                0.00010000               -0.71220648                0.21894143               -0.86125724               -1.79050498               19.17892667                2.15559426
              10.62534846                6.62145716               36.95975967                0.00010000               -0.52082118                0.00004807               -1.01509109               -2.01219489               19.70942817                3.13871369
              11.62100837                6.39740917               36.98876682                0.08799324               -0.04762911               -0.07598109               -1.08531254               -1.10193643               10.46165420                4.32884146
              12.62439588                6.19934056               36.82324537                0.39943067                0.36065310                0.20152717               -1.09401155                0.06442344                0.40826276                1.77753643
              13.62822143                6.00031200               36.64997229                0.88387302                0.38255525                0.54117229               -1.43688329               -0.00265318                0.04693781               -0.03611982
               3.88127323                9.17025220               37.15436605                0.95839886                0.00928405               -0.05634703                0.10851932               -0.02477531                0.00191251                0.81700174
               4.88136607                8.95751029               36.98459865                0.42429276                0.04047961                0.06537515               -0.16216078               -0.00453152                0.00844930               -0.77927369
               5.88208283                8.74427844               36.81486943                0.00010000               -0.41643698                0.19667434               -0.44916749               -0.31554058                9.78988197               -2.46109335
               6.87303733                8.52419606               36.84063511                0.00010000               -1.01350283                0.47197731               -0.40860575               -0.72610279               20.12808178                0.01440867
               7.86181277                8.30236908               36.87496494                0.00010000               -1.14948987                0.59318215               -0.56418143               -0.99461683               20.88712787                0.65442230
               8.85004754                8.07752797               36.91250183                0.00010000               -1.17078535                0.62553454               -0.74339756               -1.44470083               21.44098842                1.12061273
               9.83839706                7.84983955               36.95390940                0.00010000               -1.06830999                0.52493056               -0.89373999               -1.97976732               22.01111806                1.84644159
              10.82868134                7.62190999               36.99833126                0.00010000               -0.96573433                0.17784837               -0.93306378               -2.46650902               22.70662429                3.03962133
              11.81908238                7.39740406               37.04867799                0.13469382               -0.34229300                0.06192964               -0.79389995               -1.37404657               11.67383557                3.47800557
              12.82183548                7.20155602               36.86768580                0.39614106                0.32356140                0.24825506               -1.06321022                0.01562432                0.06711237                1.41147273
              13.82555360                7.00556481               36.68527028                0.87610401                0.37181264                0.50703148               -1.43457625                0.00727553                0.01874647               -0.38479104
               4.09317526               10.16999273               37.10381317                0.95535078                0.05366632                0.00126348               -0.04650884               -0.02366020               -0.01980876                0.72603521
               5.09371193                9.95835006               36.92597066                0.46066649                0.08922595                0.10293153               -0.31253610               -0.00244280                0.04298079               -0.64409184
               6.09495978                9.74622450               36.74927300                0.00010000               -0.34021323                0.20256791               -0.59409566               -0.18426754               11.72272673               -1.61561216
               7.08690766                9.52990318               36.80490552                0.00010000               -0.94449295                0.61073136               -0.62597359               -0.40150242               23.33463313               -0.16885775
               8.07606992                9.30940015               36.85669354                0.00010000               -1.18397797                0.74099150               -0.72815867               -0.62066543               23.42475262                0.29159353
               9.06322810                9.08514807               36.90944414                0.00010000               -1.43112453                0.85706130               -0.85362199               -0.95432794               23.99957992                0.62075623
              10.04744743                8.85731679               36.96814221                0.00010000               -1.73871663                0.94691209               -0.97487444               -1.56654899               25.10079072                1.09078347
              11.02845377                8.62501412               37.03823395                0.00010000               -1.67830157                0.86568700               -1.09112875               -2.22891716               25.38147190                2.32399912
              12.01388140                8.39864776               37.09740744                0.19935461               -0.59530788                0.17776467               -0.66373493               -1.61190174               12.59220986                1.91885274
              13.01654761                8.20430566               36.90817332                0.40966087                0.32339788                0.29809164               -1.07017528               -0.02386858                0.08299606                0.91857013
              14.02034936                8.01045263               36.71669238                0.86896625                0.38017468                0.47914792               -1.47540095                0.01045967               -0.00761381               -0.57018218
               4.30408537               11.17027747               37.05109500                0.98057098                0.10000721                0.02847404               -0.19522884                0.02015587                0.39583184                0.62195564
               5.30508544               10.95956892               36.86959899                0.77696666                0.13794923                0.12188622               -0.46122116                0.03996825                0.80557558               -0.52384167
               6.30684436               10.74832980               36.69616665                0.45014812               -0.16269042                0.21052976               -0.73669270                0.03054550               13.63416130               -0.98205108
               7.30183164               10.53641068               36.77106044                0.31582025               -0.63448947                0.65075063               -0.79468416               -0.06464730               25.88444045               -0.16044039
               8.29415457               10.31718891               36.83572458                0.30543705               -0.93936454                0.77887549               -0.88193157               -0.27860992               25.66658308                0.10076510
               9.28304434               10.09466920               36.90083328                0.31790766               -1.34772689                0.95211280               -0.99230277               -0.43893166               26.26901146                0.30364398
              10.26720003                9.86877779               36.97272746                0.35226162               -2.01361618                1.14610048               -1.10887352               -0.79701403               27.75306369                0.58702899
              11.24277202                9.63922373               37.06300765                0.50415378               -2.98236142                1.42096025               -1.30445357               -1.95909682               27.53755328                1.59274570
              12.20755280                9.40095935               37.12587458                0.63248556               -1.66093924                0.23115942               -0.75649273               -2.21815365               13.95329279                0.92650477
              13.20955324                9.20751786               36.94251213                0.72505031                0.29580322                0.32121920               -1.13058717                0.00998326                1.10202882                0.62904899
              14.21346887                9.01514777               36.74795537                0.93669954                0.39156289                0.46951432               -1.53873067                0.07494226                0.56320814               -0.55670758
               2.23725832                1.25135387               38.54234478                1.00000000               -0.34973498               -0.37794463                1.30367202               -0.05951598               -1.01607125                1.01640116
               3.23376097                1.01885445               38.42582560                1.00000000               -0.30513670               -0.28815200                1.03208747               -0.03596878               -1.34007438                0.14443604
               4.23115559                0.78589750               38.30288531                1.00000000               -0.20978010               -0.20085610                0.74025297               -0.04232022               -1.32277588               -0.20741170
               5.22956537                0.55249610               38.18667885                0.63432498               -0.02391400               -0.13150086                0.45810716               -0.09167933               -0.55098090               -0.91801971
               6.23067731                0.31775554               38.07907510                0.66052837                0.17524926               -0.11869800                0.11424274               -0.06191016               -0.13454922                0.28149572
               7.23307036                0.08276920               37.97136011                0.71506377                0.25344989                0.00369432               -0.14972258               -0.08017229               -0.24872379                0.15922713
               8.23574631               -0.15077460               37.86054562                0.70970306                0.30064619                0.08054536               -0.37533935               -0.05110899               -0.39521555               -0.06253217
               9.23908328               -0.38305683               37.74871501                0.82155226                0.32463653                0.15147901               -0.56449518               -0.06946848               -0.67622373                0.11168785
              10.24223904               -0.61413360               37.63116061                1.00000000                0.31337196                0.23364853               -0.78654276               -0.06585389               -1.05418926                0.63497825
              11.24535072               -0.84463665               37.51120640                1.00000000                0.33700202                0.32249230               -1.03973898               -0.04127693               -1.06278627                0.02024718
              12.24897908               -1.07534335               37.39328222                1.00000000                0.36283585                0.41936833               -1.32079608               -0.01579663               -0.95629584               -0.93196305
               2.46916258                2.24757442               38.49175330                1.00000000               -0.30331080               -0.36786679                1.15709885               -0.01272403               -0.17487524                1.38543849
               3.46612947                2.01597293               38.37508951                1.00000000               -0.26255076               -0.26781310                0.88848978                0.01074779               -0.23678516                0.20726977
               4.46391156                1.78388894               38.25721655                1.00000000               -0.17049565               -0.17427735                0.59779742               -0.00849124               -0.13304517               -0.46843259
               5.46271956                1.55118109               38.14253555                0.29215678                0.05050466               -0.10148276                0.30646312               -0.10702978                1.47412956               -1.27273014
               6.46492166                1.31656856               38.05652571                0.36679966                0.19070729               -0.07532680               -0.01839514               -0.05685715                2.42943566                0.91226169
               7.46653370                1.08280615               37.95817502                0.43224473                0.16132898                0.04458056               -0.27362361               -0.04493007                1.68606780                0.45364737
               8.46814824                0.85003086               37.85566488                0.36437163                0.17671968                0.13224876               -0.48852373               -0.02043447                1.65679907               -0.26306059
               9.47006810                0.61845796               37.75582168                0.48901905                0.21110867                0.20159255               -0.67307747               -0.04443918                1.69431649                0.48929337
              10.47237041                0.38820289               37.65350286                1.00000000                0.27373654                0.26051890               -0.90046530               -0.03848021                0.88219022                0.86211062
              11.47554283                0.15858827               37.53724661                1.00000000                0.35787002                0.33696500               -1.17409009                0.00221199                0.11560553                0.17415498
              12.47952781               -0.07114967               37.41957761                1.00000000                0.39849824                0.44441659               -1.45445502                0.02984832                0.04514412               -1.08861008
               2.70020682                3.24399653               38.44865186                1.00000000               -0.25454066               -0.35165530                1.02258967               -0.00735912                0.04194955                1.75161686
               3.69766141                3.01349819               38.32564157                1.00000000               -0.22146071               -0.22961678                0.75437636                0.01120654                0.22438180                0.20458488
               4.69577760                2.78241195               38.20628492                0.74169483               -0.14581300               -0.11167864                0.48583479               -0.02705244                0.62339731               -1.20585460
               5.69474515                2.55046645               38.09118109                0.00672814                0.10687535               -0.05985048                0.17443369               -0.14089790                4.37663895               -1.91665755
               6.69791511                2.31624901               38.04676706                0.00010000                0.19821538               -0.10222863               -0.21685663               -0.45113859                5.66953398               -1.03753342
               7.69870946                2.08366082               37.95082433                0.00010000                0.08853483               -0.04946410               -0.41288111               -0.46219923                2.76653930                0.00851449
               8.69968581                1.85187038               37.84671186                0.00010000                0.06565035               -0.00824025               -0.60449032               -0.44837319                3.78381678                0.84130115
               9.70002247                1.62097502               37.77047171                0.00010000                0.08266567                0.01645337               -0.78647387               -0.34471552                4.49252979                1.41468532
              10.70133912                1.39107678               37.68034603                0.50108231                0.23625242                0.26583451               -1.02852106               -0.17227024                2.58932417                1.80190284
              11.70474751                1.16210265               37.56630501                1.00000000                0.38563990                0.35175789               -1.30781270               -0.05337747                0.91256788                0.84723638
              12.70905192                0.93354498               37.44271155                1.00000000                0.43044044                0.49807951               -1.57749378                0.01836575                0.43190614               -1.02205787
               2.93001208                4.24054132               38.40550497                1.00000000               -0.20738963               -0.33437773                0.88710968               -0.01547092                0.12373232                1.61708010
               3.92793818                4.01138060               38.27486366                1.00000000               -0.18049090               -0.18720540                0.61965466                0.00112205                0.20317816                0.01633643
               4.92640226                3.78165537               38.14580548                0.41535526               -0.09368176               -0.04797462                0.36822563               -0.09072249                1.14515873               -1.65659216
               5.92606454                3.54998408               38.03395795                0.00010000               -0.18488719                0.00666063                0.08872280               -0.33296910                5.19641932               -2.58649121
               6.92270451                3.31452399               37.98580815                0.00010000               -0.21980999               -0.06444756               -0.21890343               -0.85325761                8.06146500               -2.54303083
               7.92166834                3.08181687               37.92881143                0.00010000               -0.04189726               -0.12575009               -0.48824805               -0.91767924                7.36792329               -0.36211569
               8.92186657                2.84986605               37.86379492                0.00010000                0.11495198               -0.17147648               -0.73653238               -0.96103991                6.94953406                1.79895889
               9.92396738                2.61878702               37.79601659                0.00010000                0.29654032               -0.18996785               -0.99941494               -0.61385257                6.58451310                2.31391895
              10.92779738                2.39351958               37.72148504                0.06746761                0.40198463               -0.12815165               -1.19065598               -0.31136087                4.27957832                3.45534556
              11.93200708                2.16562343               37.60574840                0.86274674                0.46065403                0.27234756               -1.49493996               -0.18074259                1.24181777                1.91799535
              12.93701046                1.93881192               37.47043001                1.00000000                0.50033792                0.58088083               -1.72727111               -0.06775452                0.25380581               -0.23950057
               3.15821884                5.23730898               38.35984956                1.00000000               -0.16490326               -0.30264935                0.74027198               -0.03009231                0.20303603                1.33366118
               4.15656980                5.00975408               38.22164269                0.78198507               -0.14295833               -0.12803286                0.47400640               -0.02443150                0.31679429               -0.32638180
               5.15535967                4.78145246               38.08569135                0.17327313               -0.06763285                0.02574406                0.22105310               -0.15395946                1.39295334               -1.82339058
               6.15521715                4.55059966               37.96896526                0.00010000               -0.31712461                0.12351847               -0.03510668               -0.57417695                7.06940469               -2.57316296
               7.14901718                4.31496005               37.94647932                0.00010000               -0.51016671                0.09881286               -0.27945773               -0.96125019               11.39950621               -0.91086080
               8.14501381                4.08114581               37.91413359                0.00010000               -0.27611630                0.00192962               -0.55964969               -1.05184146               10.63979189                0.32957432
               9.14349485                3.84844085               37.87398612                0.00010000               -0.04609610               -0.08467536               -0.85210442               -1.09405938               10.13885285                1.62786275
              10.14409189                3.61717566               37.82880375                0.00010000                0.23903252               -0.15569919               -1.17122870               -1.00602884                9.93107604                2.86996961
              11.14827550                3.38851375               37.78148808                0.01783981                0.58742145               -0.47838583               -1.61762842               -0.46281197                6.10972725                4.34411517
              12.15584032                3.16754960               37.65615487                0.55014627                0.65221690                0.14835908               -1.55518658               -0.01183390                1.20457717                2.67141367
              13.16131984                2.94516260               37.50953002                0.99649497                0.54795205                0.64843539               -1.78782539               -0.08437369                0.15162367                0.55676338
               3.38452002                6.23448833               38.31117654                1.00000000               -0.12139507               -0.25200940                0.58280056               -0.03473737                0.12631056                1.05434091
               4.38330607                6.00881994               38.16396425                0.57122172               -0.10212624               -0.06133927                0.30283222               -0.04023444                0.37500216               -0.66033251
               5.38247749                5.78217025               38.02169328                0.06088317               -0.11163282                0.11844317                0.05103735               -0.20184024                2.23663491               -2.24062109
               6.38107341                5.55245445               37.91166355                0.00010000               -0.47720685                0.13660409               -0.05800375               -0.92001806                9.67655580               -0.44760890
               7.37293336                5.31650025               37.91798751                0.00010000               -0.69613448                0.18095227               -0.31770465               -1.26946696               14.71606883                0.11314263
               8.36715072                5.08185546               37.90640574                0.00010000               -0.44889107                0.11669673               -0.62917641               -1.28910469               13.61568181                0.94685765
               9.36395553                4.84817255               37.88810628                0.00010000               -0.16884057                0.00897251               -0.94071578               -1.32865757               13.24337031                1.99723761
              10.36377391                4.61567304               37.86612922                0.00010000                0.21058326               -0.13585102               -1.30078637               -1.33441761               13.09862478                3.23231237
              11.36816720                4.38395186               37.84148184                0.02292134                0.56738198               -0.39978169               -1.81397434               -0.57052352                7.92225633                4.61067940
              12.37512155                4.16859061               37.71125022                0.44872935                0.59648921                0.11355521               -1.39490005                0.07466410                1.40778047                2.68498358
              13.38009698                3.95178063               37.55392822                0.91954577                0.49754346                0.63029119               -1.64753727               -0.05040349                0.08787084                0.68631184
               3.60886086                7.23226879               38.26006338                0.97254735               -0.07776678               -0.18782067                0.41965159               -0.03024076                0.04790685                0.87186205
               4.60808320                7.00852730               38.10394647                0.45312886               -0.05862559               -0.00660547                0.13715652               -0.03384912                0.30562287               -0.79732985
               5.60768835                6.78382132               37.95293498                0.00010000               -0.27982055                0.18836206               -0.13579197               -0.32157543                4.93170443               -2.58255361
               6.60248678                6.55333174               37.88928717                0.00010000               -0.67307598                0.10170089                0.11158771               -1.13563953               12.99791392                1.40465604
               7.59422683                6.31857910               37.89909222                0.00010000               -0.74636828                0.24582640               -0.37982462               -1.39447069               16.57926175                0.82716285
               8.58755942                6.08347975               37.90421685                0.00010000               -0.55613579                0.21398465               -0.69508272               -1.50899657               16.32885117                1.35574906
               9.58310412                5.84862030               37.90602608                0.00010000               -0.29675986                0.08146255               -0.99273030               -1.61131979               16.27251575                2.26278405
              10.58162422                5.61445864               37.90670891                0.00010000                0.04216731               -0.09407508               -1.31351507               -1.74337444               16.43239014                3.44992931
              11.58394746                5.38051811               37.90781756                0.04221140                0.39403050               -0.26998478               -1.71519932               -0.86527019                9.45410403                4.99477335
              12.58950483                5.16982070               37.76334656                0.40232185                0.49921323                0.14186084               -1.24637177                0.08592111                1.16578260                2.30967798
              13.59393173                4.95776842               37.59631374                0.88713911                0.44268955                0.57686129               -1.52556175               -0.02560082                0.06919101                0.40205884
               3.83139819                8.23073192               38.20783219                0.96147503               -0.03216347               -0.12046450                0.25770727               -0.02734101                0.01455724                0.80277349
               4.83107655                8.00868783               38.04337432                0.40604511               -0.00783220                0.03523336               -0.02312491               -0.01678095                0.15554688               -0.81300624
               5.83124154                7.78593749               37.88166503                0.00010000               -0.37368538                0.21379915               -0.31216563               -0.42884480                7.79597418               -2.69344925
               6.82360284                7.55448847               37.86993691                0.00010000               -0.81728034                0.24628765               -0.16080255               -1.06810503               16.72306605                0.82648203
               7.81489593                7.32141677               37.88498053                0.00010000               -0.83366263                0.37505774               -0.48859076               -1.31706324               18.45067110                0.95862989
               8.80692959                7.08613515               37.90474850                0.00010000               -0.70728440                0.36464446               -0.77225846               -1.63084494               18.91372743                1.44465587
               9.80075025                6.84980180               37.92559461                0.00010000               -0.49604917                0.19640656               -1.01491222               -1.91120341               19.27270226                2.28774579
              10.79700861                6.61379154               37.94865697                0.00010000               -0.26252558               -0.02947517               -1.22236684               -2.14217841               19.85938560                3.38360095
              11.79549973                6.37855217               37.97670488                0.07409175                0.12905286               -0.10435306               -1.36938086               -1.16786396               10.75842630                4.79428480
              12.79958966                6.17142783               37.81194785                0.38085587                0.40948973                0.19012544               -1.16655717                0.06612459                0.60883053                1.91898874
              13.80368953                5.96331786               37.63537864                0.87011264                0.40998654                0.54309918               -1.48127050               -0.00649241                0.04632988                0.03776454
               4.05240221                9.22985950               38.15539226                0.95798503                0.01397928               -0.05579873                0.09757788               -0.02525146                0.00053412                0.80714521
               5.05254200                9.00923197               37.98288626                0.41912253                0.04543025                0.07317518               -0.18131464               -0.00477757               -0.00100494               -0.78346297
               6.05331082                8.78809731               37.81025509                0.00010000               -0.34483033                0.21204187               -0.47615667               -0.40789648                9.92813679               -2.46389791
               7.04564540                8.55825749               37.83621564                0.00010000               -0.85359646                0.46347231               -0.47384027               -0.88199507               20.33861065               -0.09342278
               8.03623889                8.32608026               37.86889839                0.00010000               -0.95439494                0.56490272               -0.65570476               -1.13937063               21.00773802                0.65245738
               9.02655750                8.09077264               37.90446673                0.00010000               -0.95076134                0.59367763               -0.86974063               -1.56400754               21.57317285                1.18752555
              10.01722366                7.85254843               37.94416259                0.00010000               -0.82636069                0.49382853               -1.06259459               -2.08731861               22.22682237                1.95905095
              11.01003028                7.61386914               37.98813059                0.00010000               -0.71348815                0.14965953               -1.12299431               -2.57428144               23.08677077                3.15383277
              12.00295390                7.37843105               38.04001992                0.12084821               -0.19843256                0.06311612               -0.96875521               -1.44674699               11.98798931                3.85450791
              13.00606163                7.17362321               37.85670623                0.37805638                0.35339611                0.25362078               -1.13718309                0.01708608                0.13144990                1.50902948
              14.01002182                6.96863040               37.67063729                0.86264542                0.39601861                0.51830556               -1.49490337                0.00443776                0.01940909               -0.36309189
               4.27214822               10.22961594               38.10326685                0.95092381                0.05949680                0.00413428               -0.06237097               -0.02421285               -0.01848799                0.71983859
               5.27274319               10.01015133               37.92274346                0.45787815                0.09549293                0.11098209               -0.33478639               -0.00305159                0.03659091               -0.64468108
               6.27405808                9.79017833               37.74320134                0.00010000               -0.23815996                0.21444868               -0.62362465               -0.29638959               11.82782950               -1.60673476
               7.26797999                9.56375792               37.79835017                0.00010000               -0.72323524                0.55627457               -0.68973549               -0.53888717               23.54040314               -0.20738526
               8.25959338                9.33271483               37.84893246                0.00010000               -0.93993645                0.69179256               -0.82913518               -0.72468016               23.60491453                0.28863978
               9.24918126                9.09800870               37.90024481                0.00010000               -1.18430015                0.81598009               -0.99226738               -1.03180930               24.19422185                0.66094796
              10.23590738                8.85967837               37.95748054                0.00010000               -1.47704535                0.91501909               -1.16014929               -1.64299493               25.31970313                1.15610071
              11.21964036                8.61678473               38.02595415                0.00010000               -1.45483266                0.86631646               -1.34935733               -2.30556275               25.96499788                2.27766377
              12.20681072                8.37981449               38.09040235                0.18752289               -0.49541616                0.19650120               -0.75094230               -1.68840749               13.05028916                2.08059987
              13.20973203                8.17650024               37.89714534                0.39194136                0.34765877                0.31384994               -1.14100222               -0.02578153                0.07844038                0.97306906
              14.21376390                7.97368397               37.70158466                0.85555906                0.40318635                0.49863889               -1.55103642                0.00779943               -0.01178730               -0.57802729
               4.49084717               11.22994219               38.04904989                0.98075668                0.10714218                0.03262443               -0.21457547                0.02083634                0.39261410                0.61955595
               5.49191859               11.01145161               37.86486651                0.77663843                0.14646384                0.13002721               -0.48794271                0.03974427                0.79859512               -0.52283196
               6.49377644               10.79238628               37.68865309                0.44858942                0.02062814                0.22079547               -0.77017809               -0.13159513               13.72451832               -0.97008689
               7.49233115               10.56938299               37.76277647                0.31594198               -0.31409728                0.56250684               -0.86639924               -0.18839297               26.08299138               -0.18335527
               8.48749450               10.33991611               37.82638359                0.30557668               -0.66866878                0.72012771               -0.99148321               -0.32442542               25.86297450                0.09753102
               9.47895777               10.10709224               37.89018414                0.31766811               -1.09533806                0.90835357               -1.14263006               -0.47571363               26.47976249                0.32026008
              10.46558774                9.87084881               37.96063079                0.35135024               -1.75874327                1.11704456               -1.30893270               -0.82680261               27.93840683                0.60912789
              11.44378291                9.63119547               38.04812722                0.50086160               -2.80587497                1.44107365               -1.63700395               -2.01013162               28.19377679                1.50081706
              12.40947024                9.38236108               38.11793325                0.62723215               -1.60531927                0.25465886               -0.84344755               -2.29881143               14.55311882                0.96660567
              13.41167652                9.17990021               37.93089914                0.71627299                0.31700605                0.33999679               -1.19647526                0.00655427                1.14851425                0.65956090
              14.41581036                8.97860318               37.73218747                0.92992888                0.41338335                0.49192152               -1.62010162                0.07494326                0.58841423               -0.57067533
               2.34486726                1.31290601               39.55546768                1.00000000               -0.35349771               -0.38452264                1.32554821               -0.06190931               -1.03809548                1.03017458
               3.34133229                1.07178980               39.43617125                1.00000000               -0.30615161               -0.29018934                1.03903257               -0.03741824               -1.37489553                0.15238426
               4.33874423                0.83020238               39.31023625                1.00000000               -0.20592862               -0.19854650                0.72957222               -0.04357004               -1.36375379               -0.20732771
               5.33721372                0.58812699               39.19113558                0.63736653               -0.02315327               -0.12487989                0.43039795               -0.13368708               -0.62127001               -0.93537562
               6.33828117                0.34375914               39.07992432                0.65827251                0.19880047               -0.12650394                0.04758051               -0.05531161               -0.19289625                0.27513886
               7.34118972                0.09813213               38.96949857                0.70726919                0.31252711                0.00780199               -0.23335781               -0.08449720               -0.22846480                0.14862844
               8.34453171               -0.14597274               38.85646434                0.70094624                0.36573841                0.08474308               -0.45144608               -0.05216928               -0.31236408               -0.07109519
               9.34850449               -0.38848317               38.74286752                0.81457491                0.37216146                0.15199776               -0.61079001               -0.07305731               -0.57093746                0.11299801
              10.35197494               -0.62948775               38.62319244                1.00000000                0.33483983                0.23584374               -0.81104711               -0.06817930               -0.97808586                0.64417941
              11.35520129               -0.86974209               38.50073691                1.00000000                0.34591848                0.32563403               -1.05740091               -0.04128574               -1.01782311                0.02896208
              12.35889331               -1.11011627               38.38001483                1.00000000                0.36920191                0.42095460               -1.33549525               -0.01827182               -0.92407004               -0.89882610
               2.58536437                2.30906078               39.50339159                1.00000000               -0.30544539               -0.37460207                1.17472134               -0.01300962               -0.18599538                1.40294510
               3.58230992                2.06888791               39.38398157                1.00000000               -0.26122174               -0.26926238                0.89132308                0.01117324               -0.26132228                0.21910256
               4.58013994                1.82821691               39.26312812                1.00000000               -0.16057286               -0.17136743                0.58295333               -0.00987341               -0.16869360               -0.45256497
               5.57909846                1.58687819               39.14547206                0.29863258                0.12927720               -0.09252173                0.27685919               -0.16704415                1.42133062               -1.27889291
               6.58272548                1.34249410               39.05609817                0.36549220                0.30561155               -0.09419632               -0.07394316               -0.03977684                2.40115825                0.87243083
               7.58521069                1.09821015               38.95515213                0.42720570                0.22960898                0.04529723               -0.33993567               -0.04955355                1.73013320                0.43645213
               8.58731766                0.85487469               38.85054840                0.36332160                0.21603653                0.13863546               -0.54344294               -0.02927806                1.75259864               -0.27228705
               9.58953142                0.61303681               38.74900427                0.48975315                0.23024738                0.20339626               -0.69424806               -0.05089224                1.78627851                0.48888814
              10.59192261                0.37287068               38.64446673                1.00000000                0.27856320                0.26091479               -0.90508108               -0.04087093                0.92349029                0.86428082
              11.59510269                0.13351425               38.52549010                1.00000000                0.35810763                0.33885717               -1.17513060                0.00272110                0.12753915                0.18321656
              12.59908476               -0.10590672               38.40502603                1.00000000                0.39820743                0.44206678               -1.45313228                0.02737930                0.05231203               -1.04915218
               2.82495281                3.30541397               39.45893244                1.00000000               -0.25531903               -0.35882458                1.03720147               -0.00751483                0.03738604                1.77307481
               3.82239962                3.06640456               39.33317855                1.00000000               -0.21981637               -0.22990831                0.75371207                0.01041580                0.21787398                0.22056737
               4.82055648                2.82677503               39.21107065                0.75442676               -0.14019885               -0.10548913                0.46867867               -0.03107574                0.59658816               -1.17627683
               5.81959564                2.58627656               39.09279814                0.00657135                0.27985960               -0.04704697                0.14319706               -0.23145760                4.28778596               -1.88938735
               6.82615368                2.34187521               39.04432261                0.00010000                0.41112112               -0.12956932               -0.27834467               -0.63412229                5.64421410               -1.01417547
               7.82781807                2.09903807               38.94643266                0.00010000                0.14829035               -0.05158089               -0.47403724               -0.62583361                2.86192644                0.01402775
               8.82911948                1.85679997               38.84048268                0.00010000                0.08362926               -0.00141424               -0.65279307               -0.57998580                3.89746242                0.81914288
               9.82949065                1.61558476               38.76263217                0.00010000                0.07803018                0.01728080               -0.78845927               -0.41462479                4.56448158                1.34463035
              10.83068009                1.37573054               38.67009489                0.49633614                0.22712323                0.25922595               -1.01495894               -0.17663624                2.59945801                1.78319067
              11.83403312                1.13703505               38.55326932                1.00000000                0.38013710                0.35128617               -1.29179027               -0.04716759                0.90532452                0.82860179
              12.83828283                0.89872507               38.42700478                1.00000000                0.42497122                0.48584741               -1.55606577                0.01718578                0.42590369               -0.99103370
               3.06323289                4.30188429               39.41441918                1.00000000               -0.20757215               -0.34190614                0.89872891               -0.01612017                0.12558753                1.63089031
               4.06115717                4.06428975               39.28104383                1.00000000               -0.17932347               -0.18588395                0.61658230               -0.00003300                0.21207337                0.02619985
               5.05964643                3.82610713               39.14941264                0.41304699               -0.08940235               -0.03864590                0.35082841               -0.09591126                1.14804291               -1.64355392
               6.05936913                3.58593725               39.03469215                0.00010000               -0.11824515                0.02445368                0.05221065               -0.44709311                5.17310208               -2.55274022
               7.05728152                3.33990271               38.98337022                0.00010000               -0.07999284               -0.07165508               -0.27458605               -1.15387988                8.05060928               -2.44022925
               8.05776927                3.09717853               38.92362588                0.00010000                0.09448679               -0.13637049               -0.55470986               -1.18945487                7.39268538               -0.31502251
               9.05917126                2.85484640               38.85611869                0.00010000                0.22695417               -0.17946832               -0.80114442               -1.19715452                6.97982949                1.78397535
              10.06230835                2.61338243               38.78577262                0.00010000                0.38841691               -0.20661030               -1.04648675               -0.76141793                6.65166846                2.21234897
              11.06693960                2.37805520               38.70979475                0.05220008                0.44282290               -0.15483708               -1.14424455               -0.32923224                4.29279420                3.22159522
              12.07116481                2.14053997               38.59095819                0.82857983                0.45544217                0.25391516               -1.45380458               -0.16420452                1.20957911                1.91895437
              13.07604844                1.90381023               38.45333657                1.00000000                0.48836290                0.54639125               -1.68219368               -0.06150873                0.25600745               -0.18380848
               3.29981950                5.29857584               39.36728039                1.00000000               -0.16433754               -0.30988864                0.74838891               -0.03178383                0.21080971                1.33506559
               4.29817612                5.06268688               39.22635212                0.76823527               -0.14143723               -0.12379250                0.46785669               -0.02787289                0.33076691               -0.33542422
               5.29699075                4.82600211               39.08782151                0.16733196               -0.06589616                0.03867188                0.20263813               -0.15967175                1.41182157               -1.83675047
               6.29685820                4.58676563               38.96845711                0.00010000               -0.25779747                0.12978893               -0.07173787               -0.69174878                7.09276780               -2.49728370
               7.29183480                4.34044211               38.94343832                0.00010000               -0.38864586                0.10648802               -0.33360960               -1.17892724               11.41616485               -0.82099491
               8.28908528                4.09631066               38.90818397                0.00010000               -0.14311544               -0.00990516               -0.63378610               -1.26583447               10.63398297                0.38810072
               9.28897249                3.85321060               38.86501574                0.00010000                0.09841065               -0.10273129               -0.94154591               -1.30433466               10.11051801                1.64251417
              10.29105349                3.61145255               38.81654083                0.00010000                0.39827038               -0.18494173               -1.27199910               -1.17217135                9.80673507                2.81677243
              11.29693790                3.37263380               38.76450549                0.00465563                0.69702543               -0.52111390               -1.74709254               -0.51017136                6.18240188                4.08056554
              12.30499400                3.14211335               38.64064918                0.51251687                0.67871191                0.09174042               -1.52087170                0.00122805                1.38451502                2.81217546
              13.31051214                2.90965289               38.49186350                0.97029739                0.55181370                0.59354092               -1.72890935               -0.07686673                0.14010150                0.71685987
               3.53437515                6.29568652               39.31701481                1.00000000               -0.12016998               -0.25796681                0.58711166               -0.03581728                0.12303906                1.04634080
               4.53317345                6.06181390               39.16693677                0.55679535               -0.10004543               -0.05434729                0.29125396               -0.04442731                0.38522556               -0.67873633
               5.53237424                5.82688057               39.02208797                0.05326718               -0.10396491                0.13739689                0.02364368               -0.22705886                2.33955966               -2.27132554
               6.53109415                5.58853303               38.91104322                0.00010000               -0.41081466                0.10899879               -0.06736294               -1.04343322                9.76934877               -0.22440117
               7.52415795                5.34203247               38.91455874                0.00010000               -0.57050286                0.18322342               -0.37296898               -1.46800832               14.70431943                0.20410929
               8.51968409                5.09698043               38.89969360                0.00010000               -0.31076365                0.11530265               -0.71579185               -1.47469786               13.58081462                1.01485243
               9.51794267                4.85279178               38.87810955                0.00010000               -0.01211836                0.00087367               -1.05769922               -1.51420689               13.17331703                2.05029111
              10.51944173                4.60968359               38.85226381                0.00010000                0.40663491               -0.15363499               -1.46418943               -1.49199000               12.89485067                3.26730846
              11.52607537                4.36763292               38.82192178                0.00984551                0.73642769               -0.45188439               -2.06619877               -0.63988880                8.14082225                4.66434172
              12.53417028                4.14237478               38.69702414                0.42331326                0.66783260                0.04540294               -1.41913720                0.06617183                1.77989879                2.92018108
              13.53943202                3.91568104               38.53740647                0.90246568                0.52617439                0.58396147               -1.63399592               -0.04502969                0.06872169                0.88533308
               3.76684839                7.29341651               39.26425030                0.97108201               -0.07548691               -0.19201307                0.41937618               -0.03072302                0.04473465                0.86057694
               4.76609352                7.06159993               39.10524990                0.44158936               -0.05589772                0.00143715                0.12318758               -0.03665055                0.30622463               -0.80930269
               5.76573044                6.82875005               38.95143814                0.00010000               -0.26279488                0.21106775               -0.16426189               -0.38576556                5.20615395               -2.61447017
               6.76083763                6.58894561               38.89036188                0.00010000               -0.58515985                0.07658817                0.09291157               -1.25357182               13.16547974                1.48278881
               7.75402724                6.34410658               38.89497480                0.00010000               -0.60028027                0.24352309               -0.44748094               -1.54954167               16.45327395                0.88744597
               8.74883202                6.09861671               38.89676541                0.00010000               -0.40210269                0.21500962               -0.79794624               -1.66547706               16.29884979                1.42960375
               9.74598519                5.85322807               38.89538000                0.00010000               -0.12297375                0.08224022               -1.13742855               -1.76045833               16.22003735                2.36262712
              10.74637255                5.60837985               38.89251041                0.00010000                0.27318766               -0.09880476               -1.52630080               -1.88238919               16.28306884                3.61601176
              11.75144894                5.36359611               38.88888940                0.02832497                0.59483862               -0.32702085               -2.07454177               -0.92738948                9.76639697                5.36275622
              12.75826932                5.14302141               38.75053056                0.38129294                0.57750344                0.09929445               -1.30143648                0.07322283                1.59336881                2.50760783
              13.76299901                4.92133212               38.58091216                0.87259622                0.47296917                0.55313460               -1.54438435               -0.02620820                0.05871685                0.52716694
               3.99739384                8.29184626               39.21038021                0.96060786               -0.02869407               -0.12280297                0.25319976               -0.02798544                0.01323369                0.79186295
               4.99710690                8.06184264               39.04305968                0.39747953               -0.00402904                0.04359781               -0.04066817               -0.01773532                0.14997489               -0.82053249
               5.99731326                7.83110192               38.87840700                0.00010000               -0.32203568                0.23570653               -0.34225969               -0.50960501                7.99970174               -2.70967728
               6.99066618                7.59006479               38.86799109                0.00010000               -0.69086257                0.24843654               -0.23834408               -1.19351859               16.92815203                0.67851873
               7.98349600                7.34690294               38.87968507                0.00010000               -0.67065615                0.36798581               -0.57288568               -1.45474861               18.43830145                0.97612373
               8.97725306                7.10128062               38.89643981                0.00010000               -0.52628183                0.35827292               -0.89273618               -1.75257892               18.93359227                1.51695437
               9.97297037                6.85443658               38.91463631                0.00010000               -0.29135783                0.19532796               -1.18124881               -2.01443312               19.31165319                2.41255355
              10.97142590                6.60770750               38.93531233                0.00010000               -0.00421712               -0.03451914               -1.45871115               -2.25785981               19.91087112                3.64158521
              11.97288602                6.36109251               38.96137920                0.05915672                0.32364119               -0.13996831               -1.74203965               -1.22646276               11.09763257                5.35519705
              12.97789873                6.14436067               38.79991423                0.36169976                0.47002056                0.17588547               -1.23768177                0.06145068                0.91990759                2.05564170
              13.98228644                5.92674374               38.62034688                0.85642140                0.43877101                0.53824209               -1.52552088               -0.00766008                0.04392790                0.08017042
               4.22629592                9.29096045               39.15631761                0.95759510                0.01872325               -0.05571936                0.08842451               -0.02593388               -0.00074009                0.79611675
               5.22648315                9.06247189               38.98097236                0.41372612                0.05101322                0.08167768               -0.20264246               -0.00469551               -0.01005474               -0.78678280
               6.22731618                8.83346418               38.80534630                0.00010000               -0.26584547                0.22949400               -0.50890090               -0.49805731               10.05479182               -2.46308455
               7.22116624                8.59391434               38.83115830                0.00010000               -0.67998680                0.45649238               -0.53963086               -1.03397285               20.52907538               -0.19532758
               8.21371645                8.35146630               38.86185084                0.00010000               -0.74597216                0.53924066               -0.75743008               -1.26772976               21.10341088                0.64700614
               9.20624680                8.10578217               38.89510702                0.00010000               -0.72234003                0.56844976               -1.00610907               -1.65101360               21.67007748                1.25024856
              10.19926965                7.85713463               38.93265751                0.00010000               -0.58436869                0.47670130               -1.24236540               -2.14654525               22.40088739                2.07067240
              11.19455942                7.60768947               38.97587137                0.00010000               -0.45015638                0.14316352               -1.34628058               -2.64659339               23.43559564                3.27825041
              12.19026652                7.36079675               39.02930288                0.10517163               -0.03561607                0.06269606               -1.21955503               -1.51701921               12.34615654                4.36433997
              13.19384710                7.14653912               38.84494213                0.35973263                0.39065746                0.26067346               -1.22011519                0.01678042                0.25236539                1.60675070
              14.19807967                6.93209696               38.65537221                0.84939125                0.42325646                0.52990873               -1.56405503                0.00321156                0.02113500               -0.37430096
               4.45385228               10.29073187               39.10256575                0.94654112                0.06569777                0.00710212               -0.07711367               -0.02514187               -0.01653627                0.71233789
               5.45450925               10.06347619               38.91927493                0.45490752                0.10286928                0.11971501               -0.36039633               -0.00345337                0.03052707               -0.64509799
               6.45590966                9.83569180               38.73680051                0.00010000               -0.12623232                0.22801861               -0.65981481               -0.40864868               11.91988937               -1.59568069
               7.45198461                9.59919464               38.79111081                0.00010000               -0.48180447                0.49883213               -0.76202048               -0.67046660               23.71788214               -0.24459985
               8.44627357                9.35768775               38.84011084                0.00010000               -0.67100780                0.63854774               -0.93905019               -0.81275448               23.75346503                0.28601755
               9.43856445                9.11264961               38.88959879                0.00010000               -0.90707040                0.77067855               -1.14146931               -1.07857681               24.35094649                0.70077651
              10.42813216                8.86397061               38.94493923                0.00010000               -1.18662655                0.87626180               -1.34864051               -1.66617014               25.48806693                1.22501582
              11.41483192                8.61057077               39.01124680                0.00010000               -1.22180863                0.86022233               -1.56313282               -2.34192548               26.58273205                2.20512866
              12.40369599                8.36234643               39.08238859                0.17279931               -0.39489019                0.22164638               -0.87482858               -1.77099485               13.59110091                2.31843267
              13.40693412                8.14957414               38.88535327                0.37423453                0.37694938                0.33311725               -1.22558380               -0.02911574                0.08630951                1.03530459
              14.41123498                7.93734191               38.68567165                0.84240869                0.43008628                0.52158416               -1.64016812                0.00581951               -0.01620785               -0.61030760
               4.68030443               11.29110249               39.04680349                0.98093383                0.11497158                0.03706219               -0.23460861                0.02158555                0.38847572                0.61597266
               5.68145415               11.06486619               38.85984014                0.77616391                0.15601629                0.13899971               -0.51879507                0.04059251                0.79076249               -0.52242921
               6.68342476               10.83802455               38.68076308                0.44681218                0.21534068                0.23327488               -0.81163329               -0.29725084               13.79923586               -0.95658276
               7.68576096               10.60389098               38.75373246                0.31603033                0.02908138                0.46963368               -0.94612465               -0.31172955               26.25015181               -0.20649642
               8.68400639               10.36423725               38.81589492                0.30570242               -0.36842791                0.65495018               -1.11000618               -0.36148040               26.02420750                0.09433363
               9.67839240               10.12119574               38.87798068                0.31743379               -0.79906493                0.85461308               -1.30215529               -0.49607393               26.65044954                0.33736789
              10.66802509                9.87465987               38.94654880                0.35043075               -1.45236554                1.06892608               -1.50536950               -0.82579901               28.05661919                0.63561658
              11.64934509                9.62489392               39.03026757                0.49574380               -2.60909167                1.43231493               -1.86922729               -2.02019247               28.90065313                1.35956884
              12.61584325                9.36522967               39.10900563                0.62022656               -1.55378941                0.28832452               -0.96176777               -2.36989641               15.28653849                1.03760491
              13.61826930                9.15320147               38.91858262                0.70754251                0.34086255                0.36273298               -1.27548346               -0.00153252                1.21989738                0.70217688
              14.62266050                8.94252865               38.71555334                0.92322719                0.43912003                0.51867357               -1.71663711                0.07527076                0.61833294               -0.60094636
               2.45508926                1.37610954               40.56885575                1.00000000               -0.35947679               -0.39409799                1.35791050               -0.06545944               -1.06354211                1.04560663
               3.45149449                1.12628150               40.44660625                1.00000000               -0.30865386               -0.29338149                1.05045002               -0.03991733               -1.41485511                0.16084706
               4.44891618                0.87596719               40.31747676                1.00000000               -0.20212951               -0.19639566                0.71783055               -0.04519151               -1.41171665               -0.20753631
               5.44745190                0.62511563               40.19528681                0.64095287               -0.02298912               -0.11749589                0.39461455               -0.18040774               -0.71289932               -0.95296470
               6.44845640                0.37091061               40.08002671                0.65737814                0.22545657               -0.12917173               -0.03519116               -0.05321511               -0.28270927                0.26770090
               7.45196103                0.11443464               39.96669296                0.70054887                0.38368366                0.01664647               -0.33902260               -0.09125045               -0.21660080                0.13317661
               8.45613007               -0.14036462               39.85151670                0.69172604                0.44876978                0.09313943               -0.55034595               -0.05345080               -0.21041807               -0.08689375
               9.46093643               -0.39307038               39.73649921                0.80637509                0.43389268                0.15414403               -0.67046582               -0.07780705               -0.43471621                0.10997380
              10.46480793               -0.64379858               39.61493967                1.00000000                0.36177232                0.23846362               -0.84292434               -0.07002474               -0.88237824                0.65192601
              11.46817187               -0.89356379               39.49005838                1.00000000                0.35669588                0.32839777               -1.08012457               -0.04094225               -0.96421905                0.03739975
              12.47194184               -1.14334228               39.36657231                1.00000000                0.37699696                0.42196196               -1.35418023               -0.02181532               -0.88639811               -0.86223928
               2.70426270                2.37216856               40.51524772                1.00000000               -0.30962118               -0.38395481                1.20181103               -0.01343401               -0.19926994                1.42195398
               3.70116649                2.12334768               40.39291597                1.00000000               -0.26077502               -0.27171106                0.89760892                0.01104381               -0.28994090                0.23114032
               4.69904720                1.87400324               40.26887562                1.00000000               -0.14951856               -0.16826452                0.56532948               -0.01167090               -0.20831289               -0.43562250
               5.69817612                1.62394067               40.14807274                0.30578198                0.21087730               -0.08285120                0.24153904               -0.22936689                1.35964409               -1.28188418
               6.70326475                1.36961889               40.05504685                0.36499644                0.42550101               -0.11085797               -0.14453919               -0.03155454                2.36214932                0.82547090
               7.70668614                1.11460110               39.95137630                0.42238652                0.30416627                0.05164930               -0.42706425               -0.06126135                1.77817419                0.41004676
               8.70934807                0.86056678               39.84479603                0.36125380                0.25945999                0.15237788               -0.61983060               -0.04122879                1.87592992               -0.29604878
               9.71187534                0.60847106               39.74193672                0.48813998                0.25031564                0.20848258               -0.72625006               -0.06086291                1.90914340                0.48019441
              10.71435439                0.35858606               39.63540124                1.00000000                0.28294839                0.26055719               -0.90644807               -0.04338339                0.97699032                0.86399260
              11.71753431                0.10972019               39.51374400                1.00000000                0.35738999                0.33851915               -1.17177231                0.00317580                0.14151549                0.19191901
              12.72150219               -0.13912266               39.39051496                1.00000000                0.39678791                0.43780269               -1.44606531                0.02357665                0.06066432               -1.00495888
               2.95246232                3.36843044               40.46939589                1.00000000               -0.25816348               -0.36786905                1.06005692               -0.00772541                0.03093325                1.79583270
               3.94988069                3.12084728               40.34071582                1.00000000               -0.21862730               -0.23083259                0.75548182                0.00955820                0.20792982                0.23719509
               4.94808978                2.87260190               40.21565849                0.76870065               -0.13158869               -0.09849071                0.44418478               -0.03605373                0.56573932               -1.14315718
               5.94724891                2.62345861               40.09404503                0.00623902                0.45375531               -0.03351814                0.09700993               -0.32577894                4.18830058               -1.85761805
               6.95716488                2.36869345               40.04120016                0.00010000                0.62695007               -0.15075963               -0.35604926               -0.82363817                5.61009656               -0.99970469
               7.95978791                2.11546762               39.94134359                0.00010000                0.21353272               -0.04180008               -0.55921793               -0.79615299                2.96839693                0.00433190
               8.96143554                1.86268294               39.83365600                0.00010000                0.09559873                0.02228618               -0.73139439               -0.72000001                4.04955374                0.77293038
               9.96169989                1.61109927               39.75470252                0.00010000                0.06277986                0.03271453               -0.80773400               -0.49105093                4.67959394                1.24108744
              10.96269113                1.36141257               39.66004685                0.48701032                0.21221129                0.24774113               -0.98812091               -0.18896862                2.62004934                1.76448918
              11.96594412                1.11320659               39.54046920                1.00000000                0.37039739                0.34512365               -1.26196206               -0.04381290                0.89652886                0.81278690
              12.97009908                0.86541377               39.41159024                1.00000000                0.41549664                0.46998487               -1.52012382                0.01430074                0.42002145               -0.95307581
               3.19927452                4.36481117               40.42347955                1.00000000               -0.20883256               -0.35078891                0.91715354               -0.01655112                0.12664240                1.64526656
               4.19718619                4.11873103               40.28719531                1.00000000               -0.17798595               -0.18473067                0.61397312               -0.00072095                0.21997995                0.03716488
               5.19571480                3.87203342               40.15282205                0.40995234               -0.08085962               -0.02798948                0.32890242               -0.10296978                1.14762534               -1.62695413
               6.19556900                3.62327031               40.03500216                0.00010000               -0.04659134                0.04221559                0.00449767               -0.56114708                5.14599482               -2.51548676
               7.19478297                3.36660370               39.98031643                0.00010000                0.06022923               -0.06709025               -0.34411252               -1.45282393                8.04015892               -2.33373101
               8.19677358                3.11376510               39.91771724                0.00010000                0.22667256               -0.13137538               -0.63625369               -1.46315284                7.42501294               -0.27660584
               9.19931642                2.86101250               39.84777204                0.00010000                0.32755562               -0.16913353               -0.87520517               -1.43634630                7.02922428                1.74689327
              10.20332469                2.60912535               39.77508685                0.00010000                0.45756362               -0.20396747               -1.09119387               -0.92173344                6.77753264                2.05849656
              11.20846769                2.36354088               39.69860015                0.03672391                0.46660756               -0.17072708               -1.08771960               -0.36893186                4.34678928                2.90615775
              12.21265685                2.11662266               39.57667231                0.79028781                0.44530765                0.22602806               -1.39533086               -0.15176775                1.17108657                1.91813875
              13.21737385                1.87027703               39.43678614                1.00000000                0.47170007                0.50080603               -1.61890892               -0.05485544                0.25382169               -0.12247575
               3.44429158                5.36141466               40.37481734                1.00000000               -0.16475632               -0.31829694                0.76184535               -0.03308161                0.21879375                1.33679436
               4.44264402                5.11715267               40.23099982                0.75188620               -0.14002403               -0.11918013                0.46168577               -0.03106628                0.34596742               -0.34501374
               5.44149110                4.87204211               40.08974411                0.16041927               -0.05941601                0.05468442                0.17772034               -0.17011530                1.43058977               -1.85329090
               6.44145570                4.62430292               39.96753051                0.00010000               -0.19387438                0.13956749               -0.11940221               -0.81349262                7.11977810               -2.40571386
               7.43761361                4.36735164               39.93980713                0.00010000               -0.26698246                0.12211246               -0.39784492               -1.39382049               11.43211931               -0.72481025
               8.43611605                4.11284011               39.90145787                0.00010000               -0.01326290               -0.00970179               -0.71639431               -1.48043762               10.62689355                0.44223721
               9.43734836                3.85930027               39.85515521                0.00010000                0.23103950               -0.10991979               -1.03061670               -1.51424730               10.08407039                1.63583477
              10.44073684                3.60701992               39.80336377                0.00010000                0.52334160               -0.20378634               -1.35197098               -1.33841233                9.67621537                2.70868323
              11.44781519                3.35799803               39.74654623                0.00010000                0.77178846               -0.53430490               -1.82017003               -0.57685753                6.31532399                3.66821995
              12.45617261                3.11772715               39.62573744                0.47434285                0.69390195                0.02450902               -1.44839772                0.00049295                1.63370000                2.91268142
              13.46169323                2.87542989               39.47495183                0.94280612                0.55206181                0.50807973               -1.64293864               -0.06308092                0.13427325                0.85559038
               3.68713688                6.35844524               40.32291878                1.00000000               -0.11994637               -0.26498667                0.59573059               -0.03654171                0.11838185                1.03786941
               4.68593741                6.11634743               40.16978933                0.54314065               -0.09873200               -0.04671688                0.27949402               -0.04711464                0.39374905               -0.69705156
               5.68516224                5.87312711               40.02216615                0.04489634               -0.09738968                0.15853889               -0.00912909               -0.25387121                2.46128431               -2.30473227
               6.68398962                5.62606166               39.91031630                0.00010000               -0.33964350                0.08683600               -0.08125433               -1.16385765                9.86355628                0.00871796
               7.67836937                5.36904594               39.91052813                0.00010000               -0.43867099                0.19250253               -0.43862627               -1.66077167               14.67041763                0.29701680
               8.67521620                5.11357106               39.89208990                0.00010000               -0.17588500                0.12427470               -0.80714591               -1.66083330               13.53487227                1.07673576
               9.67485167                4.85881411               39.86695229                0.00010000                0.13212475                0.00229074               -1.17037267               -1.70549626               13.08470744                2.08297060
              10.67785869                4.60504963               39.83684543                0.00010000                0.56858235               -0.16447871               -1.60379931               -1.64599820               12.64653843                3.24916752
              11.68622331                4.35285479               39.80015787                0.00010000                0.86880734               -0.48411038               -2.23708220               -0.72483633                8.42645371                4.58659168
              12.69523484                4.11711284               39.68286747                0.39615862                0.72417217               -0.03221940               -1.39031464                0.03803398                2.25180300                3.09204368
              13.70070676                3.88043863               39.52124830                0.88394802                0.54719158                0.49707282               -1.58289833               -0.03493898                0.05469111                1.03611466
               3.92775636                7.35611493               40.26845090                0.96968493               -0.07365084               -0.19716864                0.42259990               -0.03130862                0.04202195                0.84842818
               4.92701985                7.11621833               40.10641022                0.43008772               -0.05284559                0.01036449                0.10799841               -0.03950970                0.30752533               -0.81962666
               5.92669945                6.87521289               39.94964974                0.00010000               -0.23800689                0.23543356               -0.19700588               -0.45183790                5.48816494               -2.64020650
               6.92225971                6.62603964               39.89114540                0.00010000               -0.49053348                0.06003811                0.05526618               -1.35565012               13.32348035                1.53072433
               7.91688878                6.37120169               39.89014260                0.00010000               -0.45642459                0.25086336               -0.52479459               -1.69350750               16.30639300                0.94282245
               8.91313122                6.11532561               39.88825792                0.00010000               -0.25644547                0.22807851               -0.90405192               -1.82108046               16.24936566                1.49381989
               9.91175987                5.85934609               39.88327751                0.00010000                0.03224883                0.09806246               -1.27963218               -1.91680670               16.13029952                2.44163878
              10.91377620                5.60373035               39.87618290                0.00010000                0.47476890               -0.08936732               -1.72877169               -2.02029128               16.03710775                3.74176785
              11.92125525                5.34831582               39.86632673                0.01411403                0.77866239               -0.38060830               -2.40750023               -1.00102038               10.15174282                5.64416546
              12.92934945                5.11708277               39.73731783                0.35877174                0.65438138                0.05081239               -1.32535033                0.04204134                2.16701083                2.66151886
              13.93434287                4.88537135               39.56542605                0.85709145                0.49934286                0.50112903               -1.54519902               -0.02134051                0.04803025                0.60425943
               4.16630390                8.35450186               40.21289618                0.95979906               -0.02546494               -0.12593197                0.25140596               -0.02863666                0.01197612                0.78046150
               5.16604925                8.11655472               40.04256096                0.38864254                0.00001307                0.05313682               -0.06024461               -0.01868538                0.14477877               -0.82691374
               6.16630416                7.87783578               39.87481984                0.00010000               -0.25807190                0.26146074               -0.37859431               -0.58855182                8.18440270               -2.72193422
               7.16088782                7.62726242               39.86517003                0.00010000               -0.55454590                0.25957956               -0.32543035               -1.31549616               17.11319783                0.51910312
               8.15521325                7.37406321               39.87352281                0.00010000               -0.51188110                0.36964587               -0.66310477               -1.58300889               18.42104621                0.98309083
               9.15065019                7.11813263               39.88689378                0.00010000               -0.35512284                0.36465105               -1.01674109               -1.86333480               18.92539644                1.57715382
              10.14811079                6.86077536               39.90196963                0.00010000               -0.10835290                0.21564366               -1.35139376               -2.10765840               19.29851933                2.52124346
              11.14848314                6.60326228               39.91948275                0.00010000                0.23698492               -0.01153390               -1.71011586               -2.36060571               19.83842219                3.88813088
              12.15285049                6.34524262               39.94186409                0.04338686                0.52685012               -0.18036772               -2.19600708               -1.27910858               11.50450899                5.97118613
              13.15902014                6.11812909               39.78719421                0.34179674                0.54261482                0.16182070               -1.30166638                0.04543777                1.39348602                2.16717198
              14.16370278                5.89046121               39.60486823                0.84242769                0.46826464                0.52241352               -1.57291416               -0.00471371                0.04092810                0.07800539
               4.40307791                9.35359629               40.15716075                0.95724443                0.02343116               -0.05625231                0.08107428               -0.02676039               -0.00170407                0.78397551
               5.40331222                9.11728106               39.97883341                0.40779353                0.05713981                0.09134373               -0.22622568               -0.00422299               -0.01844015               -0.78883452
               6.40422071                8.88044211               39.80007707                0.00010000               -0.17949315                0.25060711               -0.54860155               -0.58670021               10.17344762               -2.45825614
               7.39972236                8.63123123               39.82542302                0.00010000               -0.49311595                0.45146726               -0.61174860               -1.18540029               20.70153872               -0.28543241
               8.39435839                8.37859461               39.85374979                0.00010000               -0.52849900                0.51639451               -0.86403940               -1.38255772               21.17571395                0.63325461
               9.38915238                8.12261863               39.88434454                0.00010000               -0.49406674                0.55089702               -1.14684685               -1.71070205               21.73409966                1.30151946
              10.38447705                7.86365896               39.91931528                0.00010000               -0.35277800                0.47560166               -1.42669264               -2.16045240               22.52235094                2.17352887
              11.38209682                7.60349967               39.96120498                0.00010000               -0.18353944                0.16144116               -1.60307480               -2.67939976               23.71550048                3.43873807
              12.38080627                7.34470846               40.01562882                0.08792096                0.14713952                0.06188903               -1.57991226               -1.57523544               12.76141000                5.03239092
              13.38503961                7.12031918               39.83230393                0.34121128                0.43890475                0.27183785               -1.31180323                0.01330906                0.47193301                1.69447102
              14.38958436                6.89581962               39.63935619                0.83630416                0.45447495                0.54177400               -1.64921502                0.00505396                0.02471483               -0.42448332
               4.63839914               10.35337682               40.10172457                0.94231713                0.07198317                0.00949330               -0.08995247               -0.02624854               -0.01441289                0.70286789
               5.63911898               10.11838159               39.91553553                0.45145715                0.11104244                0.12957675               -0.38912047               -0.00334345                0.02492704               -0.64430720
               6.64061999                9.88284792               39.73000504                0.00010000               -0.00458343                0.24436845               -0.70360553               -0.52208456               12.00072252               -1.58111947
               7.63902731                9.63629177               39.78310976                0.00010000               -0.22226497                0.43892623               -0.84117492               -0.79884164               23.87090330               -0.28208222
               8.63617469                9.38439110               39.83015145                0.00010000               -0.38277529                0.58200031               -1.05413040               -0.88845797               23.87133237                0.28101369
               9.63137180                9.12915057               39.87741543                0.00010000               -0.60769972                0.72285950               -1.29626345               -1.09716057               24.46807959                0.73363819
              10.62402070                8.87028739               39.93050773                0.00010000               -0.87630829                0.83415191               -1.53766268               -1.63516498               25.62336061                1.29190071
              11.61384564                8.60649110               39.99469149                0.00010000               -0.97472141                0.84228175               -1.73149197               -2.32823314               27.19356851                2.17401406
              12.60452627                8.34648040               40.07290578                0.15563466               -0.28352350                0.25853202               -1.05915260               -1.84227828               14.17679350                2.65960686
              13.60817517                8.12356585               39.87263366                0.35683868                0.41383594                0.35829351               -1.32871905               -0.03482825                0.12290492                1.10183241
              14.61280299                7.90129669               39.66878129                0.82970559                0.46278239                0.55006274               -1.75130157                0.00564517               -0.01937261               -0.66943470
               4.87254339               11.35378615               40.04435772                0.98109704                0.12308613                0.04093376               -0.25393163                0.02306858                0.38279195                0.60996585
               5.87377425               11.11987260               39.85449060                0.77537652                0.16627292                0.14910043               -0.55331683                0.04269312                0.78108637               -0.52080654
               6.87586884               10.88532948               39.67242043                0.44481948                0.42140521                0.24815506               -0.86118857               -0.46825708               13.85956798               -0.94034240
               7.88220235               10.64000976               39.74385398                0.31610134                0.39307899                0.37179880               -1.03174143               -0.43723870               26.38993902               -0.22952757
               8.88373042               10.39023461               39.80418347                0.30582014               -0.04447343                0.58435129               -1.23313298               -0.39112382               26.15075047                0.08990769
               9.88131288               10.13707582               39.86414104                0.31721166               -0.46485988                0.79252457               -1.46648309               -0.50052280               26.77824796                0.35241634
              10.87443323                9.88034200               39.93052340                0.34949452               -1.09868672                1.00546086               -1.70009509               -0.79527296               28.14980909                0.66844245
              11.85933915                9.62034531               40.01074267                0.48902786               -2.37736345                1.38542043               -1.98316724               -1.97379349               29.60151545                1.24330858
              12.82688596                9.34987910               40.09869789                0.61174293               -1.49061954                0.33987049               -1.13036474               -2.40704425               16.08157381                1.15105106
              13.82952676                9.12748505               39.90538947                0.69904641                0.36748110                0.39192045               -1.37507105               -0.01775250                1.32717156                0.75642363
              14.83423558                8.90682087               39.69785472                0.91679486                0.47088219                0.55241836               -1.83784510                0.07684107                0.65188694               -0.64837126
               2.56809542                1.44103419               41.58262589                1.00000000               -0.36812444               -0.40744684                1.40328066               -0.06998239               -1.09267524                1.06285430
               3.56441418                1.18238730               41.45718025                1.00000000               -0.31330388               -0.29861503                1.06776153               -0.04210946               -1.46056578                0.16964922
               4.56182934                0.92325393               41.32459286                1.00000000               -0.20042012               -0.19312055                0.70428140               -0.04581597               -1.46935434               -0.21015373
               5.56040577                0.66349583               41.19902787                0.64486988               -0.03042563               -0.10135508                0.34778049               -0.23761782               -0.82874017               -0.96849151
               6.56122083                0.39907289               41.07922049                0.65772594                0.24809765               -0.12428208               -0.13309091               -0.05893558               -0.40448389                0.25828674
               7.56536773                0.13142897               40.96271811                0.69473723                0.46481356                0.03314829               -0.46682380               -0.10138084               -0.21520257                0.11261051
               8.57051710               -0.13426928               40.84545742                0.68149848                0.55097335                0.10836824               -0.67501886               -0.05350927               -0.08662883               -0.11237093
               9.57638719               -0.39715871               40.72945820                0.79542818                0.51255498                0.15960899               -0.74706181               -0.08296647               -0.26123245                0.09947502
              10.58076820               -0.65737237               40.60633396                1.00000000                0.39485379                0.24157291               -0.88065852               -0.07163854               -0.76366458                0.66164711
              11.58428427               -0.91636534               40.47913442                1.00000000                0.36846416                0.33071470               -1.10565339               -0.04019818               -0.90214410                0.04619695
              12.58813748               -1.17524636               40.35293122                1.00000000                0.38532146                0.42225296               -1.37455439               -0.02623712               -0.84396084               -0.82207866
               2.82604248                2.43695972               41.52742781                1.00000000               -0.31592725               -0.39676975                1.24076684               -0.01404648               -0.21428128                1.44232442
               3.82288321                2.17940115               41.40193375                1.00000000               -0.26127828               -0.27590905                0.90827197                0.01222222               -0.32220333                0.24361473
               4.82081692                1.92132272               41.27443471                1.00000000               -0.13815467               -0.16442390                0.54769440               -0.01030765               -0.24908373               -0.42296137
               5.82012012                1.66248228               41.15030284                0.31402924                0.29239948               -0.06505304                0.20310871               -0.30392210                1.28960909               -1.29223820
               6.82666490                1.39783007               41.05320739                0.36603687                0.54524427               -0.12306745               -0.23361342               -0.04428030                2.30680646                0.76990991
               7.83102500                1.13176045               40.94661085                0.41781531                0.38054714                0.06774011               -0.54068799               -0.08266111                1.82915639                0.37166305
               8.83427585                0.86681441               40.83815179                0.35706009                0.30420380                0.17759197               -0.72582159               -0.05442772                2.03421787               -0.34162029
               9.83710908                0.60443738               40.73447927                0.48240613                0.26896418                0.22075405               -0.77509502               -0.07332807                2.07807706                0.45634599
              10.83965513                0.34504336               40.62633777                1.00000000                0.28551008                0.25968950               -0.90443755               -0.04746892                1.05113606                0.86437093
              11.84281928                0.08694181               40.50205465                1.00000000                0.35504973                0.33639103               -1.16344671                0.00344287                0.15769117                0.20105618
              12.84675613               -0.17102383               40.37610472                1.00000000                0.39368481                0.43193642               -1.43284219                0.01862180                0.07011819               -0.95579554
               3.08293162                3.43309879               41.48013358                1.00000000               -0.26360119               -0.37957748                1.09293484               -0.00837980                0.02404709                1.81924632
               4.08029561                3.17686912               41.34828819                1.00000000               -0.21947845               -0.23260557                0.76054960                0.00988635                0.19345268                0.25356835
               5.07854206                2.91996545               41.21995434                0.78327075               -0.12378127               -0.09201479                0.41384449               -0.03495885                0.52936323               -1.10884253
               6.07781999                2.66219477               41.09473834                0.00557794                0.62574984               -0.01701208                0.03741849               -0.43396902                4.08260837               -1.83279261
               7.09105705                2.39661154               41.03720162                0.00010000                0.84550895               -0.16044683               -0.45814177               -1.03531411                5.56751579               -0.99127770
               8.09473017                2.13278377               40.93524830                0.00010000                0.28472833               -0.01141644               -0.68207975               -0.97700293                3.08344021               -0.01603453
               9.09675162                1.86928256               40.82585479                0.00010000                0.09807575                0.07353299               -0.85501861               -0.87085593                4.25128969                0.70814912
              10.09669168                1.60725637               40.74647749                0.00010000                0.02813895                0.07268677               -0.85318167               -0.57696655                4.86569114                1.10733718
              11.09731440                1.34782142               40.65033247                0.47351157                0.18643131                0.23178115               -0.94819700               -0.21295502                2.66734390                1.74395076
              12.10042031                1.09036248               40.52803008                1.00000000                0.35633920                0.33463515               -1.21987238               -0.04238848                0.88573690                0.79821798
              13.10444118                0.83339237               40.39660230                1.00000000                0.40208745                0.45114711               -1.47109057                0.01004347                0.41392861               -0.90959272
               3.33833423                4.42936817               41.43276225                1.00000000               -0.21199532               -0.36131429                0.94363038               -0.01697326                0.12669841                1.65904623
               4.33621427                4.17474904               41.29332330                1.00000000               -0.17710717               -0.18382685                0.61227290               -0.00063265                0.22800162                0.04820950
               5.33479208                3.91948243               41.15599068                0.40626102               -0.07098139               -0.01866296                0.30095169               -0.10385958                1.14467401               -1.60558591
               6.33479465                3.66214204               41.03478211                0.00010000                0.02887692                0.05712212               -0.05526907               -0.67452685                5.11134505               -2.47058097
               7.33536962                3.39462113               40.97648797                0.00010000                0.20096363               -0.04386698               -0.43300849               -1.75585729                8.02946113               -2.21606019
               8.33881392                3.13153213               40.91090081                0.00010000                0.35082539               -0.10005156               -0.74063630               -1.73955801                7.47149520               -0.23425075
               9.34238613                2.86828507               40.83861459                0.00010000                0.41084861               -0.12677621               -0.96851514               -1.68223107                7.11191382                1.70756907
              10.34703089                2.60589112               40.76394874                0.00010000                0.49518972               -0.16943666               -1.14061146               -1.10554964                6.97880043                1.87320796
              11.35228992                2.34967898               40.68804036                0.02085049                0.46848302               -0.16904662               -1.01620529               -0.43501472                4.44657180                2.51609689
              12.35640055                2.09363451               40.56305157                0.74686764                0.43036415                0.19046677               -1.32056720               -0.14188850                1.12765259                1.91418206
              13.36089721                1.83799912               40.42095839                1.00000000                0.44966558                0.44550836               -1.53720411               -0.04715791                0.24746987               -0.05938996
               3.59183042                5.42587251               41.38251730                1.00000000               -0.16617183               -0.32789113                0.78151758               -0.03461977                0.22712519                1.33746595
               4.59016870                5.17319258               41.23558583                0.73768801               -0.13792781               -0.11432884                0.45487213               -0.03467655                0.36109715               -0.35390016
               5.58907186                4.91959219               41.09137592                0.15230485               -0.04889757                0.06989326                0.14343069               -0.17872444                1.44833043               -1.86827636
               6.58919075                4.66333722               40.96606907                0.00010000               -0.12610190                0.14752289               -0.17927279               -0.93246730                7.14372245               -2.28276616
               7.58654982                4.39573420               40.93548142                0.00010000               -0.14578375                0.15081005               -0.47535955               -1.60657011               11.45275580               -0.61951105
               8.58627507                4.13078274               40.89385609                0.00010000                0.10990917                0.00914823               -0.81109088               -1.69218513               10.63012462                0.50199032
               9.58874801                3.86674704               40.84440340                0.00010000                0.34558516               -0.09780904               -1.12200047               -1.72099704               10.08291150                1.62068251
              10.59318678                3.60386764               40.78950141                0.00010000                0.60613529               -0.20216518               -1.41084020               -1.50852622                9.57559032                2.56009201
              11.60087071                3.34444048               40.72810209                0.00010000                0.80378122               -0.50473593               -1.84455607               -0.67016744                6.52821278                3.14527517
              12.60926240                3.09417181               40.61168122                0.43521987                0.69490481               -0.04996278               -1.35252974               -0.02112965                1.94420411                2.97912255
              13.61476881                2.84230254               40.45900472                0.91350110                0.55064087                0.39650013               -1.53634631               -0.04357837                0.12931093                0.96645602
               3.84300168                6.42281035               41.32892942                1.00000000               -0.12006218               -0.27324208                0.60882019               -0.03779953                0.11349631                1.02862606
               4.84180106                6.17246246               41.17252665                0.52891686               -0.09643579               -0.03784035                0.26744708               -0.05267794                0.40188659               -0.71459709
               5.84107296                5.92088029               41.02190539                0.03577710               -0.08988815                0.18500192               -0.04551521               -0.28416303                2.60237081               -2.33506351
               6.84000329                5.66509250               40.90941813                0.00010000               -0.26401341                0.06845725               -0.10206888               -1.28096687                9.96722002                0.25279883
               7.83579269                5.39763733               40.90578621                0.00010000               -0.30229571                0.21170751               -0.51574576               -1.84423277               14.62486040                0.39253338
               8.83395738                5.13171509               40.88355068                0.00010000               -0.04557005                0.14532450               -0.90318153               -1.84495460               13.49533500                1.14046006
               9.83488129                4.86632888               40.85470210                0.00010000                0.26047713                0.01482360               -1.27552803               -1.89745397               13.00546475                2.10226586
              10.83916692                4.60184781               40.82018782                0.00010000                0.68505542               -0.16448757               -1.70820937               -1.79329590               12.41203945                3.17783016
              11.84858240                4.33958426               40.77718014                0.00010000                0.94744909               -0.48336415               -2.30263185               -0.83672061                8.80642329                4.37412783
              12.85811590                4.09263525               40.66921785                0.36726619                0.75908942               -0.11233820               -1.32602435               -0.02036648                2.80279470                3.19669741
              13.86376419                3.84592912               40.50574850                0.86362059                0.56482865                0.37474234               -1.50846079               -0.02189498                0.04436904                1.12247847
               4.09177019                7.42040766               41.27270230                0.96836220               -0.07250016               -0.20323553                0.42966570               -0.03208181                0.03922967                0.83581294
               5.09104519                7.17243578               41.10740987                0.41795534               -0.05058152                0.02093553                0.09085181               -0.04188355                0.30913864               -0.82855312
               6.09075856                6.92329223               40.94749802                0.00010000               -0.21154100                0.26778078               -0.23794962               -0.52050690                5.77630015               -2.66119850
               7.08681437                6.66470636               40.89146721                0.00010000               -0.38579929                0.05383648               -0.01381124               -1.45500044               13.50087584                1.55636399
               8.08304258                6.39996835               40.88447891                0.00010000               -0.30649714                0.26601153               -0.60790489               -1.83083237               16.15885140                0.99767880
               9.08068443                6.13368923               40.87868438                0.00010000               -0.11881865                0.25109908               -1.01031134               -1.97840251               16.20053025                1.55341712
              10.08066620                5.86704351               40.86978735                0.00010000                0.16905267                0.12473960               -1.41164503               -2.08204279               16.02956891                2.50045769
              11.08406548                5.60057789               40.85793498                0.00010000                0.63413285               -0.06998899               -1.90059165               -2.15686697               15.74310528                3.81164143
              12.09334886                5.33477320               40.84073939                0.00010000                0.92223648               -0.41850605               -2.64623194               -1.09852467               10.64342096                5.74878520
              13.10251021                5.09192505               40.72402356                0.33456270                0.71971580                0.00413778               -1.32321943               -0.01637054                2.88116434                2.75092009
              14.10774318                4.84979739               40.55000818                0.84027599                0.52329655                0.42222926               -1.53723618               -0.01312741                0.03961318                0.61030803
               4.33830382                8.41874563               41.21540833                0.95902542               -0.02250001               -0.12980467                0.25263952               -0.02913001                0.01056279                0.76854402
               5.33807882                8.17288117               41.04185479                0.37913067                0.00442104                0.06424224               -0.08244073               -0.01784432                0.14009570               -0.83153715
               6.33839224                7.92623591               40.87083511                0.00010000               -0.19258264                0.29108111               -0.42249326               -0.66374916                8.35671216               -2.72950916
               7.33422716                7.66616923               40.86148249                0.00010000               -0.40995319                0.27797958               -0.40840086               -1.42842128               17.28806072                0.35330633
               8.33019317                7.40295756               40.86642297                0.00010000               -0.34564979                0.37671993               -0.76012093               -1.70827643               18.40967760                0.98727308
               9.32731417                7.13673707               40.87610499                0.00010000               -0.19206965                0.38008407               -1.13845836               -1.97275071               18.90627348                1.62616324
              10.32635178                6.86882368               40.88760843                0.00010000                0.04928611                0.25117979               -1.51471823               -2.20495059               19.24967771                2.60892733
              11.32829989                6.60044803               40.90111001                0.00010000                0.44564820                0.03388036               -1.95573838               -2.45595612               19.63649138                4.09412381
              12.33526475                6.33121414               40.91745906                0.02707649                0.72322078               -0.21851656               -2.68062871               -1.33415602               12.01571042                6.54489123
              13.34276431                6.09271801               40.77388090                0.32099120                0.62461116                0.15320189               -1.35831690                0.01038715                2.07774568                2.23348068
              14.34775697                5.85437370               40.58888860                0.82791657                0.49926620                0.49484212               -1.63159808                0.00188260                0.03953090                0.01512572
               4.58291652                9.41781157               41.15793910                0.95469226                0.02815135               -0.05766895                0.07561141               -0.02718104               -0.00149413                0.77150822
               5.58319803                9.17372062               40.97644785                0.40099204                0.06395030                0.10258418               -0.25257089               -0.00246044               -0.02579358               -0.78951913
               6.58419552                8.92911385               40.79437427                0.00010000               -0.08368690                0.27450730               -0.59667565               -0.67485113               10.28627830               -2.44991728
               7.58152429                8.67026595               40.81892333                0.00010000               -0.29431585                0.44764077               -0.69269156               -1.32910030               20.86466439               -0.36578948
               8.57830921                8.40750275               40.84457005                0.00010000               -0.30804956                0.49583913               -0.97062693               -1.48868297               21.23619896                0.61380821
               9.57536330                8.14129091               40.87217008                0.00010000               -0.27264878                0.53944063               -1.28481609               -1.75900255               21.77704431                1.33839155
              10.57285623                7.87206711               40.90412366                0.00010000               -0.14037019                0.48884164               -1.60873298               -2.15319426               22.59081111                2.26035982
              11.57255590                7.60125550               40.94380988                0.00010000                0.07697678                0.20326597               -1.88466623               -2.68294415               23.88040004                3.64174564
              12.57439577                7.33040287               40.99770464                0.06943738                0.35012462                0.06276761               -2.08513388               -1.61207325               13.25628307                5.85796295
              13.57955839                7.09498909               40.81870607                0.32273571                0.50368362                0.29036153               -1.41231841                0.00218773                0.85695870                1.75832155
              14.58446944                6.85969423               40.62238791                0.82335491                0.49110488                0.55404912               -1.75990752                0.01027896                0.03120314               -0.51998390
               4.82594210               10.41759226               41.10076670                0.93771879                0.07852294                0.01119680               -0.10050879               -0.02704034               -0.01260673                0.69262870
               5.82672733               10.17493286               40.91149252                0.44707469                0.12038937                0.14096480               -0.42227444               -0.00255295                0.01973128               -0.64300975
               6.82834988                9.93172606               40.72272840                0.00010000                0.12644687                0.26365389               -0.75665413               -0.63767948               12.07483246               -1.56442458
               7.82925626                9.67512204               40.77428731                0.00010000                0.05223351                0.37730216               -0.92505976               -0.92896515               24.00903915               -0.31787006
               8.82939455                9.41287435               40.81902823                0.00010000               -0.08432512                0.52343090               -1.16865924               -0.95855145               23.96778331                0.27288181
               9.82756976                9.14752588               40.86367352                0.00010000               -0.30356194                0.67509699               -1.44830282               -1.10098495               24.55285393                0.75505168
              10.82332331                8.87860051               40.91418598                0.00010000               -0.56322582                0.79651443               -1.72577292               -1.57245654               25.74359639                1.34846316
              11.81630524                8.60451335               40.97661697                0.00010000               -0.70168137                0.82011114               -1.90397673               -2.27430058               27.75830516                2.24474208
              12.80928969                8.33246949               41.06120554                0.13580636               -0.13942713                0.31317992               -1.34284498               -1.87779748               14.78320909                3.13977715
              13.81351670                8.09852524               40.85877889                0.34002290                0.46312891                0.39146134               -1.45373395               -0.04586441                0.22023540                1.16609927
              14.81855227                7.86545469               40.65064562                0.81760998                0.50355641                0.58600666               -1.89479672                0.00786007               -0.01917926               -0.75542719
               5.06769451               11.41803551               41.04172486                0.98107547                0.13186627                0.04432506               -0.27223466                0.02568223                0.37634940                0.60245443
               6.06901317               11.17653992               40.84877380                0.77432940                0.17791181                0.16070601               -0.59302203                0.04615578                0.77126749               -0.51871155
               7.07125274               10.93438693               40.66353931                0.44255536                0.63917639                0.26608755               -0.92061312               -0.64610993               13.91248247               -0.92200828
               8.08179670               10.67781200               40.73309763                0.31614952                0.77407961                0.26899513               -1.11997447               -0.56673462               26.51319179               -0.25140052
               9.08673434               10.41797137               40.79123226                0.30594968                0.29103697                0.50970213               -1.35448887               -0.41697882               26.25162555                0.08352989
              10.08761744               10.15479285               40.84865102                0.31697906               -0.11573531                0.72669693               -1.62710270               -0.49393085               26.86715204                0.36286899
              11.08441963                9.88799739               40.91254690                0.34852283               -0.72082675                0.93968855               -1.89454350               -0.74712522               28.25823315                0.70349591
              12.07320090                9.61765772               40.99060423                0.48033535               -2.07958502                1.31443651               -2.05938513               -1.87698042               30.24503275                1.23551133
              13.04282793                9.33666647               41.08639833                0.60153143               -1.37724986                0.41969771               -1.37762302               -2.38814590               16.87840058                1.32574117
              14.04565591                9.10281832               40.89108120                0.69102709                0.39699075                0.42930761               -1.50144354               -0.04868486                1.49011977                0.81957765
              15.05076775                8.87141436               40.67879644                0.91071801                0.51118391                0.59596761               -1.99476270                0.08115267                0.68740230               -0.71090824
               2.68412702                1.50776278               42.59692136                1.00000000               -0.38108162               -0.42554287                1.46461497               -0.07571171               -1.12462568                1.08156531
               3.68031621                1.24016749               42.46796148                1.00000000               -0.32227732               -0.30554455                1.09266202               -0.04418682               -1.51227325                0.17733636
               4.67768148                0.97208041               42.33156239                1.00000000               -0.20333707               -0.18978872                0.69051981               -0.04708512               -1.53831975               -0.21187675
               5.67624946                0.70319587               42.20224242                0.64908156               -0.05024963               -0.08104253                0.29275585               -0.30427719               -0.96706710               -0.97596063
               6.67667648                0.42810255               42.07736490                0.65937644                0.25852934               -0.10665893               -0.24190070               -0.07308586               -0.55511985                0.24515152
               7.68142005                0.14890138               41.95735648                0.68987835                0.54904638                0.06028039               -0.61363051               -0.11468379               -0.22785478                0.08680831
               8.68765741               -0.12800076               41.83801632                0.66984781                0.67075974                0.13377679               -0.82689857               -0.05055930                0.05866263               -0.15059806
               9.69483525               -0.40112301               41.72155797                0.78069400                0.61005040                0.17017014               -0.84343217               -0.08705873               -0.04297705                0.07775168
              10.69985842               -0.67057325               41.59732650                1.00000000                0.43482420                0.24482172               -0.92126576               -0.07353478               -0.61645203                0.67637058
              11.70353173               -0.93848032               41.46794531                1.00000000                0.38053021                0.33259677               -1.13255172               -0.03893648               -0.83258577                0.05567462
              12.70746902               -1.20613086               41.33908122                1.00000000                0.39372928                0.42212084               -1.39640831               -0.03151621               -0.79822759               -0.77895754
               2.95096519                2.50350735               42.54006306                1.00000000               -0.32496718               -0.41409249                1.29395061               -0.01417902               -0.23121244                1.46323615
               3.94771552                2.23711204               42.41108141                1.00000000               -0.26343783               -0.28191939                0.92451092                0.01439746               -0.35568136                0.25584638
               4.94569644                1.97018252               42.27982951                1.00000000               -0.12599482               -0.16056643                0.53001947               -0.00905955               -0.28736303               -0.41590900
               5.94519562                1.70238544               42.15213491                0.32397115                0.36982168               -0.04361868                0.15496477               -0.38711128                1.20804862               -1.31341341
               6.95309287                1.42703596               42.05037458                0.36931296                0.65646219               -0.12576197               -0.34401412               -0.07762499                2.22660853                0.70346695
               7.95832487                1.14950418               41.94056254                0.41331890                0.45355711                0.09777983               -0.68606381               -0.11577275                1.88012231                0.31747589
               8.96216401                0.87333700               41.83027959                0.34913045                0.34630170                0.21919426               -0.87035367               -0.06753842                2.23525187               -0.41716986
               9.96525090                0.60057869               41.72643482                0.47050610                0.28188559                0.24497776               -0.84683127               -0.08806245                2.31298212                0.40848600
              10.96780172                0.33187497               41.61731249                1.00000000                0.28351347                0.25811192               -0.89732286               -0.05530159                1.15716668                0.86826325
              11.97092117                0.06484565               41.49047507                1.00000000                0.35013410                0.33271770               -1.14924698                0.00363353                0.17554583                0.21062413
              12.97480440               -0.20190965               41.36185812                1.00000000                0.38832339                0.42495579               -1.41379263                0.01267913                0.07995732               -0.90220733
               3.21663405                3.49948093               42.49125459                1.00000000               -0.27050711               -0.39494821                1.13734148               -0.00912270                0.01692085                1.84195764
               4.21392898                3.23452910               42.35592681                1.00000000               -0.22035817               -0.23572305                0.76862520                0.00952111                0.17603756                0.26952595
               5.21222689                2.96886908               42.22393538                0.79676756               -0.11375876               -0.08411969                0.38168078               -0.03762890                0.49130770               -1.07877930
               6.21165380                2.70232349               42.09479340                0.00495895                0.78891786                0.00712626               -0.02958572               -0.55893949                3.96975655               -1.82699212
               7.22800524                2.42558731               42.03203733                0.00010000                1.05748720               -0.15166310               -0.59147347               -1.26529500                5.50508119               -0.98315329
               8.23280355                2.15085697               41.92770199                0.00010000                0.36134442                0.04840583               -0.85526807               -1.17260920                3.20028216               -0.03874886
               9.23523213                1.87638312               41.81655563                0.00010000                0.08662431                0.16391345               -1.04061827               -1.03688390                4.51419859                0.63499307
              10.23453603                1.60377654               41.73763889                0.00010000               -0.03733535                0.14934563               -0.94142725               -0.67850515                5.16069896                0.94995007
              11.23448543                1.33458899               41.64108291                0.45622466                0.14264936                0.21091186               -0.89384972               -0.25539631                2.76245199                1.72088930
              12.23738902                1.06817404               41.51607175                1.00000000                0.33738937                0.32047563               -1.16543685               -0.04250178                0.87136921                0.78307351
              13.24123321                0.80236825               41.38216843                1.00000000                0.38441913                0.42982335               -1.40972911                0.00468184                0.40685398               -0.86161713
               3.48068639                4.49560838               42.44235216                1.00000000               -0.21686020               -0.37420577                0.97891234               -0.01793149                0.12621184                1.67108172
               4.47851779                4.23239758               42.29944077                1.00000000               -0.17684617               -0.18288955                0.61175949               -0.00149460                0.23611980                0.05857868
               5.47714947                3.96850013               42.15884108                0.40096785               -0.06095895               -0.00536009                0.26391703               -0.10610153                1.14029568               -1.58212818
               6.47729861                3.70252797               42.03389678                0.00010000                0.10520116                0.08440398               -0.13122072               -0.79632933                5.07442368               -2.42703173
               7.47925349                3.42400270               41.97165626                0.00010000                0.33891302                0.00379357               -0.54640584               -2.05896000                8.02005392               -2.07579749
               8.48407687                3.15047230               41.90290451                0.00010000                0.46266369               -0.03134601               -0.87609206               -2.01972060                7.53712719               -0.16677726
               9.48850676                2.87661527               41.82840173                0.00010000                0.46990320               -0.03783555               -1.09235587               -1.93887804                7.24133261                1.69559110
              10.49347493                2.60356560               41.75227462                0.00010000                0.48947701               -0.08969271               -1.20395953               -1.32540709                7.27859152                1.68534391
              11.49829630                2.33609320               41.67827604                0.00458573                0.44084689               -0.14126190               -0.92814258               -0.52981178                4.60242093                2.06071449
              12.50229187                2.07125516               41.55026096                0.69710508                0.41066522                0.14846470               -1.22900635               -0.13206792                1.07843842                1.90323440
              13.50650961                1.80668681               41.40604206                1.00000000                0.42177372                0.38003218               -1.43664288               -0.03687352                0.23731215                0.00191850
               3.74269702                5.49199681               42.39044769                1.00000000               -0.16896818               -0.33878131                0.80798241               -0.03625255                0.23478693                1.33602265
               4.74100734                5.23087131               42.24009726                0.72345869               -0.13612753               -0.10830651                0.44694620               -0.03767742                0.37469651               -0.36168392
               5.73997447                4.96876188               42.09261273                0.14278845               -0.03913450                0.09018061                0.09989267               -0.18455181                1.46583122               -1.87801653
               6.74022465                4.70401157               41.96394505                0.00010000               -0.05463793                0.15957673               -0.25584049               -1.04720576                7.17261597               -2.13163478
               7.73888171                4.42566318               41.93029993                0.00010000               -0.02140469                0.19482110               -0.57103572               -1.81504916               11.48536418               -0.49444420
               8.73979656                4.15023005               41.88523605                0.00010000                0.22397762                0.05398392               -0.92233047               -1.89533124               10.65553122                0.58451850
               9.74336127                3.87562641               41.83271520                0.00010000                0.43767023               -0.05699003               -1.22110848               -1.92151540               10.12915949                1.61889976
              10.74854996                3.60198269               41.77514696                0.00010000                0.64191814               -0.16964706               -1.45468858               -1.68580753                9.53866094                2.39582170
              11.75619963                3.33176375               41.70965511                0.00010000                0.78020463               -0.41965843               -1.81697783               -0.79069545                6.83100296                2.55453392
              12.76415405                3.07114333               41.59868684                0.39452210                0.67164063               -0.12753545               -1.23711731               -0.06821762                2.30162242                3.00989608
              13.76963244                2.80996890               41.44422491                0.88200036                0.54783870                0.25989649               -1.41086239               -0.01628261                0.12371820                1.03891790
               4.00221234                6.48883276               42.33509518                1.00000000               -0.12131704               -0.28222663                0.62704451               -0.03869089                0.10838794                1.01814462
               5.00099917                6.23023145               42.17513827                0.51369954               -0.09470867               -0.02760943                0.25377976               -0.05647273                0.41039234               -0.73017107
               6.00031817                5.97030374               42.02125585                0.02816711               -0.07729882                0.21486589               -0.08950385               -0.31591558                2.76493401               -2.35802495
               6.99945319                5.70571950               41.90827492                0.00010000               -0.17920708                0.05454957               -0.13292506               -1.36664685               10.08128978                0.48974759
               7.99673403                5.42789912               41.90021322                0.00010000               -0.16230915                0.24276652               -0.60709496               -2.01003022               14.57604027                0.50521722
               8.99620701                5.15155197               41.87402627                0.00010000                0.07948964                0.18047941               -1.00486831               -2.01934082               13.47957334                1.22000200
               9.99832382                4.87547547               41.84144173                0.00010000                0.37072160                0.04112479               -1.37331629               -2.08199662               12.96504187                2.12344173
              11.00362144                4.60017266               41.80268124                0.00010000                0.74989669               -0.14708519               -1.77399822               -1.93195678               12.25025440                3.06589280
              12.01332175                4.32770004               41.75410523                0.00010000                0.95504642               -0.43755744               -2.26123410               -0.98163761                9.28801046                4.05731328
              13.02272237                4.06870445               41.65634699                0.33661568                0.76055350               -0.18526089               -1.24169008               -0.11327008                3.39534775                3.23145518
              14.02853282                3.81188474               41.49107909                0.84131504                0.58104507                0.22342581               -1.42420948               -0.00529836                0.03575906                1.12346929
               4.25912582                7.48635228               42.27704422                0.96713952               -0.07189132               -0.20984064                0.44085787               -0.03282148                0.03607615                0.82316402
               5.25840690                7.23031912               42.10822726                0.40477300               -0.04788517                0.03272728                0.07136282               -0.04339365                0.31042441               -0.83580559
               6.25816811                6.97305920               41.94489075                0.00010000               -0.15552822                0.30328059               -0.28768754               -0.58620071                6.05590217               -2.67977535
               7.25529634                6.70510256               41.89086917                0.00010000               -0.26597385                0.05764612               -0.11444425               -1.54663556               13.68262253                1.56740325
               8.25284864                6.43051851               41.87798451                0.00010000               -0.17314765                0.29092074               -0.69454545               -1.96063261               16.03650692                1.05830375
               9.25183339                6.15383964               41.86805169                0.00010000                0.01260062                0.28091091               -1.11563376               -2.13432058               16.17029746                1.62038548
              10.25310065                5.87644891               41.85504461                0.00010000                0.29264396                0.15710638               -1.52878889               -2.25115777               15.95150403                2.54926436
              11.25768626                5.59904098               41.83817106                0.00010000                0.74672179               -0.04514025               -2.02604328               -2.28477064               15.47362830                3.82228421
              12.26803508                5.32301260               41.81340209                0.00010000                1.00088410               -0.42624193               -2.73765358               -1.22654079               11.25518904                5.61612253
              13.27770395                5.06743811               41.71085344                0.30889190                0.75654063               -0.02941313               -1.30750299               -0.10760223                3.69267307                2.76421510
              14.28316590                4.81443741               41.53468133                0.82211093                0.54619498                0.32496232               -1.53598158               -0.00281051                0.03484219                0.52015440
               4.51362223                8.48463594               42.21794898                0.95831711               -0.01978477               -0.13421016                0.25726005               -0.02975895                0.00877080                0.75636519
               5.51342438                8.23088600               42.04091214                0.36856247                0.00942425                0.07669160               -0.10767796               -0.01561552                0.13608762               -0.83400482
               6.51381071                7.97636935               41.86636997                0.00010000               -0.11816036                0.32456394               -0.47581640               -0.73554491                8.52793044               -2.73413660
               7.51106117                7.70687242               41.85700201                0.00010000               -0.25132072                0.30040293               -0.49515837               -1.55641486               17.47812453                0.20090230
               8.50878430                7.43371753               41.85832039                0.00010000               -0.17354851                0.38735038               -0.86055647               -1.83576235               18.41708019                0.99295928
               9.50759020                7.15717019               41.86412461                0.00010000               -0.03424890                0.39891443               -1.25410890               -2.08968257               18.90154568                1.67325802
              10.50809932                6.87861760               41.87167527                0.00010000                0.18860674                0.29198542               -1.66212305               -2.31737514               19.19468583                2.67945588
              11.51136234                6.59926986               41.88036798                0.00010000                0.61472450                0.08933251               -2.17315776               -2.55024152               19.33986840                4.23801479
              12.52039381                6.31917520               41.88825151                0.01052467                0.88915897               -0.24456775               -3.09276543               -1.40765072               12.66731312                6.92618440
              13.52914552                6.06811619               41.76002787                0.29948012                0.70421010                0.15747548               -1.41355670               -0.04998219                2.98383660                2.24053735
              14.53447801                5.81838399               41.57223626                0.81291806                0.53324954                0.46127540               -1.71494581                0.01072183                0.04168100               -0.12601460
               4.76603053                9.48366808               42.15867298                0.94933723                0.03306527               -0.05961587                0.07273921               -0.02785479                0.00045578                0.75979603
               5.76636118                9.23185295               41.97378199                0.39327778                0.07201290                0.11547226               -0.28318957                0.00049638               -0.03193858               -0.78958902
               6.76747079                8.97955048               41.78814356                0.00010000                0.02293392                0.30125170               -0.65443155               -0.76155941               10.39645354               -2.43905837
               7.76681986                8.71111062               41.81156919                0.00010000               -0.08175851                0.44438244               -0.78163982               -1.47189357               21.03107642               -0.43818049
               8.76583562                8.43826552               41.83433725                0.00010000               -0.08400985                0.47344998               -1.07401683               -1.59664221               21.30727302                0.59811724
               9.76513967                8.16181793               41.85864822                0.00010000               -0.05910680                0.53002402               -1.41376058               -1.81479841               21.82203893                1.36649022
              10.76465348                7.88228862               41.88714062                0.00010000                0.04920864                0.51079033               -1.78168106               -2.15702148               22.62531589                2.33109730
              11.76612384                7.60082763               41.92351165                0.00010000                0.31911256                0.26608693               -2.17080373               -2.67687648               23.88606781                3.85741730
              12.77103573                7.31812125               41.97392614                0.05013603                0.56858366                0.07035270               -2.73670681               -1.63026480               13.86683954                6.77382783
              13.77749551                7.07058762               41.80405756                0.30449123                0.59045015                0.31982553               -1.52332959               -0.02320230                1.49502628                1.78530785
              14.78284474                6.82366292               41.60415804                0.81061244                0.53492260                0.56978161               -1.90800075                0.01792709                0.04174747               -0.66734015
               5.01669538               10.48344363               42.09971440                0.93320543                0.08565303                0.01254249               -0.10933507               -0.02772064               -0.01220817                0.68272453
               6.01755191               10.23319544               41.90709004                0.44167043                0.13132396                0.15414228               -0.46097994               -0.00126392                0.01545022               -0.64216535
               7.01932185                9.98239439               41.71487196                0.00010000                0.26781773                0.28585029               -0.81969188               -0.75557452               12.14938512               -1.54596427
               8.02290826                9.71576007               41.76460857                0.00010000                0.34111457                0.31252417               -1.01169912               -1.06272388               24.14901374               -0.34708926
               9.02614415                9.44318653               41.80677827                0.00010000                0.21814371                0.46158178               -1.27733644               -1.03077360               24.06407772                0.26454464
              10.02727113                9.16777067               41.84844937                0.00010000               -0.00974812                0.62801397               -1.58915023               -1.10757535               24.62865627                0.76738964
              11.02594918                8.88883341               41.89599228                0.00010000               -0.26394793                0.77007255               -1.91089489               -1.50939416               25.85999757                1.39299529
              12.02199218                8.60459159               41.95661195                0.00010000               -0.39603288                0.81266873               -2.14381891               -2.19933110               28.25379050                2.41392165
              13.01802853                8.32058225               42.04604888                0.11360685                0.05738099                0.39435487               -1.78410171               -1.85688150               15.43134420                3.78867575
              14.02313980                8.07451270               41.84355898                0.32423755                0.53287145                0.43421831               -1.60132282               -0.06835478                0.43908139                1.21845249
              15.02868596                7.82977962               41.63088536                0.80620063                0.55461594                0.63190730               -2.08239908                0.01211261               -0.01301088               -0.86796096
               5.26597249               11.48391893               42.03891303                0.97916367                0.14126579                0.04752981               -0.28932352                0.02939855                0.36982993                0.59334299
               6.26738515               11.23493580               41.84263016                0.77254974                0.19110912                0.17403562               -0.63829090                0.05075179                0.76255725               -0.51613130
               7.26979467               10.98526748               41.65400816                0.44002234                0.86940473                0.28730949               -0.99129708               -0.83145316               13.96700161               -0.90266256
               8.28477324               10.71736111               41.72145449                0.31618039                1.17074377                0.16010338               -1.20872763               -0.70201854               26.63876175               -0.27031184
               9.29320955               10.44749715               41.77709369                0.30605626                0.62840213                0.43106204               -1.46866629               -0.44260494               26.34904375                0.07608099
              10.29734128               10.17437821               41.83159898                0.31675938                0.22175668                0.66075352               -1.77513034               -0.48333949               26.94118289                0.36786096
              11.29764468                9.89769007               41.89263253                0.34755106               -0.34764550                0.88566589               -2.08588368               -0.69531044               28.39783021                0.73505752
              12.29038837                9.61708101               41.96955497                0.46929441               -1.68338413                1.24894155               -2.22494200               -1.74446649               30.82715393                1.35278116
              13.26397700                9.32600834               42.07114543                0.58946289               -1.17286634                0.54260928               -1.74508171               -2.29560406               17.68610766                1.58967658
              14.26693105                9.07927199               41.87536060                0.68367566                0.42880770                0.47592864               -1.65704068               -0.10623888                1.74692831                0.88412261
              15.27255315                8.83630107               41.65795947                0.90513111                0.56221046                0.65214458               -2.19830893                0.08962739                0.72357219               -0.78641849
               2.80352267                1.57638209               43.61191819                1.00000000               -0.39949833               -0.44908769                1.54469674               -0.08290620               -1.15706372                1.09959261
               3.79952768                1.29969416               43.47903349                1.00000000               -0.33703292               -0.31414156                1.12638116               -0.04745172               -1.56561962                0.18386156
               4.79678201                1.02248215               43.33840325                1.00000000               -0.21328821               -0.18506089                0.67881456               -0.05171231               -1.61179936               -0.21208979
               5.79526192                0.74419163               43.20488299                0.65368823               -0.08888221               -0.05285998                0.23249716               -0.37887086               -1.11907305               -0.97707161
               6.79500437                0.45795655               43.07438248                0.66263961                0.24486427               -0.07295767               -0.35263546               -0.09542267               -0.72915208                0.22948576
               7.80015921                0.16675302               42.95044550                0.68624428                0.62422501                0.10114456               -0.77075392               -0.13189431               -0.25889072                0.05615879
               8.80748887               -0.12180779               42.82891945                0.65587902                0.80291314                0.17394843               -1.00515405               -0.04354453                0.22065513               -0.20530140
               9.81621747               -0.40535736               42.71258956                0.76053976                0.72814756                0.18835454               -0.96290128               -0.08862241                0.22794613                0.03923880
              10.82205182               -0.68381694               42.58790864                1.00000000                0.48301810                0.24691505               -0.95954022               -0.07705999               -0.43260034                0.69831884
              11.82587783               -0.96031136               42.45648338                1.00000000                0.39246458                0.33392056               -1.15964341               -0.03744425               -0.75778770                0.06590073
              12.82990111               -1.23637930               42.32500306                1.00000000                0.40232776                0.42241209               -1.42193005               -0.03798793               -0.75150489               -0.73406555
               3.07938153                2.57189121               43.55330682                1.00000000               -0.33783963               -0.43666234                1.36351410               -0.01369996               -0.24900271                1.48239569
               4.07600314                2.29655275               43.42042397                1.00000000               -0.26826894               -0.28969419                0.94754323                0.01741060               -0.38925470                0.26670155
               5.07401615                2.02063155               43.28503510                1.00000000               -0.11335613               -0.15519335                0.50876411               -0.00850556               -0.32443747               -0.41017633
               6.07373601                1.74366303               43.15340214                0.33555306                0.43766456               -0.01492826                0.08894531               -0.47766585                1.11354204               -1.33210769
               7.08276944                1.45722697               43.04632711                0.37556111                0.74932092               -0.11448773               -0.47506674               -0.13264231                2.11958468                0.62733172
               8.08872243                1.16776446               42.93288957                0.40849821                0.51695837                0.14569045               -0.86595524               -0.16184880                1.92628324                0.24558333
               9.09310861                0.87993170               42.82074471                0.33473635                0.38066946                0.28340356               -1.06478669               -0.08142297                2.48825346               -0.53064273
              10.09633582                0.59652618               42.71754264                0.44930781                0.28248006                0.28864664               -0.95165827               -0.10592885                2.64196759                0.32205730
              11.09875821                0.31865221               42.60839131                1.00000000                0.27243725                0.25462943               -0.88019566               -0.07097865                1.31108962                0.87763193
              12.10178457                0.04302785               42.47906971                1.00000000                0.34154772                0.32747046               -1.12793820                0.00384801                0.19382326                0.22003734
              13.10558917               -0.23215518               42.34782887                1.00000000                0.38046014                0.41776931               -1.39088691                0.00588789                0.08883542               -0.84506432
               3.35392560                3.56764884               43.50288041                1.00000000               -0.27900333               -0.41472596                1.19452318               -0.00987058                0.00893844                1.86173652
               4.35113557                3.29390028               43.36366069                1.00000000               -0.22119912               -0.24012954                0.77997212                0.00870262                0.15664663                0.28424804
               5.34950162                3.01937829               43.22758796                0.80772105               -0.10111956               -0.07345111                0.34657167               -0.04406900                0.45282902               -1.05067460
               6.34911317                2.74389307               43.09414663                0.00408347                0.93742346                0.03933634               -0.10542304               -0.69897783                3.83819157               -1.82438234
               7.36825009                2.45566680               43.02537215                0.00010000                1.25521663               -0.11921995               -0.75622375               -1.51163579                5.40761344               -0.96365721
               8.37421751                2.16966683               42.91814294                0.00010000                0.44243021                0.14490265               -1.08630383               -1.38589787                3.30754562               -0.04810824
               9.37709869                1.88386028               42.80504243                0.00010000                0.05804357                0.30528124               -1.30842843               -1.22585999                4.84725391                0.57195205
              10.37537838                1.60041557               42.72764895                0.00010000               -0.14840569                0.27818718               -1.10605465               -0.80960234                5.61683991                0.78105140
              11.37413058                1.32127565               42.63245548                0.43516852                0.06918991                0.18344303               -0.82052447               -0.32918646                2.93825724                1.69287973
              12.37676218                1.04623805               42.50472134                1.00000000                0.31271683                0.30281303               -1.09767013               -0.04404093                0.85091887                0.76499010
              13.38038491                0.77197609               42.36840772                1.00000000                0.36227362                0.40680907               -1.33773162               -0.00159149                0.39760243               -0.80956435
               3.62668125                4.56359669               43.45234050                1.00000000               -0.22335020               -0.38994535                1.02365437               -0.01958267                0.12492584                1.67993085
               4.62444775                4.29175016               43.30555849                1.00000000               -0.17696295               -0.18194405                0.61228886               -0.00360709                0.24224069                0.06853599
               5.62314199                4.01916252               43.16126902                0.39359419               -0.04898991                0.01194066                0.21694464               -0.11306600                1.13266701               -1.55629160
               6.62346795                3.74444976               43.03215769                0.00010000                0.18104890                0.12166574               -0.22546702               -0.92386317                5.03743213               -2.38384022
               7.62676297                3.45484258               42.96555986                0.00010000                0.46715196                0.08107796               -0.68610601               -2.35356118                8.01382801               -1.89825788
               8.63281099                3.17066252               42.89337897                0.00010000                0.55398527                0.08422634               -1.04819005               -2.30261625                7.62421779               -0.04466592
               9.63784267                2.88603732               42.81676747                0.00010000                0.49587116                0.11123754               -1.25864574               -2.21254978                7.43044896                1.75297904
              10.64272841                2.60208992               42.73986955                0.00010000                0.42546641                0.04809426               -1.29453882               -1.60372746                7.70843575                1.53753295
              11.64635200                2.32232107               42.66947751                0.00010000                0.37374480               -0.07868348               -0.82426694               -0.65927493                4.83349386                1.55378365
              12.65020331                2.04908411               42.53847144                0.63975027                0.38646303                0.10228310               -1.11997335               -0.11885956                1.02250587                1.87995561
              13.65408126                1.77598101               42.39222553                1.00000000                0.38779550                0.30338905               -1.31792249               -0.02120393                0.22346101                0.05769934
               3.89722702                5.55984994               43.39867695                1.00000000               -0.17294231               -0.35099895                0.84141805               -0.03875348                0.24149900                1.33202416
               4.89549760                5.29026140               43.24452475                0.70896980               -0.13431609               -0.10105565                0.43793485               -0.04161727                0.38703068               -0.36841128
               5.89454070                5.01961710               43.09337377                0.13264990               -0.02708685                0.11396250                0.04789395               -0.19210054                1.48186776               -1.88201941
               6.89495586                4.74632638               42.96095226                0.00010000                0.02127027                0.17567862               -0.35464684               -1.15624877                7.21373454               -1.95041405
               7.89496610                4.45728836               42.92406070                0.00010000                0.10072883                0.26072654               -0.68741610               -2.00879227               11.53986165               -0.33835701
               8.89697044                4.17135135               42.87540948                0.00010000                0.32270925                0.13184863               -1.05382988               -2.08469881               10.71351137                0.71290215
               9.90142029                3.88608504               42.81998123                0.00010000                0.50248224                0.02154921               -1.33419346               -2.11447080               10.24228549                1.66054747
              10.90702008                3.60137745               42.76040763                0.00010000                0.62653028               -0.09741777               -1.49249876               -1.88014768                9.60336714                2.24947887
              11.91395089                3.31970198               42.69176253                0.00010000                0.68524851               -0.26687630               -1.73534581               -0.93844374                7.23269984                1.93451563
              12.92072505                3.04828371               42.58693887                0.35220786                0.61080732               -0.19931780               -1.10476000               -0.14062065                2.68653720                2.99802155
              13.92616704                2.77804387               42.43078748                0.84855275                0.54419890                0.09805384               -1.27135504                0.02271131                0.11677174                1.05617742
               4.16508325                6.55657672               43.34147031                1.00000000               -0.12350159               -0.29163934                0.65072800               -0.03983641                0.10275397                1.00645314
               5.16384824                6.28972905               43.17760224                0.49788223               -0.09241279               -0.01578017                0.23755927               -0.06126961                0.41910750               -0.74333508
               6.16323500                6.02144177               43.02011531                0.01957170               -0.05882602                0.24827489               -0.14461568               -0.35358602                2.95230301               -2.37506772
               7.16267172                5.74796333               42.90675963                0.00010000               -0.08364251                0.05004772               -0.18923300               -1.44837304               10.22796181                0.71977169
               8.16156215                5.46005711               42.89364432                0.00010000               -0.01756927                0.28694474               -0.71058092               -2.15198754               14.53390003                0.64939390
               9.16232033                5.17329949               42.86345331                0.00010000                0.19825052                0.23236225               -1.11516233               -2.17644804               13.50456759                1.33362316
              10.16552716                4.88646831               42.82723578                0.00010000                0.45940905                0.08551142               -1.46644571               -2.25006465               12.99058339                2.16780229
              11.17150851                4.60014157               42.78470786                0.00010000                0.75748539               -0.10203116               -1.80534123               -2.06621376               12.21188430                2.93673367
              12.18067687                4.31698355               42.73195546                0.00010000                0.87702441               -0.33763051               -2.13490761               -1.16122245                9.86413845                3.68776000
              13.18904900                4.04509775               42.64438404                0.30439113                0.71691535               -0.23776237               -1.14924534               -0.23410394                3.99068838                3.19270831
              14.19501517                3.77794208               42.47726431                0.81722268                0.59661715                0.04997128               -1.34600081                0.01529367                0.02813472                1.01303006
               4.43012563                7.55401715               43.28151946                0.96598856               -0.07184856               -0.21662711                0.45641543               -0.03365297                0.03265415                0.81069691
               5.42940715                7.28994580               43.10883712                0.39068055               -0.04454701                0.04586472                0.04913317               -0.04516090                0.31186673               -0.84045222
               6.42923469                7.02458260               42.94174427                0.00010000               -0.10170407                0.34292984               -0.34730433               -0.64962400                6.32540975               -2.69311327
               7.42737306                6.74732733               42.88917832                0.00010000               -0.13222499                0.07619621               -0.22226270               -1.61939149               13.86688243                1.56377690
               8.42659019                6.46302725               42.87058800                0.00010000               -0.01713952                0.32034471               -0.79400025               -2.07393537               15.95575950                1.14158956
               9.42703027                6.17599860               42.85637170                0.00010000                0.14933618                0.31531076               -1.22088613               -2.27810545               16.17975732                1.71066980
              10.42957692                5.88779526               42.83921158                0.00010000                0.40751459                0.19242365               -1.63043996               -2.40934004               15.93078263                2.60550256
              11.43518057                5.59933683               42.81741411                0.00010000                0.80966723               -0.01369146               -2.09761700               -2.39166968               15.30861335                3.78297677
              12.44577026                5.31294937               42.78598632                0.00010000                0.99519337               -0.38848850               -2.67520368               -1.37670551               11.97610643                5.25649871
              13.45508443                5.04352847               42.69787350                0.28233178                0.75069958               -0.03865572               -1.29282620               -0.22493934                4.53380705                2.69838345
              14.46078425                4.77904330               42.51928855                0.80281899                0.56998183                0.22173075               -1.56223621                0.00941472                0.03510656                0.31100326
               4.69255290                8.55224417               43.22055353                0.95764862               -0.01733305               -0.13875405                0.26545902               -0.03068477                0.00694392                0.74466246
               5.69237957                8.29064634               43.03970123                0.35700266                0.01540383                0.09025701               -0.13614079               -0.01311340                0.13274456               -0.83424987
               6.69286098                8.02830037               42.86131879                0.00010000               -0.02701685                0.36240513               -0.53974288               -0.80281911                8.69892826               -2.73425470
               7.69183923                7.74948725               42.85157932                0.00010000               -0.07244019                0.32842254               -0.60028351               -1.66286559               17.68891065                0.07277003
               8.69141217                7.46646400               42.84921184                0.00010000                0.00754873                0.39899850               -0.96268881               -1.95480521               18.46378105                1.01241796
               9.69199021                7.17960571               42.85102281                0.00010000                0.12949756                0.41486802               -1.36375445               -2.20883926               18.93773633                1.73456894
              10.69400213                6.89031678               42.85436597                0.00010000                0.32654020                0.32883898               -1.78920369               -2.44078825               19.17108293                2.74561091
              11.69852101                6.59986774               42.85764686                0.00010000                0.74744964                0.14115206               -2.34311586               -2.63959180               19.03352257                4.31461854
              12.70895112                6.30921378               42.85560375                0.00010000                0.99676362               -0.24336556               -3.31543622               -1.50633569               13.47572313                6.95973015
              13.71845629                6.04432464               42.74560977                0.27762078                0.76113435                0.18178340               -1.47679775               -0.13472482                4.05905494                2.18273123
              14.72417381                5.78237670               42.55458968                0.79762836                0.57175200                0.43275172               -1.83960027                0.02116471                0.04948949               -0.35980016
               4.95270760                9.55124207               43.15939388                0.94394233                0.03810779               -0.06187380                0.07327045               -0.02942659                0.00303845                0.74864547
               5.95308868                9.29175094               42.97078406                0.38431283                0.08148952                0.12975204               -0.31850653                0.00439136               -0.03642773               -0.78873223
               6.95433739                9.03183070               42.78128564                0.00010000                0.14317202                0.33208963               -0.72258395               -0.84485328               10.50956234               -2.42463284
               7.95595212                8.75389579               42.80329054                0.00010000                0.15191210                0.44038552               -0.87767110               -1.61662429               21.21820762               -0.49254519
               8.95737564                8.47100722               42.82308972                0.00010000                0.15242937                0.44723998               -1.17485870               -1.70883486               21.41465370                0.59670668
               9.95900071                8.18429596               42.84389487                0.00010000                0.15617396                0.51586062               -1.53133465               -1.88482549               21.89979094                1.39997053
              10.96049912                7.89437204               42.86849003                0.00010000                0.22455122                0.53258670               -1.93923900               -2.18887659               22.66290506                2.39270877
              11.96349173                7.60215987               42.90039380                0.00010000                0.53437659                0.34403641               -2.43619099               -2.67432751               23.71680308                4.03334302
              12.97118665                7.30808206               42.94297050                0.03053608                0.78676398                0.09049697               -3.43901384               -1.64886572               14.64096977                7.60895735
              13.97922701                7.04716413               42.78823948                0.28666729                0.69583892                0.36333045               -1.64864852               -0.06890807                2.46363496                1.76782875
              14.98510343                6.78769833               42.58422790                0.79818851                0.58764121                0.59586708               -2.10592676                0.02669424                0.05721844               -0.87232413
               5.21094664               10.55100670               43.09858000                0.92843879                0.09321312                0.01315154               -0.11659002               -0.02907001               -0.01287628                0.67301688
               6.21187877               10.29324138               42.90227292                0.43488895                0.14362137                0.16930581               -0.50447197                0.00079815                0.01322932               -0.64058048
               7.21381906               10.03494216               42.70633456                0.00010000                0.42257307                0.31152833               -0.89415096               -0.87576792               12.23286260               -1.52589103
               8.22033023                9.75829496               42.75405333                0.00010000                0.65081197                0.24090653               -1.10059836               -1.19995400               24.31172238               -0.36407132
               9.22683530                9.47540880               42.79348150                0.00010000                0.52993240                0.39274569               -1.37879169               -1.10884833               24.19030300                0.26315551
              10.23092888                9.18992292               42.83189052                0.00010000                0.27626897                0.57774458               -1.71484228               -1.12693662               24.73042997                0.77963762
              11.23236068                8.90096851               42.87596808                0.00010000                0.01977858                0.75230017               -2.08953534               -1.46266606               25.97745568                1.42941593
              12.23132445                8.60674847               42.93374059                0.00010000               -0.06955706                0.83337176               -2.46096886               -2.11027300               28.64875202                2.60602378
              13.23096954                8.31102371               43.02552350                0.09007563                0.30687010                0.50924187               -2.44809110               -1.77997086               16.18773738                4.58980140
              14.23746185                8.05159125               42.82675244                0.30973311                0.63348777                0.48666972               -1.77000331               -0.10881265                0.88012600                1.25102377
              15.24363930                7.79429404               42.60899764                0.79563424                0.61774464                0.69197205               -2.32525896                0.01718077                0.00012815               -1.00629577
               5.46765684               11.55150510               43.03593839                0.97715307                0.15123420                0.04984026               -0.30489706                0.03421542                0.36330996                0.58368159
               6.46916918               11.29513705               42.83600799                0.77016149                0.20558068                0.18956721               -0.68943977                0.05684962                0.75540609               -0.51194069
               7.47176845               11.03806127               42.64371337                0.43722923                1.11586123                0.31191049               -1.07404571               -1.02621799               14.03276909               -0.88291960
               8.49148641               10.75871392               42.70892308                0.31622498                1.59011327                0.04189515               -1.29904713               -0.84433906               26.78983009               -0.28425026
               9.50357072               10.47886213               42.76185893                0.30616621                0.97079294                0.34533344               -1.57500623               -0.46961183               26.47531425                0.06993675
              10.51090226               10.19585085               42.81314841                0.31652118                0.54247635                0.59279339               -1.90668266               -0.47486570               27.04127150                0.36931258
              11.51442024                9.90941805               42.87082923                0.34659795                0.01644047                0.84495330               -2.27163315               -0.64522107               28.55846960                0.75777071
              12.51123107                9.61882731               42.94610539                0.45648286               -1.18378966                1.20788387               -2.53040332               -1.56689510               31.35627039                1.52510498
              13.49074445                9.31826690               43.05149670                0.57622236               -0.87253188                0.72431804               -2.28914127               -2.11899792               18.57934805                1.97613712
              14.49378044                9.05689753               42.85794039                0.67722738                0.46485024                0.53062815               -1.83949293               -0.20459764                2.16826531                0.94225130
              15.50004146                8.80153777               42.63483026                0.90007640                0.62610205                0.72437323               -2.45806282                0.10424026                0.76162959               -0.87214556
               2.92675513                1.64697736               44.62781529                1.00000000               -0.42363865               -0.47843230                1.64488088               -0.09178798               -1.18633010                1.11422863
               3.92251875                1.36106377               44.49048910                1.00000000               -0.35795704               -0.32448939                1.16925951               -0.05178184               -1.61436487                0.18936714
               4.91959599                1.07457492               44.34513868                1.00000000               -0.23149832               -0.17806287                0.66874090               -0.05902868               -1.68107329               -0.21126531
               5.91788878                0.78661614               44.20689236                0.65861145               -0.15325313               -0.01364914                0.16608866               -0.46002757               -1.26611525               -0.97247053
               6.91653093                0.48880301               44.07031219                0.66792789                0.19082420               -0.02100872               -0.45262317               -0.12736654               -0.90563176                0.21282288
               7.92170526                0.18513641               43.94194140                0.68425146                0.66977655                0.15820023               -0.92298661               -0.15524992               -0.30768876                0.02358945
               8.92992646               -0.11575732               43.81791324                0.63779837                0.93498574                0.23584918               -1.20534119               -0.03408582                0.39195524               -0.27902334
               9.94040498               -0.41024441               43.70229994                0.72993743                0.86930629                0.22048503               -1.11587543               -0.08687631                0.56047725               -0.02532050
              10.94731258               -0.69757221               43.57813570                1.00000000                0.54382926                0.24529786               -0.98815703               -0.08614156               -0.19734083                0.72999437
              11.95128156               -0.98233496               43.44475244                1.00000000                0.40434989                0.33433976               -1.18566552               -0.03672905               -0.68063644                0.07627633
              12.95539958               -1.26646381               43.31064262                1.00000000                0.41180199                0.42482026               -1.45583794               -0.04656342               -0.70637286               -0.68880482
               3.21175084                2.64219304               44.56733334                1.00000000               -0.35486954               -0.46476874                1.45091685               -0.01255976               -0.26620188                1.49672388
               4.20820215                2.35781887               44.43003228                1.00000000               -0.27606618               -0.29921113                0.97747512                0.02184375               -0.42157870                0.27576087
               5.20622952                2.07279429               44.29000479                1.00000000               -0.10138431               -0.14766260                0.48358732               -0.00688420               -0.36062311               -0.40342047
               6.20617446                1.78647965               44.15391382                0.34884458                0.48838045                0.02320755                0.00619240               -0.57283535                1.01064586               -1.34090573
               7.21599713                1.48859292               44.04087324                0.38538016                0.81292323               -0.08607963               -0.62083795               -0.20654783                1.98912094                0.54813791
               8.22243292                1.18671841               43.92324344                0.40293156                0.56394420                0.21345003               -1.07682821               -0.22064099                1.96165234                0.16049365
               9.22727601                0.88660118               43.80898386                0.30983824                0.40053674                0.37783604               -1.32180554               -0.10066172                2.80363635               -0.68532996
              10.23044366                0.59196044               43.70740165                0.41217845                0.26102175                0.36575342               -1.11400423               -0.13327983                3.11249759                0.17222672
              11.23249645                0.30488077               43.59970858                1.00000000                0.24582069                0.24662941               -0.84472943               -0.10432073                1.54112252                0.89389861
              12.23536007                0.02100844               43.46791630                1.00000000                0.32831747                0.32035344               -1.09799482                0.00386075                0.21058750                0.22792540
              13.23906280               -0.26221560               43.33404038                1.00000000                0.37027221                0.41220575               -1.36847679               -0.00175776                0.09526889               -0.78535489
               3.49525226                3.63768198               44.51514505                1.00000000               -0.28978928               -0.43912845                1.26555914               -0.01033950                0.00003151                1.87544268
               4.49235436                3.35507955               44.37152625                1.00000000               -0.22273626               -0.24573168                0.79507303                0.00858054                0.13594766                0.29707150
               5.49079753                3.07162167               44.23086682                0.81531256               -0.08604604               -0.06029034                0.30633023               -0.05125863                0.41597796               -1.02217119
               6.49063344                2.78708029               44.09268494                0.00265360                1.06818371                0.07829411               -0.19421534               -0.84791478                3.68532584               -1.81698269
               7.51216121                2.48708141               44.01691285                0.00010000                1.43253710               -0.06219658               -0.94537957               -1.76816162                5.26710229               -0.91484493
               8.51928419                2.18940541               43.90597591                0.00010000                0.52549951                0.27970111               -1.37034009               -1.61806627                3.39077099               -0.01913829
               9.52267120                1.89179940               43.79038706                0.00010000                0.00877990                0.50674366               -1.67383448               -1.44928027                5.24950443                0.54946797
              10.51945978                1.59707066               43.71551780                0.00010000               -0.32465102                0.47985666               -1.41822347               -0.99745349                6.32097374                0.63030796
              11.51617818                1.30736038               43.62467242                0.41060793               -0.05023142                0.14905250               -0.72008246               -0.45653539                3.25418211                1.65181915
              12.51845516                1.02407211               43.49411835                1.00000000                0.28171673                0.28141533               -1.01518191               -0.04730904                0.82080653                0.74051018
              13.52181251                0.74178031               43.35541379                1.00000000                0.33573554                0.38383241               -1.25914054               -0.00878715                0.38469454               -0.75300267
               3.77674893                4.63341047               44.46282525                1.00000000               -0.23148532               -0.40872504                1.07851538               -0.02166595                0.12245765                1.68359428
               4.77443407                4.35290424               44.31168655                1.00000000               -0.17726631               -0.18101094                0.61378031               -0.00626090                0.24503565                0.07795606
               5.77320360                4.07158848               44.16317998                0.38387413               -0.03388272                0.03267675                0.16047864               -0.12359592                1.12068948               -1.52638056
               6.77375642                3.78804553               44.02938744                0.00010000                0.25525867                0.16605308               -0.33749897               -1.05302639                4.99860269               -2.33844295
               7.77830877                3.48734899               43.95793414                0.00010000                0.57985946                0.18650833               -0.85140895               -2.63362855                8.00993670               -1.66654673
               8.78535361                3.19231244               43.88194071                0.00010000                0.61581922                0.25041691               -1.25736861               -2.58754342                7.73282552                0.16617090
               9.79062516                2.89673605               43.80322882                0.00010000                0.47900021                0.32848269               -1.47649073               -2.51086198                7.69187136                1.93356138
              10.79493361                2.60155758               43.72638385                0.00010000                0.28695666                0.25316512               -1.42638779               -1.97490010                8.30924883                1.50230369
              11.79636429                2.30786182               43.66179071                0.00010000                0.25301776                0.03078657               -0.70535167               -0.83883116                5.17221810                1.00621737
              12.79999397                2.02663674               43.52786150                0.57400970                0.35531811                0.05595259               -0.99231262               -0.09980408                0.96086437                1.83570605
              13.80347065                1.74546104               43.37968361                1.00000000                0.34766860                0.21366772               -1.18362281                0.00533822                0.20554830                0.10273415
               4.05583139                5.62950748               44.40727606                1.00000000               -0.17802594               -0.36455774                0.88209294               -0.04208433                0.24673520                1.32470033
               5.05405113                5.35145933               44.24885596                0.69304134               -0.13235325               -0.09259299                0.42763205               -0.04650190                0.39782417               -0.37378158
               6.05318432                5.07227520               44.09357061                0.12385077               -0.01193580                0.14217036               -0.01302914               -0.20273666                1.49282988               -1.87763042
               7.05381241                4.79040135               43.95685211                0.00010000                0.10187032                0.19216706               -0.47667787               -1.23683062                7.26935243               -1.74367398
               8.05522173                4.49081158               43.91655161                0.00010000                0.21669212                0.35053543               -0.82521485               -2.17890154               11.61987291               -0.12938408
               9.05814626                4.19441375               43.86415946                0.00010000                0.39935441                0.24748879               -1.20877999               -2.25446131               10.81307642                0.91028570
              10.06320882                3.89836906               43.80603133                0.00010000                0.53448763                0.14325638               -1.46603420               -2.30120011               10.44175069                1.78160812
              11.06883601                3.60213396               43.74529699                0.00010000                0.55567838                0.01716412               -1.53227185               -2.10935550                9.81318538                2.16311393
              12.07432239                3.30797611               43.67494819                0.00010000                0.50119227               -0.03151891               -1.60938681               -1.11893803                7.74817175                1.31289175
              13.07885985                3.02519116               43.57659164                0.30827211                0.49741450               -0.25063736               -0.95932694               -0.23445669                3.08247029                2.93479565
              14.08427068                2.74605366               43.41879781                0.81362294                0.54108221               -0.09083857               -1.12882361                0.07946650                0.10791566                0.99366846
               4.33200355                6.62611931               44.34810974                1.00000000               -0.12672351               -0.30122420                0.68002764               -0.04108423                0.09584513                0.99363554
               5.33073632                6.35105238               44.17988946                0.48100098               -0.08983547               -0.00241198                0.21829497               -0.06595624                0.42678511               -0.75297334
               6.33020684                6.07443189               44.01836353                0.01001120               -0.01264432                0.28591285               -0.21251932               -0.40063607                3.15306702               -2.38196723
               7.33048343                5.79188887               43.90449026                0.00010000                0.02557519                0.05785290               -0.26850563               -1.50471777               10.37435115                0.98101230
               8.33071834                5.49435970               43.88600160                0.00010000                0.11117370                0.34855962               -0.82819707               -2.25389723               14.51069655                0.82943152
               9.33270690                5.19726221               43.85172302                0.00010000                0.30812994                0.30348929               -1.23837726               -2.30499075               13.58221095                1.50002231
              10.33688094                4.89960118               43.81211282                0.00010000                0.52162719                0.15298510               -1.55974495               -2.39481401               13.10919766                2.25841415
              11.34313945                4.60190086               43.76657442                0.00010000                0.70236951               -0.01862235               -1.81275050               -2.20609770               12.33721269                2.82074922
              12.35092833                4.30723144               43.71140708                0.00010000                0.70439192               -0.17409164               -1.96374937               -1.37507116               10.53282905                3.31627795
              13.35722728                4.02162400               43.63336208                0.27123002                0.62033226               -0.25055514               -1.05944867               -0.36845822                4.56820422                3.07697675
              14.36333498                3.74364427               43.46415907                0.79160546                0.61076938               -0.13607764               -1.29629585                0.04039025                0.02309585                0.75987019
               4.60514356                7.62348300               44.28617252                0.96492774               -0.07241395               -0.22322716                0.47686458               -0.03408394                0.02903905                0.79884411
               5.60441942                7.35141109               44.10920992                0.37560850               -0.04042266                0.06008436                0.02355024               -0.04559220                0.31305192               -0.84123961
               6.60433511                7.07799346               43.93794466                0.00010000               -0.03145855                0.38555011               -0.41921768               -0.70741644                6.59539081               -2.69714074
               7.60379025                6.79155841               43.88642392                0.00010000                0.02176673                0.11633676               -0.34445247               -1.68738942               14.09621677                1.56426454
               8.60477045                6.49778277               43.86210450                0.00010000                0.15073530                0.35522414               -0.90786541               -2.15883960               15.92922601                1.25581701
               9.60680496                6.20048354               43.84363397                0.00010000                0.29517234                0.35380945               -1.33059741               -2.39350582               16.25261688                1.84106102
              10.61067389                5.90142876               43.82243581                0.00010000                0.51394132                0.23250921               -1.71980716               -2.53530171               16.00134659                2.68775881
              11.61708379                5.60176152               43.79621872                0.00010000                0.82119660                0.03408377               -2.11952321               -2.46394590               15.31232705                3.71166488
              12.62709782                5.30449428               43.75989802                0.00010000                0.89970379               -0.29229130               -2.50652159               -1.52822146               12.78457768                4.75969173
              13.63507786                5.02018006               43.68499692                0.25576903                0.69700527               -0.01095805               -1.29317331               -0.35243852                5.34823061                2.55537105
              14.64103793                4.74333211               43.50343660                0.78281773                0.59600680                0.13021812               -1.64066368                0.02385497                0.04249952               -0.03412744
               4.87546569                8.62165477               44.22325816                0.95679053               -0.01516828               -0.14342443                0.27675572               -0.03170054                0.00560239                0.73379864
               5.87531401                8.35225407               44.03818932                0.34443062                0.02227478                0.10477662               -0.16723843               -0.00952118                0.13036237               -0.83121905
               6.87591119                8.08214289               43.85557512                0.00010000                0.08161587                0.40242927               -0.61496092               -0.86090081                8.86798401               -2.72765631
               7.87694633                7.79421561               43.84499634                0.00010000                0.13526191                0.36136512               -0.72363505               -1.75445175               17.92691774               -0.02816281
               8.87861643                7.50146418               43.83906662                0.00010000                0.21222352                0.40736107               -1.07154643               -2.05616466               18.57371885                1.06602800
               9.88119080                7.20433840               43.83684952                0.00010000                0.31402516                0.42330486               -1.47094842               -2.31413053               19.03996486                1.82728627
              10.88489693                6.90425136               43.83589119                0.00010000                0.48021051                0.35559633               -1.89699607               -2.55085537               19.21783582                2.82452187
              11.89079501                6.60258253               43.83350567                0.00010000                0.85242167                0.18196257               -2.45128752               -2.69850487               18.83345838                4.33057477
              12.90194536                6.30138562               43.82194279                0.00010000                1.02728390               -0.20568194               -3.29760421               -1.61330346               14.42066992                6.58848032
              13.91134069                6.02140484               43.73049192                0.25625279                0.77813052                0.23107359               -1.55795901               -0.23520155                5.19586073                2.06311981
              14.91750797                5.74624863               43.53544426                0.78234995                0.61672878                0.42381876               -2.02196345                0.03309669                0.06418738               -0.68995713
               5.14331095                9.62061451               44.16013839                0.93876601                0.04299231               -0.06476560                0.07776314               -0.03147313                0.00558750                0.73743112
               6.14374088                9.35350662               43.96741186                0.37409983                0.09223013                0.14529170               -0.35806264                0.00877285               -0.03911449               -0.78521608
               7.14515556                9.08604204               43.77369188                0.00010000                0.28195290                0.36529689               -0.80228652               -0.92166964               10.63188437               -2.40671041
               8.14937993                8.79878571               43.79401577                0.00010000                0.41844016                0.43152492               -0.98133724               -1.75313052               21.44203825               -0.51556775
               9.15352436                8.50592999               43.81084008                0.00010000                0.41776163                0.41081232               -1.27721515               -1.81697458               21.58178006                0.62227241
              10.15773517                8.20894963               43.82802153                0.00010000                0.39441472                0.48857420               -1.64049228               -1.95934739               22.04119257                1.45635176
              11.16141265                7.90854069               43.84835584                0.00010000                0.41221322                0.54155864               -2.07626963               -2.23987847               22.74583167                2.45558042
              12.16597943                7.60540077               43.87478783                0.00010000                0.72984003                0.42089751               -2.65971254               -2.67716320               23.42965759                4.13346498
              13.17600945                7.30038064               43.90514586                0.01116905                0.97656920                0.12332335               -3.97886186               -1.68865886               15.61714616                8.10869493
              14.18551081                7.02480153               43.77108459                0.26951273                0.80014061                0.42137165               -1.79189662               -0.13223295                3.75966089                1.70592486
              15.19201227                6.75180848               43.56203951                0.78619907                0.65014509                0.64013552               -2.36002816                0.03520281                0.07689731               -1.13529500
               5.40905201               10.62035946               44.09738260                0.92356203                0.10099220                0.01306339               -0.12148064               -0.03052820               -0.01347594                0.66327442
               6.41006193               10.35515990               43.89700061                0.42674022                0.15733460                0.18601171               -0.55234730                0.00333933                0.01297419               -0.63791850
               7.41219870               10.08944883               43.69698894                0.00010000                0.59669181                0.34047128               -0.98090637               -0.99671944               12.33364561               -1.50437853
               8.42199577                9.80284611               43.74259660                0.00010000                0.99571560                0.15754434               -1.19422057               -1.33620307               24.51863576               -0.36354061
               9.43211301                9.50968042               43.77920243                0.00010000                0.86986941                0.31055135               -1.47743936               -1.18850419               24.37609602                0.27774384
              10.43939316                9.21410989               43.81415253                0.00010000                0.57676064                0.51495192               -1.82749068               -1.15683189               24.89372377                0.80429970
              11.44364823                8.91508253               43.85420157                0.00010000                0.30093163                0.72912476               -2.25350575               -1.43324804               26.10987070                1.46106470
              12.44541179                8.61100048               43.90739258                0.00010000                0.25615988                0.87263700               -2.79388216               -2.01817843               28.87643476                2.73656621
              13.44877142                8.30385209               43.99708706                0.06635626                0.59281977                0.66020300               -3.34600602               -1.67243554               17.13468299                5.41381208
              14.45726818                8.02983227               43.80815892                0.29678717                0.77133471                0.54697915               -1.95647931               -0.16743829                1.67990978                1.26065839
              15.46419812                7.75905134               43.58438018                0.78580201                0.69299343                0.76922118               -2.62542006                0.02159424                0.01674257               -1.17058524
               5.67309950               11.62087578               44.03281509                0.97478023                0.16187915                0.05163218               -0.31881308                0.03985618                0.35604606                0.57410654
               6.67471829               11.35722685               43.82884137                0.76682562                0.22177335                0.20669518               -0.74669296                0.06442010                0.75000438               -0.50739944
               7.67753496               11.09285147               43.63252725                0.43421982                1.38529958                0.34026392               -1.16960871               -1.23088667               14.11924639               -0.86221469
               8.70242428               10.80193660               43.69547355                0.31619351                2.04777661               -0.09095060               -1.39566832               -0.99267146               26.98830426               -0.29200713
               9.71849049               10.51214102               43.74559357                0.30629088                1.33860704                0.24605959               -1.67919222               -0.49664832               26.66296148                0.06883475
              10.72919642               10.21924867               43.79346533                0.31628248                0.86832994                0.51387870               -2.02508459               -0.47056562               27.20936386                0.37205603
              11.73585709                9.92312318               43.84719986                0.34560143                0.38249453                0.80406490               -2.44411788               -0.59887160               28.73442798                0.76660610
              12.73684631                9.62285351               43.91894691                0.44280159               -0.60640679                1.18530238               -2.91124827               -1.33347192               31.78350433                1.65524358
              13.72372896                9.31358470               44.02536261                0.56288617               -0.49417604                0.97326168               -3.05971511               -1.85986647               19.63612161                2.49335289
              14.72696279                9.03574111               43.83857074                0.67177528                0.51385197                0.59088435               -2.04315293               -0.35012925                2.86696677                0.98920010
              15.73400600                8.76719291               43.60879821                0.89550685                0.70432081                0.81415633               -2.77501287                0.12596745                0.80160091               -0.97017617
               3.05444845                1.71963057               45.64481580                1.00000000               -0.45314456               -0.51346317                1.76466718               -0.10242280               -1.20861022                1.12297625
               4.04991701                1.42439516               45.50241868                1.00000000               -0.38455823               -0.33643433                1.22048028               -0.05698607               -1.65249551                0.19329860
               5.04675729                1.12852462               45.35177807                1.00000000               -0.25754498               -0.16896305                0.65906395               -0.06830673               -1.73704131               -0.20976623
               6.04476611                0.83069930               45.20820476                0.66421882               -0.24573007                0.03530329                0.09375587               -0.54024987               -1.38038671               -0.96153893
               7.04184269                0.52109089               45.06533001                0.67518323                0.08191363                0.04981739               -0.53066320               -0.16597225               -1.04341226                0.19583444
               8.04640438                0.20462074               44.93198577                0.68406060                0.65633725                0.23190862               -1.05091051               -0.18697094               -0.35845078               -0.00444273
               9.05496943               -0.10952950               44.80481263                0.61336792                1.04000879                0.32807718               -1.41511772               -0.02902672                0.56640362               -0.36797257
              10.06720455               -0.41606719               44.69027205                0.68012620                1.03415350                0.28200469               -1.32439252               -0.07601574                0.96713251               -0.13067260
              11.07565250               -0.71236281               44.56814550                1.00000000                0.62768109                0.23562709               -0.99693001               -0.11096705                0.12083673                0.77397708
              12.07975818               -1.00511355               44.43277007                1.00000000                0.41703967                0.33339984               -1.20913393               -0.03877106               -0.60318674                0.08525456
              13.08399329               -1.29695091               44.29588630                1.00000000                0.42351174                0.43174636               -1.50469313               -0.05842646               -0.66481495               -0.64461386
               3.34865963                2.71449594               45.58232516                1.00000000               -0.37595131               -0.49823876                1.55619473               -0.01074292               -0.28137188                1.50328704
               4.34490012                2.42103082               45.43997347                1.00000000               -0.28687406               -0.31038606                1.01380227                0.02774016               -0.45010656                0.28244238
               5.34292215                2.12683499               45.29470685                1.00000000               -0.09098213               -0.13824755                0.45524642               -0.00366413               -0.39324879               -0.39536515
               6.34308047                1.83105234               45.15352599                0.36368619                0.51500476                0.06902448               -0.09028453               -0.66191895                0.90932270               -1.33767102
               7.35322224                1.52158907               45.03391035                0.39888246                0.83821947               -0.03909431               -0.77074127               -0.28270184                1.84499131                0.47368192
               8.35984486                1.20693983               44.91135301                0.39753890                0.59004414                0.29830241               -1.30498920               -0.28417254                1.97938301                0.07640181
               9.36502313                0.89375127               44.79430860                0.27205153                0.40080958                0.50670911               -1.64722693               -0.13047511                3.18452225               -0.87064722
              10.36786106                0.58675286               44.69526256                0.35031102                0.20214421                0.50533589               -1.38343994               -0.17249396                3.80403353               -0.08878918
              11.36906601                0.28999346               44.59149672                1.00000000                0.19017290                0.22963583               -0.77942995               -0.17856219                1.90158642                0.91769371
              12.37166451               -0.00177955               44.45710982                1.00000000                0.30901893                0.31083042               -1.05778436                0.00259286                0.22372246                0.23189259
              13.37524639               -0.29263344               44.32045934                1.00000000                0.35818764                0.41118582               -1.35308224               -0.01065846                0.09759378               -0.72439563
               3.64116383                3.70966579               45.52819160                1.00000000               -0.30310779               -0.46791804                1.35094404               -0.01042650               -0.00936682                1.87966847
               4.63813275                3.41818744               45.37956215                1.00000000               -0.22506713               -0.25256240                0.81391942                0.00937466                0.11504734                0.30726402
               5.63666249                3.12575967               45.23371456                0.81910585               -0.06795475               -0.04519352                0.26039306               -0.05874545                0.38284420               -0.99282312
               6.63677366                2.83207979               45.09026232                0.00026859                1.18193354                0.12306944               -0.29726034               -0.99226505                3.51547654               -1.80132988
               7.66030116                2.52030901               45.00646456                0.00010000                1.58925312                0.01419081               -1.14952259               -2.01534100                5.08259512               -0.82052742
               8.66855872                2.21058679               44.89073613                0.00010000                0.61228687                0.44312829               -1.68505235               -1.86881841                3.43293200                0.07852735
               9.67254689                1.90060468               44.77156574                0.00010000               -0.05231131                0.76565052               -2.12374110               -1.71667098                5.67878529                0.61034619
              10.66751249                1.59403953               44.69928448                0.00010000               -0.59666138                0.78019741               -2.00281562               -1.29421687                7.41256006                0.55832117
              11.66061367                1.29222990               44.61805383                0.38411197               -0.25377784                0.10880952               -0.58247160               -0.68418860                3.82573072                1.58426035
              12.66243694                1.00110306               44.48441771                1.00000000                0.24371239                0.25522443               -0.91620356               -0.05469589                0.77663784                0.70552935
              13.66548791                0.71127281               44.34322491                1.00000000                0.30509793                0.36425610               -1.18102498               -0.01794454                0.36591601               -0.69162663
               3.93140780                4.70513758               45.47391080                1.00000000               -0.24140759               -0.43031714                1.14395078               -0.02389624                0.11861603                1.67954411
               4.92899373                4.41597957               45.31783409                1.00000000               -0.17764588               -0.18022924                0.61626011               -0.00898372                0.24362090                0.08632934
               5.92785489                4.12593112               45.16447860                0.37286496               -0.01539436                0.05606313                0.09423944               -0.13635957                1.10373828               -1.49073198
               6.92868584                3.83351372               45.02540771                0.00010000                0.32767701                0.21351437               -0.46678608               -1.17349990                4.95641628               -2.28693309
               7.93440843                3.52187288               44.94853168                0.00010000                0.67434870                0.31621031               -1.04057677               -2.89781355                8.00670652               -1.36642265
               8.94217282                3.21580239               44.86823160                0.00010000                0.64142685                0.45939833               -1.49922126               -2.88075325                7.86316288                0.49348319
               9.94723696                2.90906428               44.78723766                0.00010000                0.40893419                0.61142567               -1.74863766               -2.84373540                8.04090902                2.29103265
              10.95035150                2.60235681               44.71134180                0.00010000                0.05408729                0.52048139               -1.59958105               -2.50201040                9.13247936                1.70225293
              11.94831871                2.29216965               44.65537048                0.00010000                0.05880954                0.20567701               -0.56832708               -1.10129310                5.66615158                0.41798641
              12.95152769                2.00332494               44.51862519                0.49980020                0.31146465                0.01879917               -0.84209148               -0.07150314                0.89617646                1.75677702
              13.95454800                1.71465168               44.36855307                0.99230592                0.30203130                0.10844858               -1.04234554                0.05392915                0.18279135                0.12689802
               4.21900191                5.70105945               45.41631881                1.00000000               -0.18423861               -0.37923092                0.93002303               -0.04601360                0.24994426                1.31319210
               5.21715953                5.41458286               45.25307740                0.67392133               -0.13003871               -0.08319769                0.41588059               -0.05210474                0.40717598               -0.37793097
               6.21640114                5.12688094               45.09311319                0.11345296                0.01011860                0.17486242               -0.08361760               -0.21960620                1.49689921               -1.86439901
               7.21736190                4.83635008               44.95141870                0.00010000                0.18275386                0.22490234               -0.61815068               -1.32064466                7.33753054               -1.49538856
               8.22005622                4.52663321               44.90755641                0.00010000                0.31951747                0.46099837               -0.98509730               -2.32202194               11.73137497                0.14407613
               9.22375225                4.21977476               44.85123388                0.00010000                0.45307764                0.40115137               -1.39154397               -2.40597482               10.96619134                1.19712960
              10.22911777                3.91283320               44.79066055                0.00010000                0.53073356                0.30839108               -1.61995681               -2.48514221               10.75180326                2.01757720
              11.23436692                3.60444916               44.72976220                0.00010000                0.42509522                0.16390040               -1.57917466               -2.39413731               10.21521558                2.17833869
              12.23761968                3.29634344               44.65957479                0.00010000                0.20789609                0.30948165               -1.46130891               -1.33715213                8.40441531                0.69883564
              13.23852484                3.00147904               44.56775234                0.26328085                0.31466731               -0.25464657               -0.80496737               -0.33841309                3.48847632                2.81185397
              14.24391302                2.71344178               44.40821100                0.77789170                0.53881780               -0.30754943               -1.00405505                0.16302892                0.09858518                0.81481947
               4.50344072                6.69755296               45.35507086                1.00000000               -0.13105741               -0.31069157                0.71539532               -0.04224883                0.08699561                0.98026713
               5.50213015                6.41431562               45.18196814                0.46265482               -0.08725917                0.01191412                0.19579982               -0.06940333                0.43212102               -0.75875921
               6.50169554                6.12942837               45.01586493                0.00010000                0.01952627                0.32736324               -0.29499647               -0.43882370                3.37428977               -2.38054996
               7.50252067                5.83801177               44.90138952                0.00010000                0.14238872                0.08782322               -0.34683980               -1.52799310               10.52887453                1.26789775
               8.50454331                5.53109285               44.87708037                0.00010000                0.26663295                0.42226810               -0.97132757               -2.31389555               14.51119279                1.06044646
               9.50785333                5.22382542               44.83868577                0.00010000                0.41582017                0.39592819               -1.37984384               -2.39308445               13.72992664                1.73498746
              10.51285972                4.91523211               44.79604088                0.00010000                0.55525878                0.24694334               -1.66161233               -2.51446389               13.34956504                2.41672667
              11.51895851                4.60563482               44.74845285                0.00010000                0.58430336                0.10948591               -1.81381858               -2.36374232               12.65997007                2.74839512
              12.52454578                4.29835928               44.69268047                0.00010000                0.43512920                0.06320246               -1.79152431               -1.61694337               11.31001581                2.97657415
              13.52766109                3.99823201               44.62319507                0.23808827                0.46686632               -0.19864973               -0.98533602               -0.49364886                5.13620488                2.88642810
              14.53388311                3.70850069               44.45133840                0.76502828                0.62220180               -0.31831105               -1.30849906                0.06896078                0.02576825                0.33514356
               4.78463162                7.69484562               45.29105675                0.96395385               -0.07355725               -0.22993378                0.50263123               -0.03435361                0.02437091                0.78732820
               5.78389605                7.41482114               45.10930813                0.35982699               -0.03515541                0.07521999               -0.00547942               -0.04388531                0.31305406               -0.83651109
               6.78392851                7.13342820               44.93335992                0.00010000                0.06207576                0.42858281               -0.50486926               -0.74982433                6.86093302               -2.69201594
               7.78513756                6.83810654               44.88228927                0.00010000                0.20180734                0.16601867               -0.49888467               -1.69921067               14.35857980                1.57071746
               8.78796466                6.53507857               44.85243069                0.00010000                0.33068706                0.39780659               -1.03559752               -2.19615853               15.97290826                1.41181907
               9.79175130                6.22769332               44.82975975                0.00010000                0.45272190                0.39692267               -1.45161117               -2.45974548               16.40594675                2.02554491
              10.79701910                5.91777207               44.80481543                0.00010000                0.61067985                0.28275381               -1.80457894               -2.61057295               16.19568991                2.81152854
              11.80396490                5.60663888               44.77502365                0.00010000                0.78322604                0.11376538               -2.11018504               -2.49922469               15.52744878                3.63503115
              12.81268362                5.29760749               44.73585589                0.00010000                0.72727788               -0.13118741               -2.30225100               -1.66501729               13.67240960                4.24472791
              13.81851046                4.99750605               44.67201003                0.23058698                0.60356288                0.06336778               -1.31891613               -0.46604983                6.11543855                2.34247568
              14.82475487                4.70707556               44.48647527                0.76274133                0.62444166                0.07369819               -1.79451422                0.04043906                0.05958557               -0.51354557
               5.06280261                8.69295428               45.22608864                0.94945172               -0.01327523               -0.14896835                0.29269328               -0.03138722                0.00791747                0.72519121
               6.06266986                8.41582002               45.03635646                0.33105508                0.03055168                0.12070984               -0.20221798               -0.00486979                0.12954653               -0.82532406
               7.06341365                8.13800003               44.84901957                0.00010000                0.21081143                0.44272337               -0.70179748               -0.90226036                9.03741786               -2.71405379
               8.06688609                7.84133215               44.83710662                0.00010000                0.38098611                0.39388129               -0.86065635               -1.82219624               18.20214986               -0.08726604
               9.07103337                7.53904898               44.82778091                0.00010000                0.45394217                0.41191397               -1.19403294               -2.12637245               18.76048804                1.16142112
              10.07596493                7.23176387               44.82160384                0.00010000                0.53346658                0.42133367               -1.58225316               -2.38021514               19.22825094                1.96557251
              11.08170270                6.92088718               44.81642605                0.00010000                0.65868277                0.37006050               -1.99062876               -2.61117002               19.37193133                2.93140568
              12.08913859                6.60791012               44.80862111                0.00010000                0.93377837                0.21516915               -2.49222021               -2.69108428               18.84183620                4.29614816
              13.10037827                6.29573553               44.78965167                0.00010000                0.98667213               -0.12479040               -3.10001234               -1.69307825               15.46006405                5.92422993
              14.10887203                5.99949936               44.71445059                0.23651755                0.75873028                0.30547912               -1.66091791               -0.33723741                6.28676848                1.89033175
              15.11555287                5.70997465               44.51415041                0.76740798                0.66808429                0.44904754               -2.26752543                0.04636226                0.08418457               -1.09908540
               5.33827241                9.69186625               45.16094914                0.93347430                0.04804986               -0.06793970                0.08663174               -0.03116727                0.00789050                0.72841097
               6.33875290                9.41723533               44.96362280                0.36278851                0.10493846                0.16167451               -0.40339617                0.01392331               -0.03978615               -0.78058069
               7.34037118                9.14228267               44.76523990                0.00010000                0.44458903                0.40095953               -0.89422166               -0.98844136               10.76950606               -2.38434129
               8.34764469                8.84598417               44.78366379                0.00010000                0.73171526                0.41171166               -1.09435995               -1.86812265               21.71432936               -0.50009688
               9.35500548                8.54331685               44.79754541                0.00010000                0.73320567                0.35806039               -1.38812929               -1.90481234               21.82487506                0.68560568
              10.36230880                8.23611999               44.81108503                0.00010000                0.68219822                0.44006191               -1.74825274               -2.01521461               22.27025931                1.55004864
              11.36864944                7.92517328               44.82696464                0.00010000                0.64930332                0.52293031               -2.19058659               -2.27811929               22.90855719                2.53379207
              12.37529486                7.61094226               44.84719955                0.00010000                0.92916844                0.47052978               -2.82245266               -2.66162615               23.16882944                4.15975442
              13.38723281                7.29511168               44.86339327                0.00010000                1.11158625                0.16738402               -4.14888032               -1.74040172               16.77855617                8.04641902
              14.39752659                7.00361563               44.75240155                0.25340194                0.87493638                0.49094491               -1.95172593               -0.20801393                5.24593098                1.60590237
              15.40473154                6.71605651               44.53702734                0.77452632                0.72049512                0.70744881               -2.66176785                0.04302539                0.09787151               -1.44266918
               5.61144110               10.69159549               45.09615039                0.91815521                0.10908085                0.01279976               -0.12352329               -0.03155842               -0.01335933                0.65369637
               6.61253191               10.41905351               44.89122597                0.41714007                0.17274412                0.20361016               -0.60500749                0.00639665                0.01560966               -0.63378071
               7.61489598               10.14601922               44.68671643                0.00010000                0.79787711                0.37288413               -1.07981681               -1.11685502               12.45844803               -1.48073158
               8.62848945                9.84956638               44.73016891                0.00010000                1.39526577                0.05678556               -1.29803578               -1.46337716               24.78441462               -0.34265646
               9.64280130                9.54621019               44.76393271                0.00010000                1.26573830                0.20698527               -1.58230374               -1.25842915               24.64249416                0.31562537
              10.65380422                9.24056511               44.79534070                0.00010000                0.92583738                0.42731863               -1.93428294               -1.18449751               25.14770472                0.85292491
              11.66131805                8.93134579               44.83089796                0.00010000                0.60817187                0.67901535               -2.39161489               -1.41333045               26.29461369                1.49814192
              12.66596765                8.61732072               44.87786294                0.00010000                0.57894080                0.89406304               -3.06137476               -1.94095132               28.87855645                2.77350248
              13.67289686                8.29908321               44.95860338                0.04361267                0.88996356                0.82355850               -4.29524185               -1.56961140               18.33206489                5.98670237
              14.68376693                8.00931826               44.78762285                0.28522779                0.93173814                0.61211224               -2.15531741               -0.24010039                2.95368145                1.24904809
              15.69153162                7.72412363               44.55648923                0.77628632                0.77646987                0.86208365               -2.96633452                0.02488657                0.02975955               -1.35655333
               5.88272520               11.69212225               45.02956213                0.97233219                0.17319061                0.05267591               -0.33081479                0.04693911                0.34850194                0.56491616
               6.88445711               11.42130754               44.82107413                0.76268735                0.23980014                0.22540314               -0.80995032                0.07342499                0.74682874               -0.50206459
               7.88752120               11.14974035               44.62032120                0.43110817                1.68645332                0.37211321               -1.27869243               -1.44686077               14.23222671               -0.84052053
               8.91818617               10.84711988               44.68100971                0.31616807                2.56584805               -0.24464970               -1.50572039               -1.14451747               27.24791837               -0.29285579
               9.93883816               10.54745656               44.72827509                0.30635915                1.76485376                0.12463698               -1.79160962               -0.51898917               26.93466883                0.07669013
              10.95348325               10.24466637               44.77264672                0.31606677                1.23945317                0.41012538               -2.13934440               -0.46724568               27.48004005                0.38220387
              11.96362723                9.93875358               44.82194687                0.34461234                0.76275832                0.74077932               -2.58962437               -0.56122398               28.95387529                0.76486855
              12.96873841                9.62882352               44.88788042                0.42915322                0.01079085                1.15028013               -3.25466533               -1.08146037               32.03963099                1.67544479
              13.96384304                9.31158285               44.99030239                0.54996198               -0.05271240                1.24996414               -3.99420886               -1.55366392               20.89623879                3.04167832
              14.96768417                9.01585788               44.81707733                0.66718995                0.58877467                0.65396151               -2.26087748               -0.52250950                3.97631455                1.02415641
              15.97561854                8.73329818               44.57933000                0.89113362                0.79343716                0.91745537               -3.13076283                0.15272198                0.84101183               -1.08286817
               3.18737717                1.79441817               46.66310864                1.00000000               -0.48705996               -0.55351894                1.90183680               -0.11483986               -1.22055840                1.12373306
               4.18250657                1.48982016               46.51489871                1.00000000               -0.41540410               -0.34959126                1.27825208               -0.06363066               -1.67449973                0.19488102
               5.17906908                1.18452204               46.35831996                1.00000000               -0.28887326               -0.15715479                0.64873057               -0.07956790               -1.77003000               -0.20863057
               6.17672910                0.87674292               46.20876748                0.67019896               -0.35937045                0.09257524                0.01663371               -0.60531939               -1.42946580               -0.94565791
               7.17188168                0.55555903               46.05969892                0.68241011               -0.08377338                0.13729821               -0.58501594               -0.20266639               -1.08854419                0.17665708
               8.17505363                0.22631308               45.92092319                0.68468438                0.55432895                0.31830064               -1.14058742               -0.22651798               -0.37444000               -0.02028033
               9.18296825               -0.10210872               45.78961088                0.58257612                1.06805600                0.45438415               -1.60828585               -0.04873284                0.74642456               -0.45358926
              10.19641475               -0.42283888               45.67581209                0.59839465                1.21315203                0.40111065               -1.61011878               -0.04217316                1.46585306               -0.29135204
              11.20723129               -0.72879510               45.55819710                1.00000000                0.75311398                0.21214239               -0.97009956               -0.17856167                0.58121944                0.82319691
              12.21147703               -1.02930936               45.42056977                1.00000000                0.43197718                0.33080118               -1.22805392               -0.04586587               -0.52511960                0.09051601
              13.21587084               -1.32850216               45.28054876                1.00000000                0.43938049                0.44600349               -1.57357440               -0.07480163               -0.62871564               -0.60293961
               3.49082678                2.78888298               46.59845724                1.00000000               -0.40084511               -0.53642327                1.67780937               -0.00854136               -0.29295232                1.49969728
               4.48681833                2.48632425               46.45030832                1.00000000               -0.30073742               -0.32279789                1.05548006                0.03466432               -0.47198635                0.28594058
               5.48481203                2.18295049               46.29910972                1.00000000               -0.08304556               -0.12642933                0.42301117                0.00147917               -0.41891727               -0.38661537
               6.48515741                1.87766867               46.15210813                0.37862068                0.51289506                0.12145242               -0.20001746               -0.72773030                0.82479030               -1.32185733
               7.49506993                1.55693201               46.02545842                0.41450726                0.82324570                0.02452526               -0.91343650               -0.33574804                1.70608493                0.40622157
               8.50162233                1.22949609               45.89714365                0.39643086                0.59934885                0.38921453               -1.52722133               -0.33544368                1.96802418                0.01465029
               9.50705691                0.90243512               45.77603932                0.23018624                0.38569425                0.65929962               -2.01916377               -0.17967801                3.59831077               -1.04350659
              10.50933621                0.58117223               45.67973285                0.25737502                0.08120048                0.74983622               -1.83560213               -0.21503290                4.83063892               -0.53816166
              11.50868092                0.27332632               45.58411998                1.00000000                0.07678465                0.19834674               -0.67796308               -0.34226503                2.48922441                0.94277884
              12.51087191               -0.02600134               45.44676062                1.00000000                0.28173575                0.29883381               -1.00499639               -0.00143280                0.23091247                0.23179603
              13.51431563               -0.32404213               45.30697874                1.00000000                0.34437248                0.41781008               -1.35374638               -0.02179924                0.09246271               -0.66477417
               3.79232380                3.78368971               46.54216393                1.00000000               -0.31914611               -0.50044232                1.45009984               -0.01015550               -0.01827688                1.87158109
               4.78913234                3.48336421               46.38780464                1.00000000               -0.22847774               -0.26043328                0.83626983                0.01120598                0.09553248                0.31407092
               5.78775425                3.18199346               46.23607468                0.81761291               -0.04696817               -0.02876383                0.20871752               -0.06497617                0.35518410               -0.96177546
               6.78819298                2.87917197               46.08673973                0.00010000                1.27925241                0.17409093               -0.41560307               -1.11348363                3.33637339               -1.77370393
               7.81333930                2.55604953               45.99392240                0.00010000                1.73243352                0.09983384               -1.35744740               -2.22627517                4.84758686               -0.67488955
               8.82284165                2.23409737               45.87227487                0.00010000                0.71796293                0.60941345               -1.99822572               -2.13418528                3.40703935                0.27228782
               9.82769856                1.91107727               45.74791224                0.00010000               -0.08093768                1.05133838               -2.58890777               -2.03316489                5.98584013                0.81093640
              10.82122290                1.59215785               45.67546149                0.00010000               -1.00694951                1.19763450               -2.98178766               -1.78956355                9.06990947                0.63873381
              11.80755957                1.27517183               45.61302299                0.36356812               -0.62030329                0.06871302               -0.40327991               -1.08837556                4.86129287                1.47512017
              12.80881683                0.97666732               45.47579428                1.00000000                0.19784303                0.22194985               -0.79117552               -0.07274025                0.71462037                0.65973399
              13.81151643                0.67985404               45.33179329                1.00000000                0.26995958                0.35275191               -1.11620138               -0.03357432                0.33543617               -0.62893664
               4.09127467                4.77887414               46.48570426                1.00000000               -0.25359723               -0.45392205                1.21965130               -0.02639061                0.11335728                1.66519506
               5.08873870                4.48111559               46.32401175                1.00000000               -0.17849625               -0.17987748                0.61979913               -0.01154990                0.23826834                0.09299725
               6.08770474                4.18237522               46.16506477                0.36032527                0.00464831                0.08037179                0.02066177               -0.14691717                1.08202173               -1.44703410
               7.08883166                3.88115049               46.02005172                0.00010000                0.39571379                0.26699049               -0.61209338               -1.27598501                4.90786528               -2.21926396
               8.09561902                3.55892869               45.93712260                0.00010000                0.75396103                0.45474357               -1.25459901               -3.13856873                8.00423850               -0.98837500
               9.10391088                3.24168436               45.85195629                0.00010000                0.63570582                0.69023994               -1.76687618               -3.19712542                8.01063450                0.95432544
              10.10833314                2.92346189               45.76825607                0.00010000                0.27697490                0.94200555               -2.07362325               -3.22707169                8.50308509                2.85479094
              11.10945038                2.60512492               45.69439222                0.00010000               -0.29646036                0.82159215               -1.78471779               -3.28790640               10.23082719                2.30091628
              12.10240393                2.27470058               45.65042416                0.00010000               -0.23577420                0.47354988               -0.41056595               -1.49131380                6.37461459               -0.22867601
              13.10473490                1.97843765               45.51101967                0.41843263                0.24333917                0.00955190               -0.66051546               -0.02556672                0.84088526                1.62955619
              14.10727071                1.68301291               45.35883670                0.92602128                0.25358148               -0.01446539               -0.91744461                0.14795644                0.15650514                0.10920554
               4.38731309                5.77461127               46.42587652                1.00000000               -0.19128301               -0.39437130                0.98536635               -0.05074953                0.25002107                1.29655730
               5.38540026                5.47976666               46.25717357                0.65083889               -0.12660461               -0.07345612                0.40070618               -0.05822017                0.41469413               -0.38064385
               6.38478100                5.18360089               46.09189825                0.10124997                0.03597724                0.20994742               -0.16555410               -0.23441820                1.49736062               -1.84397298
               7.38611981                4.88451178               45.94448910                0.00010000                0.26265263                0.26128840               -0.76824891               -1.37213386                7.40960081               -1.17293275
               8.39003405                4.56514441               45.89684967                0.00010000                0.41230652                0.58828237               -1.17027084               -2.42913373               11.87910294                0.48332921
               9.39436594                4.24790217               45.83632858                0.00010000                0.48412539                0.58758637               -1.60630833               -2.53964864               11.18655862                1.59134218
              10.39971656                3.92991738               45.77363219                0.00010000                0.49300676                0.51594681               -1.80350862               -2.67702274               11.20176735                2.39987190
              11.40422607                3.60858969               45.71371349                0.00010000                0.23519955                0.32411975               -1.64814651               -2.75128408               10.85617282                2.31922726
              12.40442055                3.28464283               45.64572201                0.00010000               -0.21164521                0.78906242               -1.33212946               -1.58744169                9.25103005                0.09075780
              13.39999317                2.97685836               45.56049229                0.21831003                0.04522457               -0.16713957               -0.64661700               -0.42597714                3.93986327                2.62217754
              14.40532504                2.67956473               45.39871671                0.74202330                0.53318743               -0.54650179               -0.92870061                0.28528600                0.09936470                0.47069833
               4.67994890                6.77098671               46.36241765                1.00000000               -0.13642296               -0.31997423                0.75751246               -0.04326845                0.07564220                0.96690259
               5.67858467                6.47964646               46.18380545                0.44353104               -0.08388190                0.02629437                0.17052522               -0.07177356                0.43337003               -0.75995613
               6.67827126                6.18657417               46.01246360                0.00010000                0.06304016                0.36988038               -0.39434196               -0.47392898                3.63282199               -2.37272450
               7.67984547                5.88637626               45.89755346                0.00010000                0.26873449                0.13719407               -0.42653679               -1.50542846               10.73901293                1.56702468
               8.68364595                5.57069434               45.86657505                0.00010000                0.42497303                0.50871032               -1.13997044               -2.31080489               14.53845357                1.35225248
               9.68834493                5.25343609               45.82412615                0.00010000                0.52296073                0.50870934               -1.54676014               -2.43701461               13.96645562                2.05375161
              10.69410517                4.93378083               45.77888057                0.00010000                0.56771604                0.36783857               -1.78599616               -2.61107686               13.73862901                2.66276463
              11.69969925                4.61160731               45.73029805                0.00010000                0.41406298                0.28520936               -1.83540868               -2.54663822               13.21024522                2.74678080
              12.70238642                4.29048183               45.67557659                0.00010000                0.07971019                0.38874048               -1.65829231               -1.86866868               12.23693529                2.68855879
              13.70129346                3.97509486               45.61365536                0.20635717                0.25886337               -0.05421529               -0.94167229               -0.58124404                5.73525421                2.62866844
              14.70756369                3.67208287               45.43798909                0.73856132                0.62702352               -0.46577740               -1.42249858                0.09750673                0.04418369               -0.26975133
               4.96912822                7.76821178               46.29622515                0.96306914               -0.07508828               -0.23602582                0.53407306               -0.03494891                0.01971125                0.77733824
               5.96837734                7.48029254               46.10910033                0.34389410               -0.02777960                0.08932245               -0.03767106               -0.04119692                0.31167293               -0.82631457
               6.96857263                7.19099850               45.92784728                0.00010000                0.17568664                0.47038308               -0.60305390               -0.76993786                7.11661944               -2.67599733
               7.97189107                6.88725566               45.87644622                0.00010000                0.40927502                0.23597545               -0.68219537               -1.66486910               14.65264568                1.57183615
               8.97675813                6.57531861               45.84139255                0.00010000                0.53240430                0.44417730               -1.18340056               -2.17481433               16.09910058                1.62156163
               9.98253916                6.25807636               45.81460175                0.00010000                0.62828344                0.44442470               -1.59131677               -2.46393549               16.65395455                2.27353819
              10.98932380                5.93727416               45.78634423                0.00010000                0.70265738                0.34747195               -1.89767158               -2.62846789               16.54042299                2.99061601
              11.99659230                5.61429388               45.75401502                0.00010000                0.71179159                0.23611392               -2.09876531               -2.50748266               15.97940363                3.59068952
              13.00355963                5.29241764               45.71385300                0.00010000                0.50874720                0.09255044               -2.12446150               -1.77945408               14.65846596                3.80146454
              14.00676725                4.97577405               45.65861860                0.20811740                0.48697641                0.18625470               -1.37405386               -0.54423024                6.85302723                2.07542138
              15.01329916                4.67024918               45.46754632                0.74349152                0.65319095                0.08159957               -2.03352611                0.05892895                0.08603394               -1.08745265
               5.25508840                8.76626620               46.22911202                0.94215029               -0.01143827               -0.15454005                0.31438656               -0.03366694                0.01081434                0.71902693
               6.25497401                8.48143291               46.03414497                0.31732395                0.04104969                0.13664751               -0.24239980               -0.00036562                0.13067276               -0.81677843
               7.25590939                8.19598183               45.84153917                0.00010000                0.36269820                0.48299267               -0.80061709               -0.92025436                9.21199166               -2.69044937
               8.26222798                7.89109577               45.82778321                0.00010000                0.67097869                0.42329114               -1.01002537               -1.84670024               18.51737036               -0.09510203
               9.26932896                7.57957788               45.81518596                0.00010000                0.74413510                0.40858482               -1.33620575               -2.14643452               19.02810240                1.30150415
              10.27711068                7.26232458               45.80520446                0.00010000                0.79946635                0.40686941               -1.70607796               -2.38328244               19.51562482                2.15599681
              11.28531829                6.94073027               45.79607862                0.00010000                0.86477178                0.37352312               -2.07780916               -2.59247580               19.66622232                3.07609137
              12.29440612                6.61632959               45.78366126                0.00010000                0.99994375                0.25300728               -2.47991235               -2.60311669               19.11130671                4.22986759
              13.30531717                6.29233284               45.75994254                0.00010000                0.90855984               -0.00301667               -2.83840858               -1.73453410               16.56722397                5.19348730
              14.31257731                5.97881996               45.69727356                0.21954305                0.72374249                0.39866306               -1.77862769               -0.42949301                7.28113920                1.67891797
              15.31979202                5.67371486               45.49009375                0.75312607                0.72147034                0.51835490               -2.55989652                0.06043873                0.10451976               -1.53947515
               5.53812145                9.76512098               46.16187102                0.92779743                0.05329460               -0.07228983                0.09895352               -0.03228594                0.00727515                0.72087633
               6.53865439                9.48302549               45.95934394                0.35104965                0.11916206                0.18000254               -0.45358886                0.01857193               -0.03803641               -0.77326039
               7.54050469                9.20065835               45.75580744                0.00010000                0.63533099                0.43855396               -0.99692653               -1.03943398               10.92872878               -2.35473299
               8.55136101                8.89572148               45.77212857                0.00010000                1.10479691                0.37756464               -1.22106999               -1.94641203               22.04063871               -0.44533208
               9.56260063                8.58349031               45.78307749                0.00010000                1.11800561                0.28426870               -1.51602582               -1.95227951               22.14913568                0.79081870
              10.57372112                8.26621375               45.79305647                0.00010000                1.04343223                0.36410554               -1.86362666               -2.02371844               22.60053299                1.68792594
              11.58346927                7.94474462               45.80454411                0.00010000                0.96031354                0.46664395               -2.28501685               -2.25798779               23.17609359                2.64036194
              12.59292740                7.61935402               45.81833878                0.00010000                1.14546559                0.47300356               -2.89996032               -2.57579647               23.10829746                4.13333423
              13.60637858                7.29235731               45.82216826                0.00010000                1.19339846                0.21720817               -3.94054355               -1.76355277               18.05233449                7.41855354
              14.61679536                6.98374731               45.73205007                0.23901139                0.91697672                0.56587457               -2.11602713               -0.29311884                6.70452931                1.47730546
              15.62471812                6.68061628               45.50880415                0.76303645                0.79227521                0.79513736               -2.98062967                0.05032272                0.11418805               -1.76118729
               5.81863365               10.76482040               46.09491213                0.91261494                0.11744297                0.01148189               -0.12255166               -0.03253886               -0.01194704                0.64389090
               6.81980808               10.48503296               45.88490046                0.40636694                0.18955366                0.22318816               -0.66263804                0.00869555                0.02168302               -0.62674259
               7.82242472               10.20475291               45.67539260                0.00010000                1.03298505                0.40865901               -1.18944517               -1.23233384               12.61084743               -1.45308382
               8.84046778                9.89864706               45.71663588                0.00010000                1.86831921               -0.06617935               -1.41898574               -1.57109553               25.11419834               -0.30181165
               9.85979111                9.58526326               45.74755636                0.00010000                1.74571102                0.07498808               -1.70397058               -1.30470668               24.99684401                0.37980233
              10.87538200                9.26960669               45.77546687                0.00010000                1.36135763                0.30334863               -2.04559675               -1.18978977               25.50926698                0.93156027
              11.88701826                8.95006314               45.80636927                0.00010000                0.99477475                0.57890611               -2.49861014               -1.37927013               26.57520868                1.55635364
              12.89527750                8.62578966               45.84616508                0.00010000                0.93172782                0.84867126               -3.21356881               -1.85150654               28.70501131                2.74210873
              13.90565282                8.29667700               45.91118222                0.02298312                1.15892334                0.93314703               -4.89294039               -1.47869843               19.75658061                6.03730546
              14.91845596                7.99013745               45.76505257                0.27449321                1.07038618                0.67839841               -2.35554114               -0.31966419                4.64705359                1.21967979
              15.92706054                7.68961761               45.52505349                0.76669948                0.86045772                0.96188651               -3.30932256                0.02815490                0.03090498               -1.54871044
               6.09704554               11.76535062               46.02619879                0.96947170                0.18502557                0.05302205               -0.34064074                0.05505270                0.34014079                0.55591807
               7.09889579               11.48748926               45.81264236                0.75768714                0.25991881                0.24562941               -0.87840382                0.08281714                0.74554402               -0.49637876
               8.10224392               11.20883153               45.60695340                0.42786497                2.02664794                0.40786258               -1.40090195               -1.67264906               14.37359540               -0.81757585
               9.13942875               10.89439789               45.66535914                0.31615015                3.16514733               -0.42491653               -1.63615259               -1.29597592               27.57183914               -0.28614523
              10.16554686               10.58499007               45.70976138                0.30647160                2.28483436               -0.02731854               -1.92339727               -0.53028338               27.29720092                0.09621365
              11.18512544               10.27228072               45.75067844                0.31580946                1.70770171                0.26740292               -2.26052413               -0.45902259               27.87205237                0.40465528
              12.19970090                9.95632274               45.79540737                0.34363593                1.20789820                0.62595961               -2.70422237               -0.52940013               29.26631837                0.76544968
              13.20928340                9.63632745               45.85385360                0.41626629                0.63779661                1.05377842               -3.46553507               -0.86453381               32.11585459                1.58660048
              14.21245683                9.31102025               45.94547843                0.53798681                0.40890341                1.43432440               -4.78990928               -1.27020708               22.35159898                3.37104705
              15.21746147                8.99731528               45.79335320                0.66300396                0.69320293                0.71778351               -2.48458298               -0.65776098                5.53840758                1.04616621
              16.22632089                8.69985401               45.54618296                0.88658715                0.88594138                1.02363979               -3.48640182                0.17990728                0.87339236               -1.20627417
               3.32645714                1.87140803               47.68285254                1.00000000               -0.52414506               -0.59734426                2.05257834               -0.12932035               -1.21923310                1.11460087
               4.32121569                1.55747356               47.52798373                1.00000000               -0.44846134               -0.36298572                1.34029153               -0.07255537               -1.67513812                0.19348116
               5.31748792                1.24277249               47.36475268                1.00000000               -0.32089352               -0.14245283                0.63661416               -0.09282774               -1.77038589               -0.20966276
               6.31479782                0.92510484               47.20853744                0.67474197               -0.47859169                0.15380893               -0.06511684               -0.64039728               -1.38540323               -0.92929097
               7.30791608                0.59310504               47.05362970                0.68386343               -0.28971035                0.23849786               -0.62663559               -0.22729820               -0.99335904                0.14988933
               8.30900362                0.25177422               46.90917402                0.68108794                0.35464688                0.41069442               -1.19839026               -0.26607699               -0.30555174               -0.02209079
               9.31500902               -0.09145816               46.77264691                0.55005371                0.94658928                0.60379444               -1.75812873               -0.13638555                0.94386441               -0.50019996
              10.32793540               -0.42973574               46.65806967                0.47407593                1.37550978                0.60759765               -1.96160627                0.03145337                2.11228400               -0.49832992
              11.34251922               -0.74774464               46.54874351                1.00000000                0.94843594                0.17677789               -0.87477411               -0.36710760                1.28053691                0.86071855
              12.34690412               -1.05568493               46.40820900                1.00000000                0.44708871                0.33167853               -1.22468379               -0.05426227               -0.44816966                0.10238751
              13.35146099               -1.36186965               46.26441481                1.00000000                0.45568702                0.46961890               -1.67404300               -0.09863125               -0.60070792               -0.56752154
               3.63909842                2.86543459               47.61588135                1.00000000               -0.42905061               -0.57788216                1.81265172               -0.00610243               -0.29949116                1.48414451
               4.63480791                2.55384370               47.46108307                1.00000000               -0.31772100               -0.33540624                1.10047582                0.04151662               -0.48502655                0.28554889
               5.63274400                2.24134796               47.30316707                1.00000000               -0.07901666               -0.11016884                0.38625034                0.00711952               -0.43472964               -0.37870709
               6.63322758                1.92664293               47.14952564                0.38835002                0.47822097                0.17786411               -0.32115833               -0.75011841                0.77746222               -1.29716206
               7.64230842                1.59549002               47.01564162                0.42637436                0.76984337                0.10209966               -1.04148105               -0.34800486                1.60089628                0.34146017
               8.64862445                1.25588116               46.88080858                0.40469755                0.60458642                0.47228492               -1.72257504               -0.36020897                1.91410792               -0.00931494
               9.65440014                0.91457979               46.75392533                0.21565552                0.38843657                0.80324131               -2.37891462               -0.27364339                3.92841422               -1.11903842
              10.65639318                0.57634024               46.65855052                0.16102320               -0.12887050                1.09452879               -2.51076650               -0.23460588                6.28724928               -1.21981626
              11.65182273                0.25402314               46.57793746                1.00000000               -0.14845856                0.15863794               -0.56887737               -0.68604316                3.44861639                0.94097512
              12.65342401               -0.05236814               46.43700989                1.00000000                0.24183343                0.28618078               -0.92751468               -0.00708429                0.23707009                0.23215556
              13.65665940               -0.35717346               46.29338441                1.00000000                0.32353978                0.43528821               -1.39324026               -0.04365131                0.08083734               -0.60052606
               3.94951688                3.85985039               47.55719359                1.00000000               -0.33842237               -0.53528486                1.56052562               -0.01041748               -0.02517266                1.84872171
               4.94613265                3.55076543               47.39628755                1.00000000               -0.23429011               -0.26865581                0.86187958                0.01547039                0.07973660                0.31722451
               5.94483107                3.24056911               47.23788892                0.80572750               -0.02396256               -0.00905480                0.14880659               -0.06959738                0.33437223               -0.92921909
               6.94565340                2.92866213               47.08195026                0.00010000                1.34433429                0.23680728               -0.55614752               -1.19321742                3.16301774               -1.73830158
               7.97171776                2.59514703               46.97931561                0.00010000                1.85281330                0.18440495               -1.55255122               -2.35810003                4.55695579               -0.48743300
               8.98270967                2.26121991               46.85077162                0.00010000                0.86796592                0.74770161               -2.28413986               -2.39563831                3.27808236                0.57793624
               9.98907708                1.92460667               46.71978758                0.00010000                0.05451315                1.29301831               -2.98361818               -2.43012483                5.87971191                1.22347346
              10.98379993                1.59215484               46.63964873                0.07796360               -1.57851734                1.68914455               -4.15088868               -2.63858899               11.27587142                0.98220531
              11.95750673                1.25542812               46.60998823                0.38668754               -1.29204461                0.04369814               -0.20533968               -1.73776613                6.57338956                1.26597538
              12.95795904                0.95003869               46.46859420                1.00000000                0.13459371                0.17930953               -0.61385120               -0.10415758                0.63007822                0.61283763
              13.96019861                0.64683611               46.32090088                1.00000000                0.22395674                0.35429202               -1.09827724               -0.05102545                0.28873747               -0.57171041
               4.25705998                4.85472889               47.49830383                1.00000000               -0.26613888               -0.47865885                1.30622754               -0.03126347                0.11021935                1.63773740
               5.25439859                4.54847058               47.33023007                1.00000000               -0.18023134               -0.17945800                0.62142884               -0.01315023                0.23296541                0.09662815
               6.25345535                4.24116687               47.16489183                0.34422182                0.01933597                0.10167624               -0.04875636               -0.14448770                1.05937665               -1.39241505
               7.25478531                3.93137908               47.01316585                0.00010000                0.45666365                0.33637764               -0.78621943               -1.35198244                4.87425815               -2.15221722
               8.26258863                3.59917812               46.92343970                0.00010000                0.82333649                0.58501586               -1.48516213               -3.32314235                8.00487337               -0.53082983
               9.27125204                3.27083519               46.83289407                0.00010000                0.61370497                0.91059122               -2.05223153               -3.53733659                8.15245731                1.56231211
              10.27486273                2.94044015               46.74576519                0.00010000                0.07739512                1.27997309               -2.44343121               -3.70104717                9.09870503                3.63794061
              11.27279994                2.61012313               46.67564744                0.00010000               -0.78395842                1.13865243               -1.98564933               -4.49712134               11.65700846                3.47928329
              12.25918356                2.25489710               46.64715916                0.00010000               -0.64335415                0.87890265               -0.29677614               -2.02751663                7.39918450               -0.93375887
              13.25993286                1.95121805               46.50541488                0.33310981                0.14302429                0.06241074               -0.45093572                0.06918270                0.85258682                1.45789754
              14.26204404                1.64991238               46.35020418                0.85987363                0.21111832               -0.15663782               -0.83207839                0.33207718                0.13024361                0.01229317
               4.56140823                5.85027721               47.43602613                1.00000000               -0.19765524               -0.40932582                1.05186145               -0.05419546                0.24637662                1.27339358
               5.55943167                5.54717627               47.26109152                0.62661374               -0.11877006               -0.06404253                0.37717784               -0.06607861                0.41753185               -0.38104631
               6.55903282                5.24260264               47.08980211                0.08739279                0.05854154                0.24289959               -0.25995381               -0.23189878                1.49142142               -1.80036922
               7.56060250                4.93538968               46.93605372                0.00010000                0.33829876                0.30080311               -0.93044529               -1.36755575                7.49795596               -0.80245278
               8.56579880                4.60684735               46.88415099                0.00010000                0.50491975                0.72084494               -1.37985001               -2.49034341               12.05269164                0.90731564
               9.57070090                4.27943174               46.81910771                0.00010000                0.49847005                0.78960443               -1.85256430               -2.65081691               11.47683708                2.11146969
              10.57576820                3.95020613               46.75459038                0.00010000                0.43498272                0.76676029               -2.03248150               -2.89530926               11.80731690                2.96773532
              11.57940055                3.61492788               46.69679927                0.00010000                0.00466382                0.50728890               -1.78195552               -3.17662537               11.76708669                2.59615189
              12.57586148                3.27300617               46.63293220                0.00010000               -0.75365677                1.45511859               -1.28603202               -1.84486818               10.36705894               -0.50234089
              13.56432742                2.95128690               46.55482000                0.17569072               -0.32049931                0.07305116               -0.49571977               -0.46410004                4.52994077                2.36591813
              14.56945149                2.64370336               46.38963699                0.70783118                0.51240729               -0.78181652               -0.94718016                0.44440941                0.13930960               -0.07877494
               4.86217795                6.84654238               47.37022111                1.00000000               -0.14263596               -0.32896006                0.80638849               -0.04190177                0.06273526                0.95322145
               5.86075159                6.54718973               47.18537865                0.42498328               -0.07869903                0.03895323                0.14434391               -0.07209061                0.42889843               -0.75457376
               6.86060397                6.24602486               47.00797809                0.00010000                0.12189474                0.41150267               -0.50272223               -0.49562034                3.93515720               -2.35037672
               7.86318949                5.93739514               46.89285878                0.00010000                0.40678641                0.19619194               -0.52305622               -1.41935726               10.98311049                1.88024005
               8.86873970                5.61359501               46.85428097                0.00010000                0.58437174                0.60257737               -1.32975002               -2.23877570               14.58560275                1.70850417
               9.87487692                5.28662728               46.80775056                0.00010000                0.63603485                0.63270154               -1.74429580               -2.43209204               14.29491030                2.46995393
              10.88146040                4.95577536               46.76032095                0.00010000                0.57952357                0.50901044               -1.94935190               -2.68561473               14.28912057                3.02068878
              11.88646739                4.62026890               46.71174467                0.00010000                0.22333894                0.50807840               -1.91117435               -2.75661146               14.00740300                2.85309720
              12.88592718                4.28399948               46.65951462                0.00010000               -0.32568579                0.81323297               -1.60438824               -2.11009743               13.37389250                2.48600312
              13.87995368                3.95267907               46.60436162                0.17799762                0.00860751                0.20546869               -0.94176626               -0.60865833                6.42836813                2.31472552
              14.88609933                3.63427605               46.42288842                0.71380895                0.61456479               -0.52407561               -1.65825698                0.11812850                0.08038323               -1.01417740
               5.15927548                7.84369801               47.30173821                0.96227531               -0.07680995               -0.24267153                0.57147144               -0.03551451                0.01579992                0.76801244
               6.15850738                7.54795534               47.10855471                0.32816670               -0.01802342                0.10255540               -0.07321713               -0.03803703                0.31031828               -0.81034768
               7.15891501                7.25083269               46.92129884                0.00010000                0.30689125                0.51030075               -0.71047145               -0.76152791                7.35887139               -2.64019245
               8.16464520                6.93931352               46.86864536                0.00010000                0.64380684                0.31763081               -0.88391588               -1.57682906               14.97960291                1.56690141
               9.17179115                6.61889890               46.82876268                0.00010000                0.76167557                0.48995523               -1.35524317               -2.08966406               16.31201803                1.88084343
              10.17987871                6.29208577               46.79793342                0.00010000                0.83115684                0.49009018               -1.75645254               -2.40023552               17.00235278                2.58861824
              11.18841428                5.96038634               46.76686200                0.00010000                0.80827467                0.42168852               -2.01453843               -2.59431860               17.04883671                3.24074095
              12.19604421                5.62508945               46.73304834                0.00010000                0.64175394                0.39574070               -2.11681235               -2.50410510               16.67637096                3.62262089
              13.20124936                5.28927083               46.69336666                0.00010000                0.29167357                0.36452705               -2.01361004               -1.87549507               15.77831633                3.48294708
              14.20187768                4.95539628               46.64452895                0.18955310                0.36853741                0.34835879               -1.45009873               -0.58295317                7.59965829                1.77940476
              15.20862011                4.63322184               46.44580475                0.72602182                0.67424302                0.18256359               -2.33214628                0.07773478                0.11517853               -1.66465021
               5.45295301                8.84168895               47.23237637                0.93483547               -0.00968408               -0.16071706                0.34044782               -0.03498052                0.01401555                0.71320191
               6.45285617                8.54924084               47.03150847                0.30353128                0.05311108                0.15296503               -0.28663455                0.00451536                0.13408941               -0.80265320
               7.45401523                8.25623087               46.83300723                0.00010000                0.53652665                0.52509395               -0.91084411               -0.91234861                9.39654083               -2.65270783
               8.46358670                7.94374776               46.81690611                0.00010000                1.00794675                0.44556697               -1.17226816               -1.81472739               18.87256444               -0.04980042
               9.47417417                7.62339412               46.80105680                0.00010000                1.08990330                0.39319654               -1.50252226               -2.10247632               19.37323407                1.48217064
              10.48538477                7.29642908               46.78748228                0.00010000                1.11980879                0.37651681               -1.85026486               -2.31054317               19.90783307                2.39590593
              11.49657034                6.96420913               46.77486987                0.00010000                1.10580144                0.36517606               -2.16869365               -2.48853190               20.12085153                3.26286973
              12.50750080                6.62818372               46.75902286                0.00010000                1.07700531                0.30078375               -2.44755166               -2.45633265               19.65024156                4.17306843
              13.51811045                6.29129002               46.73288350                0.00010000                0.84214029                0.14861204               -2.60023435               -1.76093103               17.74000439                4.58313516
              14.52434360                5.95964625               46.67887803                0.20595569                0.69462187                0.49932272               -1.89159996               -0.51295455                8.18098375                1.45292223
              15.53200289                5.63792732               46.46295248                0.73983820                0.76592828                0.63255901               -2.85392071                0.07245910                0.11718996               -1.93299357
               5.74347208                9.84048367               47.16292822                0.92254811                0.05836795               -0.07717038                0.11420571               -0.03327829                0.00641802                0.71362308
               6.74405576                9.55101464               46.95455103                0.33840283                0.13445214                0.19896966               -0.50635889                0.02399146               -0.03217311               -0.76094345
               7.74616112                9.26133457               46.74530137                0.00010000                0.85658266                0.47903557               -1.11008871               -1.07137545               11.11055032               -2.31528353
               8.76118741                8.94822486               46.75924239                0.00010000                1.54495861                0.32759114               -1.36663895               -1.97743924               22.41749146               -0.35641832
               9.77706029                8.62676283               46.76722490                0.00010000                1.58327158                0.18641170               -1.66808555               -1.94378617               22.55030681                0.93400894
              10.79285284                8.29961611               46.77381249                0.00010000                1.49143593                0.25726332               -1.99522568               -1.96405460               23.03373912                1.86593054
              11.80688901                7.96768986               46.78126430                0.00010000                1.34919131                0.37002348               -2.36627127               -2.14786592               23.57289355                2.77802246
              12.81983667                7.63110513               46.78920034                0.00010000                1.38396005                0.42321790               -2.87917397               -2.38463271               23.34762510                4.07679027
              13.83456821                7.29224307               46.78458239                0.00010000                1.25723086                0.26145669               -3.53120738               -1.73459293               19.36204381                6.51054558
              14.84498128                6.96538273               46.71008100                0.22708764                0.94694681                0.63812436               -2.25942493               -0.39384618                7.98077544                1.33409065
              15.85350715                6.64587302               46.47741474                0.75162238                0.85258629                0.89216470               -3.26394515                0.05627919                0.11919874               -2.03796570
               6.03122551               10.84014554               47.09369936                0.90646177                0.12595871                0.00918074               -0.11839820               -0.03409040               -0.01018936                0.63444591
               7.03248510               10.55322023               46.87797321                0.39457059                0.20759969                0.24407564               -0.72450077                0.01118343                0.03234444               -0.61637976
               8.03537750               10.26581159               46.66292753                0.00010000                1.30622832                0.44663323               -1.30943007               -1.34027189               12.79046831               -1.42144794
               9.05860966                9.95029958               46.70178920                0.00010000                2.42648460               -0.21371940               -1.56253439               -1.65308300               25.50118995               -0.24340111
              10.08390719                9.62712235               46.72985330                0.00010000                2.32834905               -0.08960158               -1.85120840               -1.31613208               25.43291813                0.46752337
              11.10517664                9.30157435               46.75442877                0.00010000                1.91084042                0.13601087               -2.17155972               -1.15436496               25.97830612                1.03758606
              12.12212400                8.97160960               46.78092576                0.00010000                1.50391431                0.41482542               -2.57816552               -1.30184240               26.97532584                1.64024840
              13.13525493                8.63664808               46.81359157                0.00010000                1.35084912                0.70366855               -3.23078107               -1.69713330               28.55391874                2.68551762
              14.14914099                8.29651915               46.86074458                0.00611613                1.37908998                0.90841518               -4.82383073               -1.37160625               21.26568205                5.57818671
              15.16283673                7.97240874               46.74051203                0.26468205                1.15034489                0.73986094               -2.53165239               -0.39910146                6.45745004                1.17419437
              16.17214788                7.65577061               46.49030278                0.75643293                0.93111541                1.05203705               -3.59415754                0.03217359                0.01426524               -1.71728918
               6.31664088               11.84066728               47.02274931                0.96643910                0.19724999                0.05217462               -0.34806057                0.06442341                0.33177775                0.54715510
               7.31861338               11.55589615               46.80350605                0.75193761                0.28177290                0.26759163               -0.95159547                0.09282573                0.74616183               -0.48844965
               8.32227634               11.27026724               46.59230316                0.42468153                2.41008020                0.44556510               -1.53373283               -1.90740079               14.54041278               -0.79475924
               9.36681498               10.94395047               46.64828666                0.31610162                3.85932719               -0.63491109               -1.79144988               -1.44429017               27.95248228               -0.27078601
              10.39946288               10.62497080               46.68980714                0.30654792                2.92316577               -0.21515580               -2.08214284               -0.52513888               27.74225466                0.12792984
              11.42527830               10.30233632               46.72743624                0.31559351                2.31577787                0.07619722               -2.39729118               -0.43905601               28.37940211                0.44133752
              12.44577844                9.97598637               46.76786242                0.34262594                1.78530766                0.43767701               -2.79365905               -0.49244796               29.70653819                0.77815471
              13.46098445                9.64517850               46.81856972                0.40492335                1.27984957                0.85304208               -3.50177220               -0.70579753               32.11929971                1.45989983
              14.47137543                9.31041138               46.89450421                0.52783014                0.83816711                1.38922275               -5.01761164               -1.02648315               23.90447448                3.28771466
              15.47774779                8.98017995               46.76738567                0.65891635                0.80257171                0.77712149               -2.69306589               -0.68377434                7.35272178                1.04776644
              16.48742686                8.66691377               46.50960197                0.88158591                0.96790701                1.11431518               -3.78233079                0.20127941                0.88758820               -1.32394009
               3.47273013                1.95065258               48.70416021                1.00000000               -0.56264714               -0.64277571                2.21160668               -0.14581191               -1.20144221                1.09419213
               4.46710366                1.62749109               48.54170454                1.00000000               -0.48112391               -0.37596883                1.40361763               -0.08478752               -1.64929433                0.18842213
               5.46310765                1.30350001               48.37105224                1.00000000               -0.34798182               -0.12598900                0.62097560               -0.10879766               -1.72990161               -0.21245659
               6.46014402                0.97618070               48.20746514                0.67279651               -0.58648720                0.21319049               -0.15409686               -0.63954303               -1.23246860               -0.91472933
               7.45137791                0.63453297               48.04716621                0.67111366               -0.51093200                0.35423250               -0.67650951               -0.23622782               -0.73125891                0.10989758
               8.44992538                0.28260215               47.89695539                0.66211064                0.07859913                0.51100462               -1.25343131               -0.29058715               -0.09989811               -0.02084180
               9.45294989               -0.07466955               47.75444831                0.51908858                0.63192249                0.75832363               -1.87500795               -0.32512898                1.17985179               -0.48086114
              10.46256383               -0.43376716               47.63657997                0.33755923                1.48764094                0.89640107               -2.32190317                0.08556979                3.01610449               -0.67644949
              11.48270271               -0.76996863               47.54070161                1.00000000                1.21392542                0.08697337               -0.70046357               -0.90569545                2.19394075                0.83544671
              12.48684234               -1.08486339               47.39607609                1.00000000                0.43711713                0.31199595               -1.16052626               -0.05875692               -0.40099265                0.14341041
              13.49144505               -1.39779180               47.24706790                1.00000000                0.46027113                0.52530726               -1.86922944               -0.11901197               -0.56959322               -0.52937511
               3.79443350                2.94422482               48.63471027                1.00000000               -0.46014295               -0.62054597                1.95575479               -0.00422663               -0.30046909                1.45455340
               4.78983207                2.62373140               48.47231784                1.00000000               -0.33793132               -0.34646985                1.14657705                0.04716954               -0.48642245                0.28119118
               5.78767487                2.30224012               48.30683472                1.00000000               -0.07999781               -0.09078489                0.34516178                0.01262665               -0.43436813               -0.37354079
               6.78823211                1.97831261               48.14568496                0.38582327                0.40650185                0.22925121               -0.45065304               -0.71411052                0.79136535               -1.27069352
               7.79580491                1.63807530               48.00462880                0.42518530                0.66943316                0.19849104               -1.15664321               -0.31606348                1.56846377                0.27283819
               8.80162078                1.28771219               47.86269215                0.42021151                0.60391744                0.54842302               -1.88557369               -0.35778361                1.83318624                0.00001968
               9.80788326                0.93291368               47.72846103                0.27139546                0.47241463                0.91882148               -2.68198815               -0.45247762                4.00658674               -1.02223675
              10.81106907                0.57519685               47.62951752                0.20290873               -0.43446932                1.42360941               -3.28185716               -0.40183661                8.03529612               -1.84293942
              11.79919387                0.23090111               47.57274243                1.00000000               -0.54513552                0.06191344               -0.57130255               -1.47805517                4.95590258                1.00592829
              12.80016636               -0.08174343               47.42821032                1.00000000                0.19947334                0.26912364               -0.83616821                0.01117839                0.27715603                0.29118893
              13.80318334               -0.39253872               47.27911393                1.00000000                0.30169799                0.46959257               -1.50103585               -0.01789157                0.05763755               -0.54200951
               4.11363243                3.93824166               48.57337444                1.00000000               -0.36006814               -0.57142382                1.67897317               -0.00834295               -0.02800845                1.81119363
               5.11003175                3.62056170               48.40504223                1.00000000               -0.24267248               -0.27436118                0.88818532                0.02102938                0.06579371                0.31148694
               6.10877898                3.30168431               48.23905081                0.79671549               -0.00025576                0.01868012                0.08117324               -0.07571670                0.31498696               -0.88926736
               7.11002664                2.98076573               48.07561678                0.00010000                1.34390353                0.28450374               -0.72023432               -1.18223353                3.01840170               -1.70210990
               8.13565705                2.63850279               47.96287138                0.00010000                1.89523454                0.27007082               -1.71875411               -2.35058840                4.23438872               -0.27870226
               9.14793133                2.29357061               47.82659207                0.00010000                1.03793159                0.84411576               -2.52126125               -2.58910798                3.03133404                0.98690323
              10.15641569                1.94370688               47.68823988                0.03248739                0.43041752                1.42521119               -3.29973394               -2.95974861                5.23659335                1.90967929
              11.15653968                1.59470503               47.59244371                0.37082654               -2.31668986                2.11815975               -4.85028802               -4.11548572               13.43314608                2.00117194
              12.11008189                1.23126964               47.60891620                0.56851392               -2.30169681                0.10901608               -0.11552051               -2.63798183                9.07826995                1.09046167
              13.11050574                0.92051908               47.46351725                1.00000000                0.12979578                0.15566180               -0.42912724               -0.05471683                0.60320853                0.59336704
              14.11267780                0.61160006               47.30982775                1.00000000                0.21720627                0.35306925               -1.13030089               -0.03622026                0.18868383               -0.51437157
               4.42962657                4.93279635               48.51182881                1.00000000               -0.28165636               -0.50399006                1.39934644               -0.03134539                0.10326225                1.60165132
               5.42681000                4.61824418               48.33644032                1.00000000               -0.18350296               -0.17822686                0.62756739               -0.01197241                0.23942593                0.08566728
               6.42595651                4.30261372               48.16408964                0.32600603                0.04794795                0.14114692               -0.11332751               -0.16866279                1.03293894               -1.34881383
               7.42776896                3.98400268               48.00432733                0.00010000                0.50158767                0.40020287               -0.98113801               -1.37167988                4.85077685               -2.06895193
               8.43598826                3.64347672               47.90741936                0.00010000                0.84327863                0.69733284               -1.71104493               -3.35156634                8.01617955               -0.01314525
               9.44463453                3.30459451               47.81091165                0.00010000                0.57828040                1.08522328               -2.34066818               -3.82634207                8.24831446                2.31264245
              10.44755387                2.96141791               47.71938744                0.00010000               -0.17189729                1.55047271               -2.82174985               -4.26394044                9.75875394                4.69991620
              11.44119659                2.61756004               47.65467924                0.00010000               -1.34668442                1.48552348               -2.30097091               -6.18250878               13.44064765                5.30517054
              12.42062018                2.23308143               47.64448864                0.00010000               -1.12274895                1.54854512               -0.38733317               -2.62655625                8.87150067               -1.60148868
              13.41874161                1.92136980               47.50200095                0.25148425               -0.01615980                0.23554486               -0.22104320                0.24113449                1.06275913                1.21945838
              14.42029698                1.61452266               47.34219513                0.80007397                0.15553746               -0.31475339               -0.77632890                0.60525790                0.14083577               -0.18477088
               4.74210985                5.92816186               48.44691374                1.00000000               -0.21349285               -0.42286403                1.12609845               -0.05337172                0.22891380                1.24149265
               5.73997493                5.61699716               48.26471713                0.60246121               -0.12313139               -0.05761902                0.35550159               -0.05294744                0.42467022               -0.38147384
               6.73964723                5.30450725               48.08669918                0.07261591                0.08775613                0.27280898               -0.37022475               -0.23448056                1.50654510               -1.77680077
               7.74173005                4.98876978               47.92588019                0.00010000                0.41933373                0.36933677               -1.11287104               -1.33109787                7.61827280               -0.37207523
               8.74803390                4.65244945               47.86925267                0.00010000                0.58666229                0.83880048               -1.60197159               -2.45083740               12.25157953                1.41058150
               9.75346329                4.31527507               47.79927729                0.00010000                0.50687211                0.97074734               -2.11826500               -2.70822518               11.81380023                2.76923952
              10.75817134                3.97471633               47.73298256                0.00010000                0.38813433                1.02525349               -2.31363816               -3.12599890               12.54615530                3.76434571
              11.76122598                3.62441550               47.67807438                0.00010000               -0.22151698                0.74300704               -2.02576556               -3.65093658               12.93345611                3.07952491
              12.75374100                3.26224055               47.62000137                0.00010000               -1.36693906                2.33430050               -1.41905740               -2.12791874               11.85703700               -0.95429350
              13.73388720                2.92522998               47.55057790                0.13878029               -0.76318785                0.51553050               -0.38891350               -0.45950735                5.38251014                2.05424831
              14.73847725                2.60530499               47.37977310                0.67760421                0.45900473               -0.94455486               -1.08441060                0.59853965                0.21540107               -0.84283136
               5.05088853                6.92433906               48.37854542                1.00000000               -0.14828704               -0.33725445                0.86132368               -0.03965796                0.05394213                0.93290784
               6.04940566                6.61709180               48.18669233                0.40636941               -0.06971302                0.04793056                0.11642259               -0.06105059                0.42595853               -0.73948694
               7.04949427                6.30806990               48.00240916                0.00010000                0.18995725                0.43291303               -0.61005190               -0.48451045                4.27204465               -2.31232981
               8.05320480                5.99138942               47.88709234                0.00010000                0.54859767                0.28882858               -0.64119539               -1.27639718               11.24764117                2.20948680
               9.06046622                5.66025272               47.83998005                0.00010000                0.74991729                0.68550975               -1.53986258               -2.08517134               14.64770149                2.12465299
              10.06820315                5.32400946               47.78924023                0.00010000                0.77136228                0.74209647               -1.97012512               -2.36530729               14.70629892                2.98440759
              11.07589347                4.98192298               47.73989353                0.00010000                0.62252459                0.64118640               -2.15901268               -2.72875023               14.98526143                3.51545149
              12.08065364                4.63242018               47.69207456                0.00010000                0.06769269                0.75263039               -2.06671791               -2.98832264               15.03949522                3.12869281
              13.07724732                4.27976744               47.64348883                0.00010000               -0.70833111                1.32335820               -1.66224848               -2.34177164               14.77016925                2.43932352
              14.06648702                3.93168041               47.59482003                0.15466076               -0.25647824                0.58078804               -0.99203003               -0.58503758                7.27664061                1.96121221
              15.07211776                3.59563156               47.40482395                0.69225437                0.56307375               -0.42064342               -1.97552183                0.12380954                0.13063039               -1.78077767
               5.35581122                7.92141677               48.30765458                0.96161606               -0.07881477               -0.24994187                0.61322006               -0.03530061                0.01182643                0.75767111
               6.35502307                7.61795577               48.10763599                0.31279107               -0.00759113                0.11458650               -0.11145021               -0.03159842                0.31090811               -0.78953900
               7.35565940                7.31316551               47.91363785                0.00010000                0.44981041                0.54276159               -0.82476636               -0.72305608                7.59166000               -2.58387930
               8.36401928                6.99454636               47.85876791                0.00010000                0.90255181                0.40566562               -1.09479809               -1.42904894               15.33568071                1.55365351
               9.37371044                6.66615965               47.81428769                0.00010000                1.02338061                0.52531782               -1.55190488               -1.93390515               16.60535599                2.17864638
              10.38448689                6.33011700               47.77947270                0.00010000                1.07375872                0.51770836               -1.94986602               -2.26842328               17.44735920                2.96416544
              11.39518561                5.98754006               47.74605346                0.00010000                0.95640850                0.48311895               -2.16628401               -2.51738126               17.71411433                3.57357188
              12.40361506                5.63946810               47.71167878                0.00010000                0.62298653                0.56093848               -2.18694149               -2.50443370               17.60149577                3.77077642
              13.40764534                5.28870771               47.67358080                0.00010000                0.13536286                0.65061844               -1.98844235               -1.98038026               17.06423207                3.32576054
              14.40632232                4.93684574               47.62961662                0.17529040                0.27028972                0.53229693               -1.52994275               -0.60873040                8.39530250                1.49602996
              15.41305114                4.59689212               47.42090339                0.71098654                0.67288131                0.39067187               -2.62739327                0.09809607                0.14077413               -2.11740207
               5.65710452                8.91934023               48.23592098                0.92736160               -0.00795683               -0.16731548                0.37006139               -0.03602145                0.01741122                0.70763736
               6.65702495                8.61938353               48.02841227                0.29005079                0.06690230                0.16930545               -0.33404626                0.00998021                0.14008308               -0.78281585
               7.65844256                8.31892514               47.82332228                0.00010000                0.73023724                0.56334328               -1.02772117               -0.87579361                9.59315985               -2.59714639
               8.67162969                7.99950273               47.80433785                0.00010000                1.38874555                0.45818357               -1.34976293               -1.71990091               19.26380955                0.03946158
               9.68621747                7.67075908               47.78513551                0.00010000                1.49122898                0.36071700               -1.69475480               -1.99064407               19.78765146                1.69130018
              10.70145427                7.33436362               47.76819916                0.00010000                1.49886353                0.32344350               -2.02013360               -2.16520601               20.40320227                2.67294905
              11.71619474                6.99158536               47.75270474                0.00010000                1.39715230                0.33545587               -2.27534312               -2.31854956               20.73712682                3.49205778
              12.72939732                6.64363895               47.73471023                0.00010000                1.20336690                0.34265089               -2.42973518               -2.29294031               20.43559769                4.17826279
              13.74026208                6.29277981               47.70793785                0.00010000                0.83653422                0.29997153               -2.42635500               -1.81095712               18.98499098                4.18316085
              14.74612800                5.94232635               47.65944156                0.19582786                0.68624185                0.59746979               -1.97495620               -0.60393013                9.01191164                1.24617752
              15.75398692                5.60344500               47.43301534                0.72763675                0.78589162                0.78072726               -3.08706079                0.08103890                0.11949711               -2.19412778
               5.95500419                9.91807046               48.16415514                0.91698762                0.06335850               -0.08260048                0.13294689               -0.03397653                0.00582242                0.70718095
               6.95563777                9.62134188               47.94921676                0.32567658                0.15100708                0.21834064               -0.56214314                0.02818827               -0.02283936               -0.74351171
               7.95802433                9.32443238               47.73360567                0.00010000                1.10747738                0.51985152               -1.23186611               -1.08281543               11.31337034               -2.26337468
               8.97778732                9.00371003               47.74479579                0.00010000                2.05061669                0.26160208               -1.53434502               -1.95611378               22.83659536               -0.24301455
               9.99903666                8.67337399               47.74971578                0.00010000                2.12845903                0.06361976               -1.84850839               -1.87658630               23.01776180                1.10316562
              11.02035650                8.33658587               47.75315196                0.00010000                2.02513135                0.11855220               -2.14951738               -1.83517079               23.56435384                2.06949044
              12.03953929                7.99424918               47.75721869                0.00010000                1.81026537                0.23423192               -2.44343591               -1.95487588               24.12090637                2.93970356
              13.05656181                7.64632112               47.76075530                0.00010000                1.65997558                0.32458424               -2.78370979               -2.12011498               23.89452190                4.02663950
              14.07273880                7.29470714               47.75154411                0.00010000                1.35083594                0.27695578               -3.08798130               -1.68710344               20.66037523                5.70312365
              15.08357853                6.94879513               47.68686157                0.21813870                0.98479068                0.69951586               -2.35075035               -0.51408603                9.02846427                1.19772009
              16.09243461                6.61250666               47.44352525                0.74027712                0.88560880                0.98198012               -3.45168943                0.06002368                0.11088741               -2.21390550
               6.24988215               10.91768822               48.09254417                0.90020902                0.13446483                0.00616715               -0.11077078               -0.03561561               -0.00780150                0.62544635
               7.25122679               10.62375034               47.87041044                0.38185967                0.22679794                0.26563563               -0.78974685                0.01306823                0.04701740               -0.60324380
               8.25441810               10.32932217               47.64920400                0.00010000                1.61695073                0.48763576               -1.43824202               -1.43841677               12.99375520               -1.38406800
               9.28356581               10.00473477               47.68538520                0.00010000                3.06958982               -0.38613848               -1.73118880               -1.70517976               25.93367260               -0.17214072
              10.31580990                9.67203148               47.71053219                0.00010000                3.01549284               -0.28665019               -2.02863737               -1.28971952               25.93562758                0.57078319
              11.34387567                9.33673467               47.73203567                0.00010000                2.57760385               -0.07466695               -2.31873068               -1.07298879               26.54344084                1.15999266
              12.36736198                8.99626999               47.75480596                0.00010000                2.13306945                0.18816669               -2.63870988               -1.17225713               27.50863287                1.74060499
              13.38653705                8.65013064               47.78154946                0.00010000                1.83420103                0.46240078               -3.11226804               -1.47426329               28.67021702                2.63504590
              14.40404600                8.29831892               47.81470561                0.00010000                1.57548513                0.72740679               -4.16280231               -1.24111995               22.69527171                4.94489633
              15.41804676                7.95631667               47.71441952                0.25663991                1.18591671                0.78640966               -2.64676651               -0.46973467                8.01016381                1.11814421
              16.42776433                7.62308460               47.45317034                0.74542314                0.97175755                1.11350892               -3.75758746                0.03706564               -0.01720315               -1.82225404
               6.54216762               11.91819380               48.01923758                0.96278802                0.20975664                0.05055847               -0.35243954                0.07462653                0.32273567                0.53852210
               7.54426519               11.62665459               47.79361045                0.74566985                0.30519711                0.29042480               -1.02870147                0.10340395                0.74976862               -0.47977330
               8.54827156               11.33418509               47.57627875                0.42158269                2.83546123                0.48629281               -1.67566380               -2.14802076               14.72911870               -0.76893331
               9.60097441               10.99598726               47.62953014                0.31605042                4.64854059               -0.87475140               -1.97214261               -1.58634517               28.37665668               -0.24693804
              10.64124238               10.66764098               47.66811852                0.30662520                3.68418962               -0.43904939               -2.26976734               -0.50148873               28.25387700                0.17036060
              11.67465821               10.33509253               47.70273262                0.31533398                3.07278995               -0.16421330               -2.55257539               -0.40316965               28.98256798                0.49016286
              12.70269817                9.99801251               47.73953419                0.34162614                2.51847033                0.17425158               -2.86093355               -0.44255022               30.28519028                0.80594898
              13.72502761                9.65556914               47.78381815                0.39538631                1.95160976                0.54384980               -3.37151059               -0.58880601               32.27867744                1.36012051
              14.74173037                9.30925528               47.84512620                0.52082308                1.21952699                1.09363522               -4.51293174               -0.78385331               25.38875068                2.94047708
              15.74941815                8.96452333               47.73949188                0.65546505                0.89548434                0.82066585               -2.84830801               -0.58678224                9.00881497                1.02382040
              16.75964006                8.63477684               47.47053634                0.87600835                1.02219051                1.16922382               -3.95637964                0.21292384                0.87707561               -1.40579587
               3.62733963                2.03219174               49.72708467                1.00000000               -0.60018603               -0.68803227                2.37181122               -0.16420704               -1.16570202                1.06205812
               4.62133777                1.70001540               49.55605608                1.00000000               -0.51051750               -0.38855706                1.46425191               -0.09994393               -1.59406150                0.18080058
               5.61712928                1.36695839               49.37717220                1.00000000               -0.36516468               -0.10798154                0.59853455               -0.12621662               -1.64498149               -0.21509352
               6.61403448                1.03037062               49.20545550                0.66079269               -0.66643138                0.27068039               -0.25630067               -0.60639593               -0.97104706               -0.90059455
               7.60380066                0.68037781               49.04009951                0.63894020               -0.71554625                0.48637999               -0.76330519               -0.23735394               -0.28853998                0.05951868
               8.59972356                0.31988385               48.88410540                0.61703217               -0.24095894                0.63610201               -1.35630400               -0.30069333                0.30542281               -0.03119737
               9.59898148               -0.04910082               48.73514675                0.47838659                0.11403154                0.94443048               -2.02208260               -0.57868111                1.57621805               -0.41559079
              10.60200419               -0.42913984               48.61163161                0.26006250                1.39602164                1.27575394               -2.66728589               -0.21947484                4.34838421               -0.65210676
              11.62690191               -0.79511734               48.53473424                1.00000000                1.52568983                0.10444613               -0.96364653               -1.86265992                2.88710714                0.95301925
              12.63251798               -1.11708518               48.38499847                1.00000000                0.55917977                0.30996551               -1.28766686               -0.06382952               -0.38729292                0.13290280
              13.63808551               -1.43654921               48.22703022                1.00000000                0.55675234                0.57757118               -2.11714712               -0.15446005               -0.67015798               -0.43358139
               3.95787390                3.02531142               49.65499644                1.00000000               -0.49188939               -0.66180114                2.10059301               -0.00408383               -0.29387237                1.41128178
               4.95295501                2.69612983               49.48401461                1.00000000               -0.35921967               -0.35713593                1.19096368                0.05007709               -0.47294748                0.27269005
               5.95068951                2.36587858               49.31007031                1.00000000               -0.08471003               -0.07147697                0.29923429                0.01872831               -0.41187609               -0.36928952
               6.95126081                2.03307742               49.14051258                0.37072390                0.29904943                0.28034730               -0.58850804               -0.62352863                0.88599499               -1.24565041
               7.95667050                1.68524161               48.99250875                0.40576904                0.50975647                0.32023059               -1.27464642               -0.26014788                1.66503116                0.19767601
               8.96145594                1.32624487               48.84309711                0.43408849                0.55180058                0.64273123               -2.04128033               -0.33269173                1.80722687                0.02333991
               9.96770651                0.96034349               48.70028557                0.41122409                0.56808787                1.04873308               -2.95607396               -0.68256719                3.87029871               -0.77860370
              10.97281770                0.58361770               48.59291337                1.00000000               -0.77292630                1.80781967               -3.99470585               -1.23170076                9.74040655               -1.72623660
              11.95224799                0.20592712               48.56651141                1.00000000               -1.01110349                0.03042401               -1.19321873               -2.82532770                7.23401746                1.57165025
              12.95259563               -0.11398553               48.42028652                1.00000000                0.18784758                0.26002904               -0.80190389               -0.00534770                0.52315936                0.34743570
              13.95600494               -0.43077350               48.26336369                1.00000000                0.34093102                0.50083478               -1.64745899               -0.01550815                0.02980386               -0.45274786
               4.28562113                4.01895572               49.59077306                1.00000000               -0.38489744               -0.60444008                1.80060106               -0.00688857               -0.02868232                1.75613065
               5.28177216                3.69287268               49.41405126                1.00000000               -0.25324364               -0.28104000                0.91344251                0.02722042                0.05576222                0.30294680
               6.28055626                3.36552885               49.23951238                0.79057551                0.02143549                0.03318243                0.01230930               -0.06787498                0.29619600               -0.83789669
               7.28220087                3.03597756               49.06754557                0.00010000                1.24369929                0.33296043               -0.89376552               -1.07680531                2.92730234               -1.65194396
               8.30543025                2.68678243               48.94494053                0.00010000                1.78834901                0.36461540               -1.85042577               -2.17908469                3.96178010               -0.07893750
               9.31796785                2.33273848               48.80034639                0.00010000                1.12635281                0.90789741               -2.71191427               -2.60571370                2.73442770                1.44656008
              10.32795730                1.97187384               48.65379290                0.16071498                0.69093409                1.46761538               -3.58689665               -3.35791040                4.50171451                2.84265287
              11.33178653                1.60701656               48.54264297                0.86033079               -2.99793574                2.34890814               -5.02956500               -6.13443486               15.25116081                3.95151214
              12.26799859                1.20549114               48.60767782                0.92548046               -3.13374378                0.29275139               -0.13445602               -4.09286443               12.06184413                1.33765388
              13.26911166                0.88811540               48.46001165                1.00000000                0.16763516                0.12660507               -0.30515326               -0.05688669                0.81550070                0.59398919
              14.27135129                0.57346748               48.29829486                1.00000000                0.22396357                0.35225554               -1.15667868               -0.04141817                0.10700189               -0.42918250
               4.60990220                5.01322262               49.52629076                1.00000000               -0.29759189               -0.52826289                1.49522982               -0.03342856                0.10748397                1.55329446
               5.60692629                4.69050903               49.34278142                0.95410299               -0.18375367               -0.17889481                0.63617025               -0.01564542                0.25858213                0.06839581
               6.60622713                4.36654222               49.16262528                0.30435279                0.07724216                0.16091262               -0.19127892               -0.16640016                0.99617031               -1.31085227
               7.60847113                4.03973663               48.99354308                0.00010000                0.50503796                0.46028007               -1.16613824               -1.28973503                4.82903111               -1.94214212
               8.61632789                3.69253392               48.88921880                0.00010000                0.78895597                0.78579322               -1.91644870               -3.16653809                8.04937388                0.51936259
               9.62425025                3.34440282               48.78608071                0.00010000                0.49711660                1.18747381               -2.60739019               -3.87794844                8.31502152                3.14220218
              10.62627022                2.98969579               48.68933020                0.00010000               -0.38692757                1.65565555               -3.16616009               -4.69350217               10.37772274                6.03938521
              11.61651170                2.63059587               48.62962802                0.00010000               -1.84891832                1.60532515               -2.72613007               -7.93246549               15.49404036                7.54250193
              12.58929186                2.21178215               48.63941249                0.00010000               -1.65150712                2.47144881               -1.02071792               -3.47745891               11.03628225               -1.76409235
              13.58348155                1.88854657               48.50099402                0.18228107               -0.24097254                0.57186953               -0.00323764                0.37918466                1.60717376                0.86374704
              14.58447241                1.57627161               48.33467760                0.74968089                0.09908506               -0.46247853               -0.69662912                0.97339413                0.16276163               -0.52712762
               4.93037974                6.00839046               49.45854810                1.00000000               -0.22400910               -0.43814589                1.20095900               -0.05652948                0.21344802                1.20379412
               5.92813964                5.68929479               49.26820155                0.57527100               -0.11895377               -0.05139499                0.34128450               -0.05813108                0.42985216               -0.38964788
               6.92800066                5.36874710               49.08239761                0.05702905                0.11374132                0.31486842               -0.48146104               -0.23469469                1.53581386               -1.76877809
               7.93041447                5.04518316               48.91379630                0.00010000                0.47163166                0.44802678               -1.30250610               -1.20742605                7.77536176                0.13144727
               8.93743329                4.70249829               48.85211156                0.00010000                0.64162694                0.92595663               -1.82101546               -2.27386321               12.48596118                1.95254134
               9.94324701                4.35648795               48.77674241                0.00010000                0.52304603                1.08586027               -2.38145532               -2.63360852               12.17824582                3.52836859
              10.94789421                4.00498695               48.70831761                0.00010000                0.39019258                1.16588471               -2.61811361               -3.26519094               13.35925972                4.76396007
              11.95105086                3.63912306               48.65628396                0.00010000               -0.36977555                0.93212513               -2.37831787               -4.14582622               14.24640777                3.89936624
              12.94049870                3.25492012               48.60455106                0.00010000               -1.94224843                3.37121860               -1.75982746               -2.51385217               13.75705720               -0.98289644
              13.91220589                2.89955279               48.54704173                0.10752697               -1.25647997                1.21590087               -0.41175171               -0.50161986                6.60614511                1.68346429
              14.91536910                2.56421791               48.36794878                0.65090435                0.31632107               -0.93707033               -1.30489572                0.67809724                0.30291715               -1.77803418
               5.24696296                7.00445970               49.38744758                1.00000000               -0.15559425               -0.34572941                0.92033979               -0.03938456                0.04524765                0.90812200
               6.24540702                6.68948113               49.18770710                0.38634066               -0.06590518                0.05749142                0.08642019               -0.05087410                0.42870911               -0.72228201
               7.24564486                6.37283959               48.99577705                0.00010000                0.25822002                0.47474393               -0.72598541               -0.45841671                4.64576487               -2.26139965
               8.25057142                6.04869716               48.88003487                0.00010000                0.69504881                0.39789565               -0.78213935               -1.07460153               11.54129680                2.56026029
               9.25954584                5.71105305               48.82348371                0.00010000                0.92589966                0.74090345               -1.76465404               -1.84084787               14.73423726                2.57235649
              10.26908942                5.36612003               48.76834806                0.00010000                0.93927299                0.79610960               -2.21228115               -2.21132272               15.18910929                3.56422948
              11.27833130                5.01301349               48.71714070                0.00010000                0.72862952                0.70298065               -2.40399886               -2.71426898               15.78880719                4.13837797
              12.28366201                4.64923837               48.67041031                0.00010000                0.01268942                0.93731243               -2.29346415               -3.21555171               16.25321141                3.61699141
              13.27858509                4.27920652               48.62626966                0.00010000               -0.97553195                1.82084479               -1.82937469               -2.61381632               16.43061357                2.64636715
              14.26415137                3.91286459               48.58452102                0.13603775               -0.49404902                1.05712808               -1.10581838               -0.57105426                8.31032684                1.62632081
              15.26870410                3.55753020               48.38337799                0.67369575                0.45527379               -0.07677476               -2.30744554                0.14120843                0.21643341               -2.41038792
               5.55954918                8.00147587               49.31400261                0.96113830               -0.08069114               -0.25592837                0.65567212               -0.03534192                0.00906022                0.74514896
               6.55874227                7.69044461               49.10632570                0.29694158                0.00335556                0.12613100               -0.15048226               -0.01921935                0.31483409               -0.76305836
               7.55961629                7.37824198               48.90480351                0.00010000                0.59833542                0.57402660               -0.94500868               -0.64977720                7.81962865               -2.51503352
               8.57070898                7.05314108               48.84674940                0.00010000                1.17885910                0.49059692               -1.31277040               -1.22236905               15.71956117                1.52724114
               9.58319347                6.71731636               48.79772459                0.00010000                1.31755724                0.53694860               -1.77058439               -1.71054433               16.97263005                2.49408687
              10.59706012                6.37241015               48.75893610                0.00010000                1.36485085                0.50443886               -2.16918804               -2.07398127               17.97960862                3.37412281
              11.61049049                6.01904657               48.72353632                0.00010000                1.17433332                0.49357868               -2.35388039               -2.40351602               18.51162274                3.97662345
              12.62054679                5.65786931               48.68930951                0.00010000                0.70528318                0.67170399               -2.31482156               -2.51959569               18.71153625                4.04720509
              13.62459615                5.29133702               48.65359781                0.00010000                0.09571703                0.88916966               -2.04990211               -2.13400532               18.51711467                3.34704542
              14.62246113                4.92069535               48.61393010                0.16484484                0.21329473                0.72301282               -1.60494079               -0.66508064                9.26121121                1.28138955
              15.62886205                4.56268242               48.39325689                0.69814386                0.64009193                0.69463546               -2.85598925                0.12576522                0.17089236               -2.33851967
               5.86831864                8.99934113               49.23977760                0.92006424               -0.00621165               -0.17358868                0.40223544               -0.03793333                0.02072136                0.70178763
               6.86825653                8.69200375               49.02482754                0.27587903                0.08171066                0.18508110               -0.38363669                0.01925800                0.15115199               -0.75700137
               7.86995285                8.38432012               48.81245280                0.00010000                0.93965696                0.59716890               -1.15175286               -0.81307222                9.80172549               -2.52758390
               8.88704966                8.05850910               48.78991085                0.00010000                1.80565133                0.45880711               -1.54332843               -1.57139364               19.68171008                0.15554588
               9.90606588                7.72179203               48.76716170                0.00010000                1.94149593                0.30565517               -1.91251608               -1.82172069               20.26197039                1.90858721
              10.92587958                7.37620880               48.74707961                0.00010000                1.93679655                0.23796300               -2.21843785               -1.96650368               20.99336836                2.96350051
              11.94480181                7.02288506               48.72936301                0.00010000                1.75500296                0.26680746               -2.40938361               -2.11615243               21.49900932                3.75362806
              12.96097964                6.66267245               48.71042816                0.00010000                1.41385626                0.34646883               -2.45036135               -2.15201256               21.42046496                4.27787849
              13.97307894                6.29698992               48.68435640                0.00010000                0.92623559                0.41003887               -2.32689442               -1.91371567               20.29989373                4.01821389
              14.97950435                5.92732485               48.63937891                0.18881033                0.70831697                0.68319108               -2.01337331               -0.72293514                9.80034805                1.09561223
              15.98724528                5.57142291               48.40121127                0.71656236                0.77409234                0.93787479               -3.20998030                0.08658142                0.11820223               -2.26443577
               6.17346528                9.99800410               49.16558715                0.91114952                0.06831605               -0.08845549                0.15535656               -0.03487171                0.00525600                0.70198177
               7.17414844                9.69414624               48.94330816                0.31267488                0.16921096                0.23789584               -0.62105763                0.03451724               -0.00811357               -0.72137909
               8.17684950                9.39018536               48.72066405                0.00010000                1.38303829                0.55685130               -1.36027074               -1.07520109               11.53345181               -2.20109516
               9.20180920                9.06231722               48.72855549                0.00010000                2.61049320                0.18066579               -1.72471453               -1.89253182               23.28433509               -0.11828652
              10.22905936                8.72342946               48.73025473                0.00010000                2.74139060               -0.08283724               -2.05867260               -1.76222124               23.53927650                1.27941087
              11.25663702                8.37716941               48.73082214                0.00010000                2.63222184               -0.05076278               -2.33141796               -1.65773203               24.18453719                2.27676877
              12.28170380                8.02438272               48.73239559                0.00010000                2.33823328                0.06105654               -2.53057968               -1.71948301               24.82954551                3.11445861
              13.30340168                7.66479869               48.73352615                0.00010000                1.99828230                0.18068460               -2.66547809               -1.85324702               24.71400480                4.03511268
              14.32166944                7.29953779               48.72282277                0.00010000                1.50838766                0.24225359               -2.68367877               -1.66710467               21.92182067                5.24540421
              15.33356943                6.93435917               48.66306600                0.21220031                1.03640534                0.74082345               -2.36907429               -0.65134809                9.85977899                1.09130441
              16.34239755                6.58143991               48.40838095                0.72927518                0.88281159                1.04457639               -3.50312464                0.06091946                0.09511681               -2.25024021
               6.47533693               10.99757202               49.09148394                0.89376576                0.14286771                0.00233986               -0.09945295               -0.03680691               -0.00506159                0.61717643
               7.47676561               10.69676167               48.86217828                0.36812762                0.24704597                0.28772108               -0.85796638                0.01521380                0.06772006               -0.58714764
               8.48027785               10.39545715               48.63416269                0.00010000                1.95946585                0.52768612               -1.57423466               -1.52748617               13.21631968               -1.34172412
               9.51595493               10.06212242               48.66716542                0.00010000                3.78457095               -0.57976995               -1.92451441               -1.73113655               26.39603538               -0.09461102
              10.55596927                9.72013528               48.68928055                0.00010000                3.79083819               -0.51120565               -2.23712223               -1.23251446               26.48927588                0.67780339
              11.59177169                9.37519355               48.70805415                0.00010000                3.34068010               -0.32118575               -2.49100586               -0.95760618               27.19342203                1.28340864
              12.62278287                9.02410619               48.72815156                0.00010000                2.84939668               -0.08669162               -2.69333424               -1.01072498               28.19847940                1.84500448
              13.64875962                8.66628614               48.75134621                0.00010000                2.36967432                0.15224167               -2.89559074               -1.23534441               29.20562344                2.62152490
              14.67017636                8.30183499               48.77748853                0.00010000                1.79078253                0.44209723               -3.23310368               -1.11687741               23.96644514                4.50459983
              15.68457527                7.94214132               48.68757670                0.25154651                1.20629139                0.80762379               -2.67200317               -0.52880180                9.09070313                1.06022610
              16.69430219                7.59231444               48.41515103                0.73409201                0.97269124                1.13129665               -3.76343932                0.04140716               -0.05298426               -1.83678985
               6.77434985               11.99805090               49.01570052                0.95894799                0.22177375                0.04788743               -0.35267689                0.08626781                0.31356253                0.52983488
               7.77656759               11.69990066               48.78293202                0.73832784                0.32945870                0.31389910               -1.10777995                0.11460695                0.75677274               -0.46915089
               8.78093902               11.40073908               48.55878988                0.41865921                3.29703778                0.52819324               -1.82681451               -2.39282488               14.93591896               -0.74316154
               9.84250834               11.05072182               48.60884380                0.31593054                5.51994601               -1.14005987               -2.17517690               -1.72134516               28.83242380               -0.21468194
              10.89133794               10.71320535               48.64441180                0.30669035                4.55028205               -0.69299323               -2.48400330               -0.46193929               28.81790658                0.21994085
              11.93351398               10.37074569               48.67638473                0.31511364                3.95293810               -0.44478571               -2.72552951               -0.35359410               29.66769665                0.54629609
              12.97039670               10.02264888               48.71064375                0.34064950                3.37260061               -0.14573085               -2.91037415               -0.38372537               31.01834174                0.84766382
              14.00096599                9.66784352               48.75113951                0.38785922                2.65400076                0.15573781               -3.11661627               -0.49282016               32.81519168                1.31382551
              15.02347672                9.30837974               48.80424557                0.51793719                1.57739772                0.65447483               -3.52234306               -0.53655750               26.67925048                2.65700546
              16.03251395                8.95051165               48.71041951                0.65357253                0.97013639                0.83703311               -2.91160642               -0.42182721               10.15629468                0.97683469
              17.04287945                8.60406584               48.43047437                0.87004837                1.03654987                1.17514053               -3.97005958                0.21314580                0.84274945               -1.42850022
               3.79147328                2.11607020               50.75159643                1.00000000               -0.63383730               -0.73081296                2.52443051               -0.18337468               -1.11332220                1.02035908
               4.78513491                1.77519003               50.57098958                1.00000000               -0.53323403               -0.40000061                1.51742059               -0.11697974               -1.51172114                0.17140478
               5.78080860                1.43340192               50.38302293                1.00000000               -0.36695680               -0.08877715                0.56474737               -0.14368976               -1.52091037               -0.21627009
               6.77779577                1.08805466               50.20233913                0.63766706               -0.69256934                0.32548642               -0.37883144               -0.55307388               -0.62246744               -0.88463937
               7.76695721                0.73090485               50.03190011                0.59158540               -0.84045891                0.62829419               -0.92556924               -0.24661576                0.31660398                0.01334545
               8.76098659                0.36399478               49.86982931                0.55500461               -0.50045868                0.79432181               -1.58395867               -0.30800170                0.95661512               -0.05601354
               9.75694804               -0.01325899               49.71400666                0.45825584               -0.55212817                1.19544538               -2.34184490               -0.81588721                2.35701304               -0.35284589
              10.74994403               -0.40937282               49.58323425                0.32861301                0.50649767                1.90335823               -3.18809972               -1.08944650                6.38997812               -0.28534999
              11.76707799               -0.81446258               49.52142868                0.40923462                1.84282365                0.38531117               -2.23452885               -2.22812362                2.96045670                2.05277812
              12.78680050               -1.15278144               49.37032275                1.00000000                1.34502007                0.29735460               -1.54789809               -0.53571378                0.24767411                0.26134133
              13.79397840               -1.47913037               49.20472496                1.00000000                0.71778913                0.62720441               -2.31883610               -0.27022377               -0.43102246               -0.34314956
               4.13051971                3.10876207               50.67672213                1.00000000               -0.52204518               -0.70001241                2.23935883               -0.00574968               -0.27893846                1.35683736
               5.12529925                2.77119003               50.49613711                1.00000000               -0.37901588               -0.36681043                1.22984467                0.05124177               -0.44361489                0.26227350
               6.12293939                2.43251415               50.31281941                1.00000000               -0.08928440               -0.05152566                0.24733002                0.02597428               -0.36670907               -0.36274708
               7.12351357                2.09130953               50.13391480                0.34674043                0.17908054                0.33208384               -0.73607170               -0.49887956                1.06401268               -1.22109617
               8.12652100                1.73718779               49.97913587                0.37572952                0.32374675                0.46545731               -1.43026841               -0.21184550                1.93593324                0.12472205
               9.12998850                1.37193800               49.82186655                0.44873211                0.44759845                0.77617164               -2.25746110               -0.28557109                1.94886413                0.03074167
              10.13547297                0.99869546               49.66933955                0.62730839                0.48314279                1.23871489               -3.29618620               -0.75359364                3.78119166               -0.51473387
              11.13965136                0.60966076               49.54962340                1.00000000               -0.94859498                2.31967202               -4.74936048               -2.57854882               11.34913546               -0.92076046
              12.11650107                0.18939053               49.54887806                1.00000000               -1.29370479               -0.02078940               -4.05003889               -4.62982823               11.05839521                4.77674869
              13.11377726               -0.14980790               49.41217224                1.00000000                0.05620061                0.22364082               -0.84379823               -0.64253259                1.46689837                0.44240878
              14.11762508               -0.47285832               49.24616475                1.00000000                0.38478194                0.54164307               -1.76119980               -0.09139145                0.03449475               -0.34643845
               4.46650238                4.10206996               50.60938646                1.00000000               -0.40947116               -0.63374432                1.91907501               -0.00785264               -0.02294771                1.68657962
               5.46240767                3.76785382               50.42331108                1.00000000               -0.26468985               -0.28641117                0.93553960                0.03246576                0.05651553                0.29098366
               6.46120859                3.43237141               50.23929700                0.78336988                0.03684305                0.04986490               -0.05671026               -0.04893118                0.28440967               -0.78271333
               7.46314453                3.09469634               50.05774147                0.00010000                1.04416246                0.37997925               -1.06124821               -0.89574528                2.91674688               -1.58789602
               8.48209184                2.74021400               49.92586286                0.00010000                1.53114878                0.47525725               -1.97037282               -1.86305074                3.86155860                0.08516367
               9.49376751                2.37951821               49.77235378                0.00010000                1.10307838                0.95522711               -2.91160856               -2.39318156                2.55580799                1.87914174
              10.50415340                2.01151530               49.61650194                0.30425696                0.69552351                1.44927213               -3.93004481               -3.32047762                4.04703152                3.83780527
              11.50767798                1.63702062               49.49185241                1.00000000               -3.51016579                2.25541666               -5.36913095               -8.25249633               17.79602356                6.33986511
              12.43395009                1.18512163               49.60622708                1.00000000               -3.57396342                0.57679047               -0.59025516               -6.59252419               15.37955496                3.51408210
              13.43619871                0.85169137               49.45741419                1.00000000                0.21506645                0.07112839               -0.27149400               -0.57882144                1.13584079                0.53880756
              14.43825142                0.53170249               49.28669418                1.00000000                0.20527062                0.35922585               -1.12744671               -0.07088973                0.03699075               -0.31507321
               4.79879492                5.09608719               50.54173341                1.00000000               -0.31477960               -0.54945205                1.59229269               -0.03406187                0.11212278                1.49078363
               5.79564712                4.76546180               50.34916373                0.92759303               -0.18383334               -0.17876497                0.63824381               -0.01304796                0.27840538                0.04911374
               6.79511825                4.43351144               50.16026406                0.27954235                0.10544728                0.18042587               -0.28379464               -0.14962634                0.96009627               -1.25315854
               7.79775607                4.09890911               49.98100456                0.00010000                0.46599319                0.51053009               -1.33667326               -1.12198492                4.84600918               -1.79365053
               8.80443811                3.74669294               49.86909039                0.00010000                0.65337499                0.85106822               -2.10083584               -2.75756966                8.14995768                1.00393397
               9.81082357                3.39104254               49.75876385                0.00010000                0.35614471                1.20284414               -2.84195915               -3.59786966                8.44274486                3.95136751
              10.81156101                3.02768090               49.65606424                0.00010000               -0.49142340                1.53348634               -3.46097389               -4.73059284               11.04199125                7.42713152
              11.80099510                2.65476909               49.60015664                0.00010000               -2.07905887                1.22999560               -3.15119204               -9.22559222               17.28591400                9.96683995
              12.76997983                2.20092634               49.62407428                0.00010000               -2.26875622                3.53019100               -2.20070371               -4.94900670               13.99037561               -0.75998782
              13.75561997                1.85161467               49.50193620                0.12084097               -0.68973937                1.18404426                0.15009675               -0.00932413                2.78698689                0.26869614
              14.75618504                1.53432619               49.32826255                0.69810924                0.05650693               -0.53292867               -0.56408540                1.49465570                0.17245116               -1.08358153
               5.12707192                6.09108092               50.47093292                1.00000000               -0.23494592               -0.45200959                1.27683351               -0.05626222                0.19652210                1.15893353
               6.12472246                5.76427853               50.27154282                0.54603874               -0.11515821               -0.04698975                0.32594328               -0.05488691                0.43107533               -0.39704703
               7.12476875                5.43597992               50.07706996                0.04000783                0.14004414                0.34622844               -0.58488685               -0.22040212                1.55782388               -1.73670533
               8.12752334                5.10490694               49.89983007                0.00010000                0.50191328                0.53662063               -1.48564267               -1.00882743                7.96414223                0.67527890
               9.13480702                4.75723536               49.83283236                0.00010000                0.66494072                0.96969429               -2.02990487               -1.94660910               12.77887669                2.47203636
              10.14082215                4.40357509               49.75164818                0.00010000                0.55039871                1.10289106               -2.62480238               -2.37727752               12.59699149                4.28451907
              11.14581499                4.04218503               49.68062029                0.00010000                0.45492690                1.08954639               -2.90409030               -3.19541055               14.19681210                5.83274773
              12.14992069                3.66162053               49.63050803                0.00010000               -0.38453069                0.84826830               -2.76301076               -4.54328791               15.60170661                4.97978259
              13.13812438                3.25572545               49.58480483                0.00010000               -2.36541568                4.13608414               -2.12486110               -3.22396099               15.96823956               -0.28778538
              14.10261238                2.87537226               49.54234286                0.07738239               -1.77014475                2.28518935               -0.71016744               -0.73581423                8.24124093                1.33300264
              15.10272148                2.52104392               49.35367519                0.62498990                0.01091041               -0.61052470               -1.64549584                0.69453903                0.51790676               -2.80663249
               5.45127445                7.08704700               50.39695221                1.00000000               -0.16240773               -0.35455916                0.98093306               -0.03878254                0.03444134                0.88044818
               6.44965038                6.76452201               50.18842074                0.36409932               -0.05963305                0.06478170                0.05627358               -0.04072919                0.42821052               -0.70223195
               7.45008179                6.44043601               49.98788945                0.00010000                0.33368508                0.51045836               -0.85129870               -0.40104811                5.05464317               -2.20541303
               8.45632408                6.10964152               49.87144955                0.00010000                0.83779943                0.51541291               -0.96136204               -0.81915483               11.88447291                2.91780160
               9.46683778                5.76608683               49.80468697                0.00010000                1.10021365                0.75640149               -1.99537181               -1.51859204               14.86545541                2.99995463
              10.47832835                5.41310036               49.74499461                0.00010000                1.13847900                0.76464081               -2.45827874               -1.95849088               15.74194618                4.13486184
              11.48960736                5.04947183               49.69181356                0.00010000                0.91302825                0.63325959               -2.66155035               -2.60681192               16.67436555                4.80258846
              12.49658891                4.67173446               49.64620528                0.00010000                0.10707616                0.93869153               -2.54951817               -3.39800980               17.58914257                4.25658339
              13.49174888                4.28364803               49.60690133                0.00010000               -1.05018454                2.09182104               -2.08153193               -2.95866678               18.28699135                3.09052195
              14.47558522                3.89731846               49.57270367                0.12004041               -0.65081927                1.61216933               -1.31894013               -0.61286166                9.49946644                1.41738711
              15.47873250                3.52211570               49.35867504                0.65717001                0.31472740                0.56222635               -2.64185656                0.23442068                0.39566412               -2.77759909
               5.77134624                8.08398973               50.32076802                0.95329601               -0.08273849               -0.26277797                0.70083082               -0.03432701                0.01281267                0.73210245
               6.77051886                7.76557416               50.10462635                0.28029304                0.01410163                0.13695176               -0.19051716               -0.00391165                0.32344308               -0.73344315
               7.77162827                7.44618909               49.89473767                0.00010000                0.74852874                0.60384511               -1.07445044               -0.55234956                8.04553069               -2.43900722
               8.78548943                7.11521520               49.83251250                0.00010000                1.46740342                0.55830173               -1.53610901               -0.97973905               16.12983207                1.47997217
               9.80097634                6.77236339               49.77887600                0.00010000                1.63889510                0.51569282               -2.00844396               -1.44484743               17.40939279                2.79135376
              10.81826733                6.41886791               49.73608894                0.00010000                1.70341553                0.43236138               -2.41034429               -1.83605926               18.58986889                3.76524032
              11.83504465                6.05485022               49.69897585                0.00010000                1.47584828                0.41634114               -2.57269880               -2.26272626               19.41175576                4.39273376
              12.84778430                5.68039436               49.66538234                0.00010000                0.91611959                0.66227126               -2.49450516               -2.55320174               19.94699697                4.39796128
              13.85336704                5.29756188               49.63258275                0.00010000                0.20515870                1.01355515               -2.18603781               -2.36091979               20.10003287                3.50845555
              14.85188747                4.90761564               49.59751781                0.15676700                0.22241827                0.88921221               -1.68672054               -0.77892791               10.19306566                1.18152831
              15.85781541                4.53228845               49.36378361                0.68681122                0.59279372                1.04582599               -2.99363838                0.16496793                0.22273241               -2.28210870
               6.08741906                9.08179144               50.24396569                0.91285020               -0.00462735               -0.17929884                0.43877960               -0.03698704                0.02615966                0.69918349
               7.08737278                8.76726104               50.02073954                0.26192915                0.09873511                0.19947016               -0.43634658                0.03006115                0.16634886               -0.72838058
               8.08939376                8.45251292               49.80028723                0.00010000                1.15911039                0.62557491               -1.28321623               -0.73178617               10.02051533               -2.45071131
               9.11055499                8.12080756               49.77347128                0.00010000                2.24471809                0.44372642               -1.75272852               -1.38591605               20.12004040                0.27701933
              10.13428812                7.77640068               49.74688519                0.00010000                2.42826720                0.22399801               -2.15474199               -1.62403881               20.78561873                2.10456288
              11.15912034                7.42174759               49.72383041                0.00010000                2.42691308                0.11393986               -2.44812508               -1.74814882               21.66477510                3.23019810
              12.18282638                7.05779865               49.70451707                0.00010000                2.18464448                0.14497859               -2.58182957               -1.91930803               22.37857450                4.01535781
              13.20281323                6.68497988               49.68570300                0.00010000                1.72414104                0.28554830               -2.52558104               -2.06245502               22.54718795                4.45904075
              14.21730920                6.30391913               49.66139997                0.00010000                1.12334341                0.44606082               -2.30261842               -2.08044309               21.66922764                4.06997377
              15.22528009                5.91510270               49.61917409                0.18401432                0.76885230                0.74038964               -2.01165669               -0.87792311               10.56462396                1.01867715
              16.23268625                5.54303222               49.36881573                0.70647366                0.74061560                1.06368229               -3.21114219                0.08753317                0.12437017               -2.14343772
               6.39966729               10.08040376               50.16726227                0.90563983                0.07313140               -0.09365309                0.18073773               -0.03536022                0.00431714                0.69860549
               7.40039860                9.76956356               49.93679561                0.29902852                0.18893742                0.25612444               -0.68168496                0.04132468                0.01260391               -0.69547712
               8.40344604                9.45870059               49.70640026                0.00010000                1.67423714                0.59244690               -1.49553782               -1.05551213               11.76671113               -2.13168351
               9.43388334                9.12408973               49.71030150                0.00010000                3.20547517                0.08733396               -1.93667433               -1.80217873               23.74864981                0.00144390
              10.46755554                8.77684335               49.70854233                0.00010000                3.40115215               -0.24851029               -2.29915493               -1.62622282               24.10229832                1.43905792
              11.50190639                8.42114671               49.70652360                0.00010000                3.29353278               -0.24536650               -2.54710169               -1.46703992               24.88391714                2.46089536
              12.53342619                8.05774979               49.70660709                0.00010000                2.92541670               -0.14383662               -2.64870994               -1.49141245               25.68911191                3.28641946
              13.56041472                7.68610533               49.70744574                0.00010000                2.41045862               -0.00160537               -2.57954876               -1.63836859               25.75996015                4.13479348
              14.58163537                7.30648309               49.69787054                0.00010000                1.74006001                0.15344927               -2.34896698               -1.69233412               23.13340723                5.21147957
              15.59521592                6.92242344               49.63948009                0.20890644                1.10358345                0.75324895               -2.31650669               -0.80013885               10.50414758                1.02332197
              16.60370704                6.55356209               49.37346275                0.71879487                0.84911148                1.06115845               -3.41630488                0.05735179                0.08197787               -2.15178659
               6.70839224               11.07991838               50.09055511                0.88668346                0.15102063               -0.00232117               -0.08446949               -0.03805472               -0.00181054                0.60979137
               7.70990245               10.77238353               49.85325111                0.35384179                0.26825566                0.31002618               -0.92818126                0.01780815                0.09478234               -0.56802571
               8.71375735               10.46436185               49.61771931                0.00010000                2.32331034                0.56834457               -1.71838396               -1.60985851               13.45387447               -1.29773431
               9.75636865               10.12255424               49.64689491                0.00010000                4.54746674               -0.78764360               -2.14040305               -1.74068738               26.87504458               -0.01883787
              10.80470669                9.77143048               49.66578975                0.00010000                4.62522230               -0.75330201               -2.47675418               -1.16049684               27.08071547                0.77487557
              11.84887310                9.41684026               49.68221555                0.00010000                4.16664136               -0.58946986               -2.69397418               -0.83173793               27.92121813                1.39163198
              12.88803951                9.05492192               49.70093928                0.00010000                3.62197286               -0.38841918               -2.76472221               -0.85042223               29.06326991                1.94393381
              13.92131256                8.68494778               49.72363765                0.00010000                2.95524488               -0.19231420               -2.66128859               -1.03094514               30.19418867                2.67422653
              14.94714441                8.30698812               49.75004353                0.00010000                2.04428803                0.11991027               -2.30154648               -1.01900418               25.08102038                4.43089992
              15.96219832                7.93016768               49.66097946                0.25011183                1.22057808                0.79754809               -2.60379448               -0.58167005                9.66847522                1.00490835
              16.97155597                7.56425539               49.37790155                0.72288562                0.93576572                1.09990339               -3.61780398                0.04268498               -0.08098436               -1.76199220
               7.01397588               12.08035733               50.01218404                0.95487185                0.23354076                0.04389562               -0.34867291                0.09903932                0.30488716                0.52215066
               8.01631129               11.77576409               49.77145485                0.73103769                0.35511407                0.33805533               -1.18881245                0.12639138                0.76729891               -0.45647885
               9.02107816               11.47006748               49.53974245                0.41594570                3.78448438                0.57056255               -1.98302288               -2.63928080               15.15832822               -0.72022152
              10.09200097               11.10833686               49.58602660                0.31580588                6.44907122               -1.42173826               -2.39716171               -1.85127621               29.31175069               -0.17551423
              11.15005958               10.76177731               49.61843845                0.30678851                5.48896057               -0.96531632               -2.72240055               -0.41368766               29.42593618                0.27167497
              12.20178018               10.40935731               49.64822203                0.31486602                4.91253226               -0.74829472               -2.91817093               -0.29908654               30.43195942                0.60383286
              13.24831023               10.04998141               49.68132671                0.33960362                4.29747188               -0.49405100               -2.95946604               -0.32784185               31.93000225                0.90024646
              14.28772962                9.68225904               49.72148583                0.38230867                3.38625756               -0.26887342               -2.81600908               -0.41329896               33.83258081                1.33346557
              15.31603538                9.30888130               49.77467934                0.51913077                1.92928122                0.18931823               -2.41072727               -0.30513536               27.75521378                2.61750418
              16.32631525                8.93837440               49.68125975                0.65378056                1.01749684                0.82067191               -2.86375064               -0.25436380               10.67534324                0.91436482
              17.33638532                8.57556016               49.39113515                0.86404809                1.00700705                1.13047725               -3.82037101                0.20151060                0.79302836               -1.38575276
               3.96628690                2.20234752               51.77757328                1.00000000               -0.66100451               -0.76893876                2.66081552               -0.20208088               -1.04916017                0.97256418
               4.95967685                1.85314843               51.58640449                1.00000000               -0.54626846               -0.40946318                1.55867654               -0.13451603               -1.41077942                0.16134272
               5.95536153                1.50304003               51.38846714                1.00000000               -0.34844479               -0.06904636                0.51659920               -0.15948600               -1.37393352               -0.21448350
               6.95270796                1.14952648               51.19787887                0.60726398               -0.63594865                0.37266687               -0.52467326               -0.49167701               -0.24244390               -0.86512950
               7.94264255                0.78617320               51.02158812                0.54271328               -0.79793242                0.76001036               -1.19598901               -0.26238238                0.98037279               -0.01096870
               8.93674931                0.41468911               50.85242622                0.51189832               -0.49628785                0.96461230               -2.00321256               -0.30181245                1.71552627               -0.08762935
               9.93271680                0.03317648               50.68830985                0.56195068               -0.71837927                1.43770444               -2.97871873               -0.83004355                3.36383210               -0.30525909
              10.92238172               -0.36762514               50.54786962                0.61723849               -1.68471272                2.42094753               -4.31245154               -2.31883208                8.97006394                0.12539709
              11.89902254               -0.80896052               50.49004366                0.34808249                1.58967350                2.56242251               -3.72077110               -0.21215916                6.16713913                2.50126541
              12.95417519               -1.19555734               50.35404051                1.00000000                3.08190520                0.33285502               -1.62244070               -2.81939283                1.73910737                0.30632005
              13.96066065               -1.52629179               50.18065350                1.00000000                0.64854550                0.66203014               -2.41802960               -0.26852801               -0.18786272               -0.24947586
               4.31346518                3.19465813               51.69978362                1.00000000               -0.54797422               -0.73357430                2.36406067               -0.00913081               -0.25666455                1.29560751
               5.30798544                2.84905380               51.50861151                1.00000000               -0.39437685               -0.37413459                1.25954706                0.05032610               -0.40073179                0.25031775
               6.30557764                2.50234957               51.31501691                1.00000000               -0.08804164               -0.03050485                0.18817065                0.03259448               -0.30457246               -0.35452341
               7.30622460                2.15325315               51.12579114                0.32251003                0.09298887                0.38016987               -0.89189944               -0.36571401                1.29464525               -1.19313267
               8.30743742                1.79377330               50.96390339                0.35125584                0.20024696                0.61789940               -1.66349153               -0.17556843                2.34086268                0.07136417
               9.31022954                1.42433523               50.79794789                0.48322092                0.40680343                0.93674501               -2.59889538               -0.22620780                2.25380356                0.00281071
              10.31557349                1.04755352               50.63436184                0.86229826                0.50161785                1.43643901               -3.78761723               -0.55341942                3.80843061               -0.37314528
              11.32026190                0.65658433               50.49792616                1.00000000               -0.23532186                2.54528851               -5.65826810               -2.76448337               11.61107611               -0.22253622
              12.31086705                0.21666371               50.48551063                0.91124040               -1.78074995                0.47685389               -7.89333751               -6.89038770               15.58901125               10.21169591
              13.28464690               -0.19222879               50.40341056                1.00000000               -1.10786155                0.23424659               -0.92584992               -3.95745081                4.65437808                0.43575757
              14.28870982               -0.51967149               50.22813970                1.00000000                0.40629187                0.56800056               -1.80664035               -0.10074575                0.01425686               -0.23294499
               4.65731295                4.18767603               51.62915456                1.00000000               -0.43210104               -0.65831507                2.02847192               -0.01008733               -0.01155090                1.60795358
               5.65299194                3.84566574               51.43276205                1.00000000               -0.27494427               -0.28971143                0.95087436                0.03661043                0.06803997                0.27526226
               6.65181406                3.50242993               51.23837817                0.77180447                0.04890022                0.06782634               -0.12812966               -0.02626363                0.28820292               -0.73150913
               7.65396994                3.15712988               51.04632061                0.00010000                0.81175218                0.42609337               -1.21789645               -0.67791817                2.99000370               -1.51771421
               8.66804911                2.79853118               50.90553307                0.00010000                1.22374930                0.59349032               -2.13394027               -1.47877673                3.98103356                0.21040561
               9.67844493                2.43342401               50.74211422                0.05382648                1.06750998                0.99002704               -3.17755033               -2.03620882                2.57050692                2.23696822
              10.68939931                2.06190526               50.57519201                0.39035291                0.97684705                1.32832781               -4.40186741               -2.99998020                3.81719270                4.71150555
              11.69798187                1.68328063               50.43526035                0.86583879               -3.96856979                1.73463594               -5.64054376               -9.36853316               20.52269348                8.66707461
              12.61002791                1.20057656               50.59587271                0.72519804               -4.33102488                0.06704704               -3.23245262              -10.88501402               18.94722887                7.32670338
              13.61136137                0.80912759               50.45458177                1.00000000                0.17516112                0.06103058               -0.32501380               -3.25611056                1.91136970                0.45575006
              14.61353113                0.48506822               50.27574593                1.00000000                0.21697610                0.36452284               -1.12369374               -0.07799146                0.05265406               -0.20819563
               4.99728402                5.18149183               51.55813661                1.00000000               -0.33202786               -0.56628520                1.68493740               -0.03435397                0.11911640                1.41909649
               5.99396374                4.84325957               51.35554630                0.90023179               -0.18478985               -0.17844490                0.63666293               -0.00767777                0.30202302                0.02553558
               6.99358822                4.50370609               51.15694939                0.25353488                0.13006226                0.19788369               -0.37926547               -0.12143647                0.93913422               -1.19788043
               7.99656499                4.16177502               50.96680962                0.00010000                0.39897653                0.55569368               -1.50045308               -0.90490073                4.92101065               -1.63800793
               9.00156776                3.80564311               50.84720208                0.00010000                0.47831514                0.89056256               -2.27990672               -2.22478197                8.35720302                1.39416613
              10.00613129                3.44413577               50.72924153                0.00010000                0.20747533                1.12617854               -3.06765756               -3.12845235                8.71383523                4.65837230
              11.00571726                3.07412008               50.62011072                0.00010000               -0.59556789                1.19936667               -3.69242103               -4.46437054               11.84471256                8.70984622
              11.99421993                2.69127705               50.56660418                0.00010000               -1.91987291                0.46947224               -3.61784811               -9.75984214               18.74632190               12.26081237
              12.96731980                2.21800465               50.59539842                0.00010000               -2.95934530                3.28804022               -3.12564226               -7.21422412               17.39373745                0.62497979
              13.93503303                1.80899182               50.50399595                0.05701593               -1.60255351                2.31588913                0.23982185               -1.67933515                4.71701640               -0.65821041
              14.93526873                1.48761897               50.32339590                0.64982155                0.02357059               -0.36977243               -0.48534801                2.33928736                0.23698444               -1.99082582
               5.33309039                6.17635033               51.48408477                1.00000000               -0.24662726               -0.46291312                1.35267234               -0.05381282                0.18014358                1.10744558
               6.33062412                5.84209684               51.27472042                0.51724624               -0.11102541               -0.04533018                0.30805311               -0.04462353                0.43589877               -0.40654860
               7.33086988                5.50638761               51.07069988                0.02238101                0.16553981                0.36787604               -0.69165641               -0.18661998                1.59313482               -1.70406968
               8.33393492                5.16824375               50.88408345                0.00010000                0.51614155                0.62978757               -1.65594321               -0.75733982                8.19334479                1.21988486
               9.34119271                4.81634243               50.81151346                0.00010000                0.67319969                0.96826999               -2.23718899               -1.52770213               13.15522282                2.90868396
              10.34739891                4.45594758               50.72424636                0.00010000                0.58889500                1.01203697               -2.85027197               -1.98896925               13.11416441                4.92916814
              11.35297061                4.08589259               50.65023581                0.00010000                0.57507739                0.82948060               -3.16653265               -2.91934144               15.11145466                6.76441778
              12.35890046                3.69267007               50.60102374                0.00010000               -0.24709789                0.41093336               -3.09233865               -4.67090395               17.08193102                5.98006891
              13.34802866                3.26633736               50.56205383                0.00010000               -2.53700538                3.76171940               -2.43039370               -4.33589900               18.28819532                0.79870197
              14.30816035                2.85544538               50.53283838                0.04554394               -2.24830332                3.85227833               -1.44981954               -1.06653155               10.16949221                0.98724790
              15.30306259                2.47767277               50.33503886                0.59945323               -0.50977587                0.21254158               -2.29908294                0.69303520                1.12959222               -3.87244150
               5.66471474                7.17223357               51.40706624                1.00000000               -0.16807503               -0.36229397                1.04133941               -0.03814058                0.02414003                0.85043258
               6.66303399                6.84235296               51.18883257                0.34178080               -0.05029170                0.06800548                0.02584821               -0.02762976                0.42681802               -0.68162108
               7.66370891                6.51106361               50.97875108                0.00010000                0.42146848                0.53382279               -0.97683302               -0.31056628                5.46814025               -2.14910501
               8.67146336                6.17437077               50.86080763                0.00010000                0.98004886                0.62375186               -1.19877740               -0.54113645               12.26477410                3.24870168
               9.68330989                5.82500851               50.78357628                0.00010000                1.26691930                0.73013875               -2.22930853               -1.16910410               15.07085326                3.35200445
              10.69680175                5.46437651               50.71918249                0.00010000                1.36490255                0.64657874               -2.70882736               -1.64700392               16.37589693                4.60069639
              11.71060794                5.09070969               50.66390969                0.00010000                1.17776658                0.41525671               -2.92255166               -2.42096035               17.64866893                5.35844827
              12.72035708                4.69949572               50.61941995                0.00010000                0.36092912                0.68303677               -2.81431366               -3.52456405               19.00264828                4.83379382
              13.71782652                4.29323904               50.58463902                0.00010000               -0.89950463                2.03350648               -2.39484104               -3.35128186               20.21477846                3.48101089
              14.70236699                3.88603739               50.55814222                0.10467489               -0.65759385                2.12050569               -1.68786592               -0.72039994               10.76684559                1.39723484
              15.70467464                3.49186980               50.33054086                0.64196780                0.23076553                1.46133891               -2.99599478                0.46936613                0.68692433               -2.81144556
               5.99208879                8.16910445               51.32801923                0.94348072               -0.08473083               -0.27015073                0.74977112               -0.03578097                0.01749912                0.72098103
               6.99124148                7.84345695               51.10251536                0.26324043                0.02759835                0.14569549               -0.23258001                0.00937906                0.33117489               -0.70366933
               7.99264075                7.51706406               50.88331450                0.00010000                0.89629089                0.62898518               -1.21120175               -0.44078232                8.27293493               -2.36001330
               9.00916729                7.18071879               50.81602722                0.00010000                1.75820696                0.59448580               -1.76124653               -0.73648546               16.56494453                1.40878057
              10.02780489                6.83094521               50.75755571                0.00010000                1.97951754                0.46042233               -2.26641842               -1.18651978               17.90510904                3.02290304
              11.04875765                6.46887915               50.71072921                0.00010000                2.08136536                0.30007952               -2.67525677               -1.60030153               19.26946154                4.06766173
              12.06943220                6.09419773               50.67208234                0.00010000                1.85610921                0.24256442               -2.82645119               -2.13277891               20.38887898                4.72492071
              13.08587983                5.70633081               50.63941941                0.00010000                1.25145751                0.51470750               -2.72781706               -2.62534027               21.25442440                4.69934970
              14.09446135                5.30700749               50.60987706                0.00010000                0.46208786                0.99312877               -2.39659071               -2.66547207               21.75848625                3.70903788
              15.09512159                4.89785549               50.58019569                0.14903278                0.31618722                0.98493601               -1.80734311               -0.95469322               11.16403176                1.19819720
              16.10078509                4.50689955               50.33338412                0.67623757                0.56635065                1.35026066               -3.05839743                0.19314433                0.30143934               -1.98192112
               6.31529413                9.16683055               51.24855319                0.90575821               -0.00321646               -0.18588304                0.47839664               -0.03656016                0.02701536                0.69850946
               7.31526196                8.84526687               51.01610061                0.24747433                0.11686478                0.21340872               -0.49061320                0.04169088                0.18558212               -0.69768791
               8.31763142                8.52364332               50.78678848                0.00010000                1.37952727                0.65277728               -1.42149060               -0.64846573               10.24716773               -2.36757941
               9.34285251                8.18626049               50.75485628                0.00010000                2.68938539                0.41018393               -1.97706000               -1.19767687               20.56821551                0.37804194
              10.37141913                7.83421695               50.72406686                0.00010000                2.93453484                0.11804284               -2.42238411               -1.44020247               21.34590122                2.24487203
              11.40154320                7.47037810               50.69811711                0.00010000                2.95407879               -0.04384946               -2.71600939               -1.55815113               22.39801188                3.42547202
              12.43050071                7.09556098               50.67772642                0.00010000                2.67486518               -0.02544122               -2.80700717               -1.77282670               23.34206257                4.22262472
              13.45504051                6.70978987               50.65991654                0.00010000                2.12458466                0.16145520               -2.67357987               -2.05008781               23.75983447                4.66456437
              14.47299240                6.31310161               50.63830403                0.00010000                1.41702802                0.40581614               -2.36601287               -2.31059349               23.07465103                4.27368981
              15.48338107                5.90573611               50.59914578                0.17989075                0.87285049                0.75823789               -1.99530823               -1.06440097               11.32095398                1.00284498
              16.49044941                5.51887501               50.33698842                0.69669926                0.70683407                1.12094036               -3.12031612                0.07822435                0.14501354               -1.89015097
               6.63448494               10.16538679               51.16920191                0.89994939                0.07775911               -0.09922383                0.20823616               -0.03543733                0.00501215                0.69567003
               7.63526253                9.84772512               50.92967446                0.28512218                0.20964439                0.27375179               -0.74270633                0.04839561                0.03988402               -0.66513332
               8.63867783                9.53011961               50.69075330                0.00010000                1.96887967                0.62584734               -1.63883228               -1.03612652               12.00708305               -2.06006204
               9.67464012                9.18892247               50.68982200                0.00010000                3.81027004               -0.01199620               -2.16891276               -1.71403344               24.21636488                0.09962923
              10.71488323                8.83330607               50.68427163                0.00010000                4.08052368               -0.42401403               -2.57232717               -1.50382515               24.69288195                1.55599309
              11.75625060                8.46800216               50.67988011                0.00010000                3.98403349               -0.45251695               -2.80655268               -1.30569241               25.64576156                2.59221534
              12.79456390                8.09368890               50.67942139                0.00010000                3.55434222               -0.36478643               -2.82313767               -1.31583893               26.67198298                3.42970910
              13.82733744                7.70955991               50.68193517                0.00010000                2.88696708               -0.20296437               -2.57328219               -1.50332268               26.97804366                4.31217244
              14.85230324                7.31512382               50.67584343                0.00010000                2.03613628                0.02712878               -2.12145641               -1.75385556               24.29920849                5.56592583
              15.86806017                6.91302025               50.61673586                0.20717308                1.18842684                0.73618567               -2.22171017               -0.95498841               11.00574965                0.98115611
              16.87607178                6.52931836               50.34005486                0.70874196                0.80116087                1.02635941               -3.23135515                0.04925614                0.08039349               -1.96568621
               6.94990871               11.16484608               51.08979455                0.87924591                0.15883434               -0.00753753               -0.06608045               -0.03936499                0.00183615                0.60404255
               7.95149705               10.85074191               50.84361465                0.33897537                0.29014172                0.33192384               -0.99917484                0.02034051                0.12738662               -0.54758525
               8.95571155               10.53616026               50.59979501                0.00010000                2.69441630                0.60843755               -1.86832993               -1.69326686               13.70084267               -1.25312692
              10.00538538               10.18602056               50.62435736                0.00010000                5.32756934               -0.99871612               -2.37799227               -1.75081799               27.35845690                0.04632406
              11.06226293                9.82573667               50.63974547                0.00010000                5.48305708               -0.99823166               -2.74985329               -1.09573935               27.69786632                0.84781581
              12.11504652                9.46132776               50.65417467                0.00010000                5.01816234               -0.85963802               -2.93842799               -0.72285527               28.71754892                1.46915374
              13.16262618                9.08826525               50.67285712                0.00010000                4.42463084               -0.69049792               -2.88390251               -0.72140656               30.09387994                2.02765204
              14.20353914                8.70573058               50.69812044                0.00010000                3.59143871               -0.53717245               -2.49629709               -0.88467601               31.58945174                2.79535679
              15.23445495                8.31364419               50.73145760                0.00010000                2.32738102               -0.18328006               -1.51207567               -0.93834609               26.05757531                4.72389431
              16.25008676                7.92045982               50.63550081                0.25197010                1.21916787                0.76090581               -2.47159315               -0.63685761                9.80817539                0.94742198
              17.25883831                7.53940220               50.34279495                0.71210383                0.87515514                1.02826195               -3.36917589                0.04010966               -0.09174573               -1.62789849
               7.26190597               12.16523604               51.00872707                0.95037293                0.24491811                0.03899618               -0.34052637                0.11248213                0.29672885                0.51567487
               8.26435515               11.85436360               50.75915577                0.72288848                0.38139335                0.36216894               -1.27056503                0.13842579                0.78478180               -0.44382709
               9.26953384               11.54228836               50.51912942                0.41349876                4.28461024                0.61280948               -2.14101663               -2.88854342               15.39406739               -0.69578331
              10.35004736               11.16894815               50.56090057                0.31574730                7.40637014               -1.70724149               -2.63643624               -1.98114867               29.80615248               -0.13314795
              11.41766124               10.81334143               50.58996379                0.30685324                6.46087782               -1.23952378               -2.98627953               -0.36710635               30.07302882                0.32000172
              12.47926491               10.45080940               50.61802131                0.31464443                5.90358529               -1.05183583               -3.14025306               -0.25128547               31.27405608                0.65651009
              13.53573295               10.07987894               50.65145443                0.33858998                5.25000356               -0.83863075               -3.03900596               -0.28897029               33.02270789                0.96029136
              14.58426498                9.69881646               50.69481933                0.37841619                4.15370646               -0.69141184               -2.56307772               -0.34845183               35.31050695                1.42058999
              15.61880708                9.31145822               50.75603103                0.52362769                2.26500084               -0.21859715               -1.43273632               -0.09369279               28.62806645                2.82212405
              16.62956500                8.92823836               50.65314450                0.65602019                1.00910691                0.77785401               -2.72280119               -0.13090679               10.62417458                0.84380554
              17.63898921                8.54988360               50.35406695                0.85815796                0.94242127                1.04813959               -3.54804573                0.17961362                0.74334800               -1.29057378
               4.15282766                2.29110082               52.80481274                1.00000000               -0.68022040               -0.80078660                2.77456156               -0.21949942               -0.98010995                0.92292405
               5.14602546                1.93400285               52.60216311                1.00000000               -0.54860582               -0.41640299                1.58556918               -0.15181813               -1.30347509                0.15127444
               6.14185555                1.57601272               52.39335491                1.00000000               -0.30997724               -0.05000724                0.45525875               -0.17249032               -1.22726769               -0.20950284
               7.13982592                1.21492753               52.19184566                0.57817656               -0.49191149                0.40776026               -0.68675596               -0.42848063                0.08913209               -0.84141527
               8.13201732                0.84605495               52.00798033                0.50819243               -0.56252645                0.86151744               -1.56303462               -0.27001454                1.52113941               -0.01029648
               9.12857539                0.47119886               51.82976506                0.51408285               -0.16180140                1.11073466               -2.58161915               -0.27308223                2.25140827               -0.10975062
              10.12878129                0.08853185               51.65443228                0.68634810               -0.04819429                1.58185520               -3.85162137               -0.62064059                3.76365234               -0.28772543
              11.12761150               -0.30697798               51.49698522                0.72432974               -2.22657034                2.47972788               -5.64971690               -2.88389368               10.93193664                0.30390431
              12.08424988               -0.75537120               51.44701326                0.20794760                0.16806573                4.31666043               -5.17756310               -3.06615722               11.35333764               -0.65429075
              13.13097282               -1.24539515               51.33787394                1.00000000                2.63726392                0.37611374               -1.67108489               -7.85975977                3.48144890                0.29059415
              14.13699516               -1.57909228               51.15636437                1.00000000                0.60223463                0.64826267               -2.40841605               -0.22403512               -0.11983696               -0.24787333
               4.50773064                3.28309295               52.72400335                1.00000000               -0.56793071               -0.76123921                2.46867257               -0.01397726               -0.23000723                1.23273913
               5.50205133                2.92983882               52.52132805                1.00000000               -0.40311659               -0.37892869                1.27774965                0.04695430               -0.35030628                0.23752697
               6.49966830                2.57551265               52.31658282                1.00000000               -0.07656679               -0.01019892                0.12192882                0.03624245               -0.23620255               -0.34503207
               7.50051999                2.21900514               52.11607681                0.30881202                0.07566016                0.41980222               -1.04980394               -0.24393645                1.51634093               -1.15810797
               8.50118151                1.85467013               51.94586604                0.34880334                0.20430612                0.75342315               -1.97412751               -0.13986753                2.74177207                0.04529055
               9.50460612                1.48230621               51.76988864                0.54774242                0.52408982                1.08825360               -3.04754873               -0.16881991                2.54594461               -0.04328711
              10.51166330                1.10435040               51.59358721                0.96210604                0.80589873                1.57323438               -4.37688766               -0.29585326                3.69707307               -0.38720875
              11.52072409                0.71781930               51.43645804                0.93339209                0.55667962                2.43310331               -6.26686993               -2.33576806               10.62060156                0.38887202
              12.52279690                0.28779540               51.39101131                0.33488171               -2.82441669               -1.14304416               -6.62032445              -12.50649767               18.39835692                9.77036605
              13.46423576               -0.24163401               51.39365525                1.00000000               -2.71724755                0.28080637               -1.02146592               -9.84124904                9.30304485                0.41869177
              14.46845195               -0.57260965               51.21003194                1.00000000                0.42161890                0.56873311               -1.81714332               -0.09851364                0.01400337               -0.21533826
               4.85905638                4.27587603               52.64995590                1.00000000               -0.45115264               -0.67770253                2.12336797               -0.01381379                0.00426725                1.52645110
               5.85454485                3.92642428               52.44232857                1.00000000               -0.28211474               -0.29123375                0.95846010                0.03780902                0.08903900                0.25623131
               6.85341408                3.57580874               52.23673440                0.75526956                0.06224276                0.08597436               -0.20128369               -0.00656964                0.30883354               -0.68853307
               7.85578971                3.22332358               52.03338354                0.00010000                0.62524047                0.46904890               -1.36669826               -0.46408668                3.10178431               -1.44820183
               8.86591889                2.86112341               51.88318406                0.00010000                0.98645031                0.69628754               -2.36408286               -1.11954412                4.22504527                0.32097004
               9.87551871                2.49296394               51.70880278                0.11222631                1.07161194                0.98858171               -3.50979192               -1.67706800                2.67285866                2.52558834
              10.88735113                2.11999654               51.52846459                0.37523937                1.09662130                1.12418123               -4.87359662               -2.59252736                4.00327060                5.45065138
              11.89745114                1.74168409               51.37904154                0.26296303               -4.68889450                0.82013222               -5.42176203              -10.91594389               21.10823243               10.52421963
              12.79357324                1.22176791               51.54157802                0.08880827               -5.14491250               -2.02752901               -5.45669833              -16.18985982               23.60063400               10.30519624
              13.79455289                0.76022098               51.45091391                0.84876026                0.17014690                0.09139317               -0.40662692               -6.58792320                4.87263788                0.45916595
              14.79697618                0.43228238               51.26422030                1.00000000                0.24232905                0.39131992               -1.20318371               -0.11021508                0.09035149               -0.17562159
               5.20635787                5.26953890               52.57543216                1.00000000               -0.34830678               -0.57879201                1.76828927               -0.03511945                0.13005988                1.34349553
               6.20287480                4.92401415               52.36189699                0.87092020               -0.18601292               -0.17814988                0.63196394               -0.00131469                0.33112096               -0.00348729
               7.20263761                4.57723213               52.15267875                0.22769125                0.15243914                0.21440509               -0.47502108               -0.08868515                0.93720689               -1.15371594
               8.20592359                4.22838611               51.95099550                0.00010000                0.32563274                0.59915235               -1.66205838               -0.69246566                5.05304472               -1.48664390
               9.20915027                3.86859588               51.82349225                0.00010000                0.31340238                0.89557167               -2.47563440               -1.72393015                8.66308617                1.69469596
              10.21219163                3.50207784               51.69741070                0.00010000                0.09711672                0.96267794               -3.30833071               -2.64487353                9.15848838                5.23548224
              11.21109260                3.12683403               51.58221582                0.00010000               -0.57788990                0.68389376               -3.89501091               -4.19701620               12.72950253                9.85732597
              12.20063384                2.73422195               51.52779967                0.00010000               -1.53148962               -0.66389751               -4.02119812               -9.86495301               20.42376100               13.67778984
              13.18046281                2.24724482               51.56156144                0.00010000               -3.93355054                3.03454919               -4.21275260               -9.77638441               20.73143980                2.31319100
              14.12196283                1.76019385               51.50673264                0.00010000               -2.91689827                4.03749826                0.29724477               -3.67818861                6.97674278               -2.07262648
              15.12212484                1.43521674               51.31855559                0.61923834                0.01620194                0.20838743               -0.52598708                3.69909771                0.31048927               -3.40285135
               5.54940350                6.26430019               52.49798637                1.00000000               -0.25781711               -0.47088541                1.42333322               -0.05055476                0.16528006                1.05094057
               6.54682533                5.92286128               52.27770388                0.49178189               -0.10675417               -0.04597521                0.28870892               -0.02881256                0.44636776               -0.41987674
               7.54726842                5.58009684               52.06323683                0.00525054                0.18756624                0.38035772               -0.80215480               -0.13613682                1.65506101               -1.68048349
               8.55057665                5.23530662               51.86671121                0.00010000                0.52400726                0.71428356               -1.81283174               -0.50956120                8.46866485                1.71332234
               9.55774856                4.87903485               51.78808858                0.00010000                0.69032212                0.92443956               -2.45526362               -1.11797034               13.61425371                3.23195453
              10.56438309                4.51221749               51.69464275                0.00010000                0.67590726                0.82767965               -3.08164056               -1.60195988               13.74344454                5.40221567
              11.57126671                4.13367441               51.61728964                0.00010000                0.76790951                0.39801159               -3.42604006               -2.62803407               16.17267784                7.37443610
              12.57974128                3.72840614               51.56866125                0.00010000                0.04034710               -0.21036388               -3.41752576               -4.79683970               18.69531315                6.63088493
              13.57207365                3.28245890               51.53619695                0.00010000               -2.33620452                2.91001014               -2.71689890               -5.52879113               20.41774769                1.36472829
              14.53301719                2.84097095               51.51334647                0.01647583               -2.55806457                5.88559936               -2.72429762               -1.14756485               12.08527327                0.03226242
              15.52091236                2.43645013               51.30769353                0.57864705               -1.21048383                1.61623943               -3.20546810                0.82536182                2.15936120               -5.07054780
               5.88822460                7.26012119               52.41777900                1.00000000               -0.17226976               -0.36888944                1.09811787               -0.03763211                0.01657587                0.81704375
               6.88650190                6.92309464               52.18893770                0.32164599               -0.03775343                0.06857253               -0.00497322               -0.01300772                0.42618150               -0.66134900
               7.88746953                6.58483929               51.96835279                0.00010000                0.51462265                0.54272896               -1.09946129               -0.20580818                5.85422408               -2.09790005
               8.89679436                6.24267179               51.84747400                0.00010000                1.12052290                0.70177680               -1.48657606               -0.28920782               12.66170638                3.51189827
               9.90987999                5.88708467               51.76010080                0.00010000                1.43592577                0.66480098               -2.47259308               -0.87061875               15.36766398                3.59065083
              10.92551287                5.51863144               51.69081806                0.00010000                1.62316419                0.45345127               -2.97712512               -1.37717899               17.08966327                4.88623492
              11.94234328                5.13479426               51.63336252                0.00010000                1.51998419                0.09287509               -3.21124294               -2.28757182               18.70794092                5.67603987
              12.95591256                4.73001467               51.58991900                0.00010000                0.74894532                0.27393134               -3.11962903               -3.70062220               20.46246637                5.11063101
              13.95732218                4.30544502               51.55900451                0.00010000               -0.54461304                1.78093618               -2.81684219               -3.82109945               22.07853372                3.54498903
              14.94502030                3.87790584               51.53894635                0.08855695               -0.48242336                2.48025435               -2.30095940               -0.96298199               11.99332151                1.55835226
              15.94767371                3.46754153               51.29875514                0.62847073                0.26534187                2.48761645               -3.36925375                0.79131813                1.04471094               -2.54809658
               6.22270396                8.25692241               52.33576344                0.93463879               -0.08568780               -0.27711241                0.79592898               -0.03697109                0.02125450                0.70963085
               7.22184708                7.92423273               52.09997474                0.24735788                0.04355768                0.15267692               -0.27493073                0.01881262                0.33734689               -0.67241942
               8.22357511                7.59095142               51.87051364                0.00010000                1.03500191                0.64416226               -1.34617298               -0.33893312                8.49882445               -2.27971652
               9.24254712                7.24934216               51.79728757                0.00010000                2.04007116                0.59509148               -1.98781775               -0.53869978               17.01221015                1.31542651
              10.26437653                6.89233087               51.73354763                0.00010000                2.32914045                0.37487655               -2.54725584               -0.99951569               18.43826424                3.14633977
              11.28912993                6.52128652               51.68258380                0.00010000                2.48777519                0.12373449               -2.97493330               -1.44454017               19.99963000                4.21999096
              12.31413204                6.13553191               51.64244683                0.00010000                2.29740747                0.00589234               -3.13469401               -2.09384100               21.41256932                4.87973642
              13.33507807                5.73388477               51.61082600                0.00010000                1.68142250                0.28703671               -3.04248249               -2.79672741               22.58404689                4.82425785
              14.34776049                5.31807762               51.58465094                0.00010000                0.82914852                0.89907649               -2.71069963               -3.05289649               23.43768447                3.81114862
              15.35166105                4.89057603               51.56137094                0.13941495                0.48534251                1.03567924               -2.01593752               -1.19403388               12.15264053                1.32266269
              16.35746734                4.48620246               51.30261566                0.66525549                0.58062920                1.55084651               -3.10005490                0.17401821                0.40921930               -1.55019378
               6.55286453                9.25457895               52.25353362                0.89904048               -0.00153866               -0.19233039                0.51570556               -0.03715328                0.02527924                0.69863109
               7.55284914                8.92614818               52.01092728                0.23366712                0.13584575                0.22570614               -0.54199306                0.04707010                0.20398218               -0.66417090
               8.55558144                8.59772253               51.77185741                0.00010000                1.58958878                0.67706963               -1.56378199               -0.58547613               10.47462222               -2.28318297
               9.58464092                8.25457362               51.73393008                0.00010000                3.11819382                0.36195363               -2.21486097               -1.04975726               21.01480313                0.43405350
              10.61794532                7.89458220               51.69843751                0.00010000                3.43900535               -0.00231291               -2.71936039               -1.32444748               21.92205793                2.29764416
              11.65342102                7.52110613               51.66951022                0.00010000                3.49614446               -0.21765337               -3.03366463               -1.45640798               23.16542012                3.50415382
              12.68786821                7.13491210               51.64837693                0.00010000                3.20056391               -0.21593204               -3.10611261               -1.73359850               24.35138264                4.31844821
              13.71743230                6.73575540               51.63223141                0.00010000                2.58523892                0.01300553               -2.92195895               -2.15050371               25.00906064                4.82266421
              14.73957299                6.32342655               51.61407971                0.00010000                1.77912395                0.32852084               -2.55086389               -2.60388085               24.50993248                4.54987682
              15.75301478                5.89861943               51.57926793                0.17465539                1.01641209                0.75577476               -2.00287162               -1.27048243               12.09425262                1.02729499
              16.75990123                5.49855846               51.30640941                0.68647307                0.68864477                1.11196894               -2.99281537                0.05438266                0.18243103               -1.58897386
               6.87882242               10.25307580               52.17142699                0.89423569                0.08224749               -0.10524386                0.23715449               -0.03668278                0.00591249                0.69461966
               7.87964489                9.92874685               51.92194148                0.27156235                0.23088685                0.29011684               -0.80275405                0.05087963                0.06874037               -0.63289250
               8.88344015                9.60449281               51.67362361                0.00010000                2.25237068                0.66003268               -1.78626278               -1.03577842               12.24625046               -1.98593829
               9.92469231                9.25658123               51.66692325                0.00010000                4.39574583               -0.10857306               -2.42118192               -1.66308955               24.67332901                0.15988112
              10.97135507                8.89228461               51.65709579                0.00010000                4.74897774               -0.59437809               -2.88323853               -1.43731976               25.29108091                1.60570656
              12.01967186                8.51693345               51.65039255                0.00010000                4.67278595               -0.65119977               -3.12407451               -1.21899652               26.44499073                2.64220160
              13.06481079                8.13121327               51.65014434                0.00010000                4.19408455               -0.57350930               -3.08058007               -1.23427166               27.73922885                3.51368047
              14.10355355                7.73414488               51.65598010                0.00010000                3.40040288               -0.38923225               -2.68582065               -1.47482145               28.31043946                4.52521857
              15.13281885                7.32464804               51.65544141                0.00010000                2.37829676               -0.10740755               -2.05465259               -1.85553951               25.43411770                6.22955576
              16.15111949                6.90569153               51.59504588                0.20553051                1.29290352                0.70440297               -2.12769349               -1.10982552               11.42167970                0.94364707
              17.15867692                6.50844184               51.30883565                0.69856379                0.75574314                0.95634296               -3.00812355                0.03660770                0.09173993               -1.75325074
               7.20078876               11.25247407               52.08923350                0.87165994                0.16609593               -0.01350002               -0.04482889               -0.04082371                0.00541315                0.60070772
               8.20244972               10.93195052               51.83326762                0.32348757                0.31213689                0.35292247               -1.06930815                0.02043946                0.16504376               -0.52708808
               9.20703150               10.61092319               51.58035271                0.00010000                3.05688068                0.64950860               -2.02237085               -1.78869059               13.94979595               -1.20774251
              10.26358733               10.25240215               51.59933506                0.00010000                6.09076045               -1.19968768               -2.63734114               -1.78155979               27.83034561                0.09186896
              11.32884670                9.88269464               51.61079268                0.00010000                6.32625494               -1.22719464               -3.06272220               -1.06378362               28.32482145                0.88361731
              12.39011243                9.50808213               51.62344699                0.00010000                5.85623224               -1.10696095               -3.24107968               -0.65769589               29.56496619                1.50150400
              13.44597135                9.12344192               51.64326123                0.00010000                5.21943392               -0.96103300               -3.08392104               -0.64778970               31.25737323                2.08439607
              14.49450111                8.72797076               51.67371170                0.00010000                4.24720984               -0.84359101               -2.45857391               -0.81769527               33.30911261                2.96501659
              15.53091555                8.32127840               51.71980202                0.00703473                2.62616812               -0.42355575               -0.95923620               -0.89052901               26.91623523                5.30378183
              16.54702447                7.91270749               51.61154760                0.25555621                1.21086090                0.71358020               -2.32720508               -0.69748765                9.61299982                0.88066702
              17.55513276                7.51768532               51.31051803                0.70135379                0.81082940                0.93814259               -3.08686642                0.03430584               -0.08362320               -1.47474125
               7.51905304               12.25280580               52.00537352                0.94562281                0.25515211                0.03317289               -0.32789556                0.12637914                0.28949322                0.51110075
               8.52160456               11.93580530               51.74604355                0.71428514                0.40808331                0.38547850               -1.35059399                0.14934408                0.80993215               -0.43167094
               9.52721471               11.61748299               51.49692212                0.41123066                4.78425487                0.65597991               -2.30440081               -3.14256991               15.64137360               -0.67427301
              10.61728966               11.23258748               51.53329788                0.31559352                8.35923563               -1.98146741               -2.89245511               -2.11688048               30.30618625               -0.09028918
              11.69439942               10.86774072               51.55871286                0.30696445                7.42405009               -1.49539207               -3.28289290               -0.33439065               30.75044830                0.35918701
              12.76577066               10.49479423               51.58541697                0.31440160                6.87834742               -1.32878984               -3.40990423               -0.22158188               32.18516582                0.69800424
              13.83196637               10.11199261               51.62054659                0.33754630                6.17962501               -1.14493051               -3.18508789               -0.27655678               34.27346596                1.02271029
              14.88936316                9.71727306               51.67022428                0.37579578                4.91525859               -1.06977013               -2.42156775               -0.30457904               37.15548320                1.56859444
              15.93027154                9.31617692               51.74602461                0.53022788                2.56998258               -0.51014795               -0.74618824                0.07010322               29.31799215                3.17437718
              16.94076281                8.91996313               51.62680373                0.65934411                0.95679112                0.72556465               -2.54407416               -0.07477726               10.15152918                0.77203440
              17.94940736                8.52720469               51.32017423                0.85215746                0.86445491                0.95193672               -3.22621963                0.15161558                0.70758085               -1.16876041
               4.35198396                2.38242479               53.83306451                1.00000000               -0.69187871               -0.82550383                2.86242101               -0.23491040               -0.91260462                0.87530391
               5.34506518                2.01784403               53.61811587                1.00000000               -0.54251718               -0.42051520                1.59821190               -0.16806591               -1.20100085                0.14219369
               6.34113362                1.65239416               53.39757232                1.00000000               -0.25999954               -0.03247216                0.38634222               -0.18328640               -1.10016514               -0.20133147
               7.33986518                1.28423588               53.18414375                0.55846886               -0.29938367                0.43172320               -0.84905383               -0.36961397                0.31000454               -0.81457033
               8.33514595                0.91019584               52.99032743                0.49842309               -0.22698347                0.92795406               -1.95828407               -0.26793865                1.80299264                0.00770976
               9.33532552                0.53224693               52.80079384                0.55271040                0.28118679                1.21848343               -3.17937411               -0.24401052                2.35984950               -0.12069472
              10.34076968                0.14911212               52.61127743                0.70969411                0.65569794                1.66649107               -4.64411257               -0.41939545                3.45785769               -0.30443046
              11.34843947               -0.24049270               52.43487528                0.45286759               -2.77845527                2.27981566               -6.30581080               -4.27669189               11.15789384                0.28037629
              12.28520058               -0.71004242               52.38649240                0.04968525               -1.69932041                2.75486876               -7.31478897               -9.39712773               13.34426015               -5.39285301
              13.31445307               -1.30130807               52.32061881                1.00000000                1.80412383                0.44131420               -2.03987580              -12.70369029                5.90221117                0.25880999
              14.32128305               -1.63858441               52.13248518                1.00000000                0.68299869                0.67502228               -2.68658176               -0.23229066               -0.01496893               -0.46627740
               4.71421562                3.37416975               53.74915707                1.00000000               -0.58157867               -0.78242737                2.54993853               -0.01963736               -0.20190917                1.17289615
               5.70839983                3.01363888               53.53416650                1.00000000               -0.40553946               -0.38113007                1.28437609                0.04143629               -0.29873285                0.22540228
               6.70610483                2.65206943               53.31745548                1.00000000               -0.05658145                0.00845929                0.05211115                0.03581861               -0.17210056               -0.33368209
               7.70726820                2.28855311               53.10479506                0.31027066                0.11781006                0.45056380               -1.20107236               -0.14516320                1.67674494               -1.11567992
               8.70846103                1.91947538               52.92442083                0.37849211                0.30795320                0.85642670               -2.30735130               -0.10682557                3.01037668                0.05025439
               9.71342727                1.54443177               52.73699691                0.62972379                0.72422563                1.20833901               -3.51165830               -0.12011487                2.68138445               -0.08855655
              10.72294554                1.16577703               52.54682409                0.90572361                1.09112802                1.65887736               -4.89783099               -0.18350171                3.56431890               -0.46215252
              11.73524983                0.78230546               52.37258876                0.49636310               -0.06542802                2.14580445               -6.25717105               -4.48385772               12.33497186                0.89416317
              12.72163698                0.31750627               52.35310414                0.00010000               -4.17813346               -2.69136128               -2.29965135              -17.71163734               20.57958570                2.00337075
              13.65168716               -0.29689493               52.38298124                1.00000000               -3.27002472                0.32707950               -1.17423756              -13.88108357               11.03575355                0.42810897
              14.65623649               -0.63183419               52.19179683                1.00000000                0.45493302                0.58082789               -1.92057722               -0.12180957                0.05084572               -0.34328256
               5.07265296                4.36677624               53.67162192                1.00000000               -0.46587472               -0.69192393                2.19979635               -0.01848443                0.02312380                1.44736858
               6.06799422                4.01022143               53.45193125                1.00000000               -0.28586032               -0.29121831                0.95846895                0.03634189                0.11648136                0.23651464
               7.06693576                3.65256334               53.23435250                0.73638456                0.07808795                0.10299573               -0.27403253                0.00773737                0.34043687               -0.65375082
               8.06955598                3.29324715               53.01898664                0.00010000                0.50975094                0.50806829               -1.51087916               -0.28473947                3.20616629               -1.38387151
               9.07713078                2.92732437               52.85825142                0.00010000                0.85327935                0.75785619               -2.62012145               -0.84400961                4.44874451                0.44336282
              10.08662156                2.55641371               52.67191838                0.15571397                1.10475911                0.92868406               -3.86373856               -1.39422395                2.79783698                2.77891550
              11.09922596                2.18228967               52.47772007                0.31297138                1.02057627                0.83322612               -5.23460366               -2.35087656                4.66042501                6.06755001
              12.10703309                1.80242339               52.32682511                0.00010000               -4.45288726               -0.35461618               -4.95175146              -12.90298061               22.14676880               11.46642504
              13.01016821                1.23613035               52.48673875                0.00010000               -6.04306186               -2.39283628               -5.73896519              -20.79056082               28.40897533                8.38273863
              13.98617185                0.70523352               52.44644923                0.77602443               -1.07214139                0.10008311               -0.44185039               -9.86058173                7.83031044                0.51016144
              14.98872539                0.37303214               52.25168225                1.00000000                0.25535345                0.39614519               -1.23836539               -0.14033107                0.11262093               -0.24388154
               5.42695556                5.36033127               53.59350240                1.00000000               -0.36159904               -0.58769724                1.83798709               -0.03627561                0.14542920                1.26762560
               6.42333957                5.00781451               53.36818558                0.84571687               -0.18608546               -0.17814177                0.62353526                0.00524388                0.36351243               -0.03537517
               7.42323385                4.65412935               53.14744897                0.20400131                0.17364070                0.22702776               -0.56712383               -0.05360083                0.94839187               -1.12359689
               8.42681238                4.29871448               52.93356845                0.00010000                0.25902145                0.63922723               -1.82080417               -0.52981794                5.22063170               -1.34396769
               9.42841428                3.93463250               52.79768939                0.00010000                0.18825535                0.85243031               -2.69596677               -1.36467762                9.02725257                1.93609480
              10.43057749                3.56300545               52.66307491                0.00010000                0.07520291                0.70854088               -3.57513126               -2.28728836                9.72594914                5.70600738
              11.42991834                3.18244156               52.54221050                0.00010000               -0.36139781               -0.00275311               -4.10233053               -4.23063058               13.76472889               10.72749594
              12.42334953                2.77521313               52.48618022                0.00010000               -1.34513510               -1.96274730               -4.26161191              -10.29628507               21.51496886               14.07351393
              13.40301564                2.26964954               52.51114337                0.00010000               -5.28879007                3.00292519               -5.22309809              -13.42881106               24.02735454                2.75325999
              14.31757373                1.70510673               52.50994085                0.00010000               -4.25915087                5.93216967                0.33544422               -5.06817210               10.10461903               -4.26674091
              15.31783262                1.37608871               52.31287615                0.60186983                0.02588855                1.15150584               -0.60175925                5.53971373                0.32960575               -5.34359809
               5.77696098                6.35502230               53.51255144                1.00000000               -0.26599589               -0.47669504                1.48356692               -0.04770529                0.15341995                0.99131485
               6.77430102                6.00665859               53.28049459                0.47178293               -0.09986001               -0.04796952                0.26949970               -0.01370666                0.45794335               -0.43673596
               7.77496378                5.65710390               53.05465678                0.00010000                0.20777232                0.38497263               -0.90487593               -0.08018262                1.74038400               -1.66431264
               8.77845646                5.30603170               52.84782681                0.00010000                0.52912378                0.76589497               -1.95117505               -0.32969080                8.77692452                2.12368752
               9.78554625                4.94437298               52.76240819                0.00010000                0.73051394                0.83649827               -2.68405880               -0.82711689               14.11945983                3.44675425
              10.79306674                4.57058453               52.66261355                0.00010000                0.84297061                0.55773519               -3.33752456               -1.36912857               14.45967079                5.68588276
              11.80240566                4.18223461               52.58171501                0.00010000                1.04163307               -0.16841325               -3.70671472               -2.58343060               17.28802990                7.63015547
              12.81389940                3.76316844               52.53267323                0.00010000                0.46463638               -0.78347717               -3.79457862               -5.27154329               20.39546054                6.74267499
              13.81169839                3.29618886               52.50771586                0.00010000               -1.77650834                2.30176440               -3.15956512               -6.59686575               21.93005708                1.80483840
              14.77836924                2.82387691               52.47835242                0.00010000               -2.70713446                8.20366141               -4.21324157               -0.76087705               13.38500639               -2.20670308
              15.75755570                2.39606226               52.27092950                0.56542515               -2.08135350                3.49485112               -4.00580586                1.62446762                3.41856484               -7.04876381
               6.12272886                7.35079737               53.42902860                1.00000000               -0.17450287               -0.37399238                1.14488876               -0.03771037                0.01138327                0.78041069
               7.12098384                7.00685512               53.18873311                0.30498495               -0.02358863                0.06801966               -0.03486281               -0.00156839                0.42643937               -0.64189782
               8.12225709                6.66182880               52.95676185                0.00010000                0.59828252                0.54306056               -1.21023984               -0.12410511                6.18564058               -2.04777156
               9.13294949                6.31403237               52.83107611                0.00010000                1.25310091                0.72697723               -1.78975306               -0.12726450               13.05137124                3.68267135
              10.14731911                5.95136247               52.73412442                0.00010000                1.61919018                0.55811568               -2.72802000               -0.70722653               15.74453088                3.69967215
              11.16533329                5.57416015               52.65963998                0.00010000                1.91733525                0.20011416               -3.27513728               -1.27524364               17.84187081                4.96522989
              12.18566581                5.17907329               52.59968483                0.00010000                1.93155658               -0.27282807               -3.55785890               -2.37904215               19.80034752                5.69536260
              13.20396442                4.75954359               52.55702737                0.00010000                1.23520178               -0.13324399               -3.52683021               -4.09656039               21.85463311                5.02296644
              14.21036985                4.31568483               52.52830217                0.00010000               -0.07408167                1.59832061               -3.40449547               -4.46959606               23.69821634                3.10571301
              15.20248279                3.86917996               52.51212303                0.07003157               -0.22092877                3.00551242               -3.27182932               -1.39293270               13.10645853                1.94448452
              16.20595127                3.44598574               52.26315578                0.61570012                0.34684871                3.60895741               -3.83264606                1.12679466                1.50688320               -2.30834186
               6.46409127                8.34754245               53.34393781                0.92576869               -0.08530532               -0.28288733                0.83459275               -0.03816974                0.02549897                0.69866138
               7.46323822                8.00801898               53.09701675                0.23367432                0.06065733                0.15807991               -0.31508683                0.02283174                0.34122877               -0.64021807
               8.46530442                7.66796511               52.85639104                0.00010000                1.15696443                0.65204429               -1.47242595               -0.27918849                8.71529144               -2.20016231
               9.48637751                7.32057124               52.77627087                0.00010000                2.29847625                0.56367510               -2.21573947               -0.44054131               17.44908172                1.19901837
              10.51127394                6.95553529               52.70661059                0.00010000                2.67367697                0.26296045               -2.85011893               -0.95116941               18.97634616                3.13670867
              11.53985105                6.57458681               52.65123055                0.00010000                2.90837204               -0.07538607               -3.32034317               -1.45891735               20.74176366                4.18664107
              12.56944138                6.17677805               52.60938846                0.00010000                2.77528066               -0.24204292               -3.52354715               -2.24709474               22.42791443                4.80922332
              13.59535666                5.76050356               52.57856976                0.00010000                2.16143564                0.07727357               -3.48126078               -3.15341291               23.87610293                4.70529377
              14.61267010                5.32815527               52.55566306                0.00010000                1.24265083                0.88119252               -3.18988137               -3.53658634               25.08484929                3.76137061
              15.62020968                4.88398716               52.53987694                0.12647614                0.69049757                1.17135536               -2.38056159               -1.47301133               13.15479971                1.61316198
              16.62648005                4.46824141               52.27138302                0.65341676                0.62703722                1.74449045               -3.19968430                0.11861471                0.57132847               -1.09723890
               6.80101240                9.34513962               53.25886730                0.89212764                0.00054130               -0.19815731                0.55049582               -0.03814386                0.02421858                0.70208259
               7.80101781                9.01001672               53.00526075                0.22114146                0.15543329                0.23539746               -0.59011893                0.04662829                0.21932196               -0.63035089
               8.80412106                8.67486969               52.75551284                0.00010000                1.77753324                0.69702193               -1.70200316               -0.56970935               10.68992404               -2.19764044
               9.83656848                8.32530588               52.71055906                0.00010000                3.50795435                0.30719331               -2.46415142               -0.99954961               21.43811703                0.42532509
              10.87428015                7.95662168               52.66967966                0.00010000                3.91718560               -0.12351327               -3.04885115               -1.33459221               22.48426276                2.23857533
              11.91491219                7.57265243               52.63744382                0.00010000                4.02635106               -0.38386975               -3.41323535               -1.50692150               23.92687793                3.43384153
              12.95480717                7.17423243               52.61560416                0.00010000                3.73033771               -0.38499173               -3.50440578               -1.86219143               25.35920426                4.26326986
              13.98951894                6.76108906               52.60147736                0.00010000                3.06736766               -0.09597890               -3.31039521               -2.40156259               26.24607632                4.88652598
              15.01615452                6.33330868               52.58728675                0.00010000                2.17087396                0.29186750               -2.90165770               -2.96161421               25.98904370                4.83337237
              16.03293642                5.89260707               52.55908834                0.16663727                1.18302744                0.78131804               -2.07914855               -1.47716469               12.92312161                1.10457165
              17.03981507                5.48087554               52.27713212                0.67503860                0.68786526                1.09516529               -2.88980303                0.01919716                0.24150547               -1.28306731
               7.13357421               10.34357930               53.17394500                0.88814799                0.08665131               -0.11129585                0.26678081               -0.03841977                0.00698224                0.69802557
               8.13444072               10.01272693               52.91361938                0.25871722                0.25234324                0.30406808               -0.86066719                0.04935762                0.09804096               -0.60267947
               9.13862107                9.68190555               52.65502804                0.00010000                2.50969023                0.69186067               -1.93212522               -1.07464350               12.47184465               -1.91385980
              10.18463452                9.32671511               52.64139837                0.00010000                4.93072364               -0.19112828               -2.69306322               -1.69283363               25.09621212                0.16841355
              11.23723554                8.95306503               52.62660686                0.00010000                5.37336676               -0.74148672               -3.23765832               -1.47192059               25.86856653                1.56713449
              12.29210186                8.56690942               52.61739862                0.00010000                5.32626906               -0.81595035               -3.51617446               -1.25108509               27.24541534                2.58630185
              13.34376093                8.16907821               52.61780979                0.00010000                4.80736512               -0.73407574               -3.45025038               -1.28118357               28.84667494                3.51165510
              14.38824916                7.75858398               52.62821876                0.00010000                3.90794387               -0.51511633               -2.95164219               -1.57119697               29.70069474                4.73996627
              15.42191980                7.33399262               52.63475038                0.00010000                2.74251771               -0.20860294               -2.20542620               -2.00906101               26.57641330                7.12495870
              16.44309952                6.89961352               52.57418199                0.20205270                1.42036189                0.68541268               -2.07832281               -1.25767918               11.82674215                0.90402379
              17.45032704                6.49014472               52.27989238                0.68742143                0.72275246                0.88466238               -2.80135352                0.02361401                0.11548930               -1.55030212
               7.46194874               11.34291371               53.08889797                0.86317399                0.17299785               -0.02006423               -0.02097589               -0.04248511                0.00941684                0.60153880
               8.46367872               11.01609808               52.82222849                0.30832954                0.33456391                0.37256863               -1.13830926                0.01788308                0.20545240               -0.50912318
               9.46864002               10.68870690               52.55934759                0.00010000                3.39368022                0.68792633               -2.17559372               -1.90644275               14.19015414               -1.16816217
              10.53155232               10.32148331               52.57161054                0.00010000                6.80037053               -1.37491878               -2.92005591               -1.85845709               28.27008272                0.11119163
              11.60464743                9.94179194               52.57849103                0.00010000                7.11624887               -1.41901096               -3.42447629               -1.09171571               28.93563303                0.87016895
              12.67387730                9.55633342               52.58935308                0.00010000                6.64307530               -1.30399361               -3.62348687               -0.66041920               30.43337986                1.47516070
              13.73750893                9.15955092               52.61117870                0.00010000                5.96516482               -1.16578982               -3.39982538               -0.64563302               32.51461739                2.10074010
              14.79318060                8.75078673               52.64894896                0.00010000                4.87174161               -1.07103875               -2.58462295               -0.83834161               35.26940654                3.16795892
              15.83494377                8.32913662               52.71227288                0.01711690                2.92250723               -0.57460203               -0.67676490               -0.89018729               27.72615439                6.08108601
              16.85163074                7.90631532               52.58895671                0.25850939                1.21406005                0.67766346               -2.22521696               -0.76106922                9.20951010                0.80005723
              17.85922497                7.49856879               52.28105763                0.68973346                0.75942267                0.85256367               -2.82831736                0.02898544               -0.06128262               -1.33412063
               7.78635576               12.34317802               53.00216915                0.94068216                0.26494268                0.02643103               -0.31108898                0.14073100                0.28499794                0.51040576
               8.78900519               12.02017831               52.73214389                0.70556192                0.43756121                0.40802268               -1.42950653                0.15694979                0.84029592               -0.42190827
               9.79510699               11.69566407               52.47304141                0.40905271                5.26875767                0.69571723               -2.46445563               -3.40138188               15.89157736               -0.66131736
              10.89438034               11.29921673               52.50305147                0.31549058                9.27220662               -2.22665776               -3.16905603               -2.26616139               30.79823623               -0.04919186
              11.98055112               10.92468481               52.52430593                0.30696774                8.33770795               -1.71071349               -3.62414322               -0.32899039               31.43785998                0.38347266
              13.06113450               10.54082955               52.54982323                0.31416815                7.79219190               -1.55038770               -3.75262137               -0.22039954               33.14271192                0.72180763
              14.13639496               10.14576242               52.58775267                0.33658505                7.03810643               -1.37885023               -3.43755267               -0.29471473               35.65293849                1.07995603
              15.20189663                9.73716321               52.64638797                0.37401922                5.60962563               -1.36235241               -2.43182950               -0.29148865               39.25371384                1.76733438
              16.24858747                9.32250058               52.74110726                0.53779420                2.82746657               -0.66360417               -0.39697317                0.16454927               29.91584549                3.55921040
              17.25844596                8.91316679               52.60226301                0.66248678                0.89061717                0.68514685               -2.39667397               -0.08370755                9.44400504                0.70072888
              18.26639981                8.50719599               52.28954256                0.84560507                0.79538514                0.86271966               -2.92116195                0.12040413                0.69032989               -1.04933170
               4.56447285                2.47642179               54.86206116                1.00000000               -0.69752135               -0.84283123                2.92355674               -0.24755770               -0.85026560                0.83203853
               5.55749764                2.10474547               54.63412735                1.00000000               -0.53242441               -0.42139820                1.59835318               -0.18203976               -1.10903029                0.13476355
               6.55382437                1.73221976               54.40108176                1.00000000               -0.21133725               -0.01609358                0.31734049               -0.19326185               -0.99883673               -0.18979709
               7.55327090                1.35733351               54.17486458                0.54825778               -0.11986412                0.45151394               -0.99655750               -0.32800659                0.41458985               -0.78623251
               8.55142708                0.97802233               53.96881464                0.51029863                0.07757417                0.97288915               -2.30528472               -0.27172318                1.83841505                0.03425441
               9.55482238                0.59637883               53.76617758                0.59790606                0.62149619                1.30317095               -3.67112056               -0.23280365                2.17900378               -0.13249573
              10.56385701                0.21134992               53.56155003                0.65261603                1.03660125                1.73147866               -5.17236071               -0.30873021                3.04733197               -0.37310126
              11.57555440               -0.17679742               53.37086900                0.17256526               -4.92327268                2.05501607               -6.37055357              -11.83117593                9.94984976                0.08151961
              12.46539155               -0.79645174               53.30071748                0.00010000               -3.62650707                2.40682124               -6.86311258              -13.54686121               14.91423941               -2.74974210
              13.50302426               -1.36494381               53.29707642                1.00000000                2.37857489                0.60415573               -3.08382141              -11.20608187                9.17268283                0.29089143
              14.51296305               -1.70704113               53.10263273                1.00000000                0.99387886                0.83687507               -3.76372887               -0.32226933                0.08671321               -0.71613985
               4.93367359                3.46799347               54.77500212                1.00000000               -0.58953332               -0.79718542                2.60690548               -0.02483190               -0.17444497                1.11874691
               5.92777826                3.10053149               54.54701557                1.00000000               -0.40379303               -0.38049890                1.28073994                0.03558003               -0.25000486                0.21512254
               6.92559773                2.73205882               54.31762505                1.00000000               -0.03443583                0.02602415               -0.01575684                0.03301086               -0.11719186               -0.31969404
               7.92708954                2.36184865               54.09205536                0.31942702                0.17947308                0.47696261               -1.33968596               -0.07821869                1.76747116               -1.07016137
               8.92918719                1.98775123               53.89971901                0.43435007                0.43705052                0.93498886               -2.61862234               -0.09515754                3.13337818                0.08521154
               9.93583055                1.60941054               53.69965547                0.70810742                0.90853189                1.30427103               -3.92657615               -0.09510531                2.70302324               -0.13238616
              10.94735783                1.22866470               53.49563059                0.78416066                1.26564618                1.73056039               -5.30170767               -0.19309480                3.66657404               -0.59684717
              11.96114348                0.84375274               53.31131462                0.22794194               -1.16808482                1.71092797               -6.01058514              -12.26173987               15.64981826                1.35937585
              12.92399613                0.22761647               53.34501828                0.00010000               -5.74426681                1.39176019               -2.85959532              -21.29589586               23.62149566                0.06993298
              13.84625814               -0.35890225               53.37017049                1.00000000               -3.60792246                0.42042059               -1.54884869              -12.15487611               11.13230263                0.51306825
              14.85183768               -0.69867238               53.17162040                1.00000000                0.55795454                0.66832798               -2.30011164               -0.18703819                0.13437906               -0.45911446
               5.29890018                4.46047808               54.69395183                1.00000000               -0.47562891               -0.70157909                2.25551577               -0.02293316                0.04397228                1.37395235
               6.29414389                4.09713550               54.46149795                1.00000000               -0.28663778               -0.28940951                0.95159993                0.03411928                0.14741621                0.21731167
               7.29316743                3.73274024               54.23125375                0.72135221                0.09351116                0.11985473               -0.34247867                0.01810544                0.37453221               -0.62472847
               8.29601412                3.36687276               54.00316596                0.00010000                0.43973079                0.54089721               -1.64543024               -0.15059383                3.28944024               -1.32782341
               9.30196204                2.99672211               53.83078163                0.02603285                0.79963392                0.77048880               -2.89955814               -0.67034228                4.62143569                0.58469071
              10.31200680                2.62246425               53.63152801                0.19068101                1.18454332                0.80461453               -4.22693235               -1.22010146                2.92537137                3.01804995
              11.32565291                2.24596112               53.42377252                0.25628599                0.96805229                0.43621547               -5.57792847               -2.45595348                5.81210304                6.60784254
              12.33136784                1.85742114               53.28000651                0.00010000               -4.17621429               -1.69543145               -4.08869612              -15.68603967               23.19243825               11.42692923
              13.24212862                1.23138346               53.42679872                0.00010000               -7.25761248                2.68582220               -5.82360738              -25.03516962               31.57041314                4.86523495
              14.18621559                0.64346460               53.44207691                0.72838457               -2.66830353                0.09290473               -0.45286480              -12.44968775               11.06568691                0.51148151
              15.18876255                0.30632542               53.23945299                1.00000000                0.25469613                0.38849602               -1.29704316               -0.16348479                0.21395926               -0.44884670
               5.65990010                5.45396189               54.61219190                1.00000000               -0.37016134               -0.59388962                1.89106808               -0.03758935                0.16325252                1.19403531
               6.65619848                5.09474330               54.37436769                0.82512444               -0.18387598               -0.17782307                0.61068799                0.01144894                0.39645877               -0.06824073
               7.65622258                4.73445592               54.14133627                0.18431203                0.19486560                0.23787334               -0.64607077               -0.02501315                0.96225723               -1.10072368
               8.66009579                4.37266659               53.91457942                0.00010000                0.19831419                0.66999780               -1.95861565               -0.44726483                5.38983133               -1.19894411
               9.66018886                4.00316100               53.76957292                0.00010000                0.10468581                0.74063998               -2.92109405               -1.18873940                9.38979638                2.14264478
              10.66218951                3.62550283               53.62590807                0.00010000                0.15465061                0.34529152               -3.86011711               -2.17545471               10.36520069                6.10862411
              11.66328187                3.23738901               53.50016921                0.00010000               -0.00945818               -0.85789682               -4.28377114               -4.71719997               14.88924655               11.32648331
              12.66200035                2.80984411               53.44256744                0.00010000               -1.30162990               -3.25043225               -4.37501287              -11.28871485               22.34809267               13.65296862
              13.63724927                2.28133291               53.45709948                0.00010000               -6.98389641                3.50067000               -5.20090962              -17.20106493               27.44127176                2.70081681
              14.52232242                1.64295584               53.51344152                0.00010000               -5.72014636                7.55950475                0.36735142               -6.04736448               13.48050837               -7.27791016
              15.52284635                1.30909754               53.30652040                0.60292217                0.05239276                1.94349005               -0.77670100                7.38251669                0.36157749               -7.76084696
               6.01658558                6.44860029               54.52765771                1.00000000               -0.27067308               -0.48094274                1.53213591               -0.04496701                0.14344472                0.92931312
               7.01387885                6.09357903               54.28309387                0.45599564               -0.09208528               -0.05043819                0.24898189               -0.00018086                0.47018004               -0.45464991
               8.01474388                5.73749771               54.04513931                0.00010000                0.22424428                0.38468397               -0.98507123               -0.03447780                1.84166783               -1.64443702
               9.01836374                5.38027272               53.82768771                0.00010000                0.53035726                0.76072847               -2.04946889               -0.27996869                9.08249992                2.45016933
              10.02535102                5.01153491               53.73440740                0.00010000                0.79529779                0.68573532               -2.90745380               -0.74423806               14.61620652                3.57530377
              11.03426969                4.62937008               53.62789225                0.00010000                1.08083042                0.19081074               -3.60560456               -1.40656817               15.20081211                5.81118274
              12.04696763                4.22880319               53.54315534                0.00010000                1.36899768               -0.81804808               -4.01095597               -2.96383089               18.36338728                7.56893640
              13.06164965                3.79241249               53.49276968                0.00010000                0.90139806               -1.26333201               -4.17217618               -6.25093976               21.92673736                6.35546025
              14.06499559                3.30139686               53.47300565                0.00010000               -1.20729834                1.91395822               -3.78885532               -7.94081103               22.70893625                1.62358935
              15.03750368                2.79465470               53.42908164                0.00010000               -3.04330442               10.61575873               -5.23126143               -0.31140971               13.94700943               -5.66861589
              16.00412950                2.34519523               53.22757741                0.55831977               -3.33741765                5.59118193               -4.68253826                2.69902954                4.71745344              -10.30194438
               6.36904326                7.44434304               54.44067678                1.00000000               -0.17458163               -0.37716772                1.17930517               -0.03732629                0.01250643                0.74219459
               7.36729744                7.09373454               54.18824044                0.29220804               -0.01019609                0.06608464               -0.06145897                0.00730624                0.42948509               -0.62363240
               8.36883934                6.74214960               53.94414799                0.00010000                0.65808863                0.53497400               -1.30093342               -0.09852179                6.45228928               -1.99632448
               9.38045922                6.38788116               53.81167894                0.00010000                1.36836991                0.67834306               -2.06757330               -0.11642101               13.41688153                3.75276731
              10.39620674                6.01687571               53.70554040                0.00010000                1.81653269                0.39874443               -2.98344277               -0.74846809               16.16620115                3.67934038
              11.41678987                5.62931904               53.62531531                0.00010000                2.23780518               -0.10772847               -3.59705892               -1.44650126               18.57423069                4.84570885
              12.44096284                5.22102805               53.56220534                0.00010000                2.37990048               -0.65030684               -3.96244830               -2.81790439               20.83203588                5.42262828
              13.46438788                4.78457747               53.51938240                0.00010000                1.76140024               -0.44359183               -4.06006129               -4.83700427               23.06389119                4.56558245
              14.47619084                4.31961208               53.49091460                0.00010000                0.39539889                1.64617974               -4.16047413               -5.30758744               24.84197941                2.31147383
              15.47229586                3.85527102               53.47350976                0.04767899               -0.02224813                4.06096318               -4.67072079               -1.85787485               14.04165200                2.31852438
              16.47574588                3.42092117               53.22210222                0.60201064                0.34500246                5.25430603               -4.59584687                1.65262775                2.23780734               -2.51492676
               6.71705606                8.44105693               54.35245530                0.91623906               -0.08376398               -0.28648160                0.86769065               -0.03968328                0.03297540                0.69284332
               7.71621842                8.09490073               54.09367301                0.22261403                0.07853797                0.16019950               -0.35215655                0.02164279                0.34274838               -0.61010795
               8.71862682                7.74819719               53.84106512                0.00010000                1.25453928                0.64915655               -1.58141139               -0.29094400                8.91166265               -2.12495537
               9.74130920                7.39383958               53.75297278                0.00010000                2.51584805                0.50357288               -2.43914169               -0.49550829               17.85159090                1.05157169
              10.76894378                7.01950980               53.67654525                0.00010000                2.99390605                0.12408636               -3.16460571               -1.10424930               19.48451601                2.98455231
              11.80118732                6.62721551               53.61617694                0.00010000                3.32036682               -0.28520790               -3.70873926               -1.72342720               21.44189728                3.95503171
              12.83535111                6.21579705               53.57197589                0.00010000                3.25691051               -0.46359356               -4.00432681               -2.68094707               23.35979704                4.49771046
              13.86632553                5.78354065               53.54120079                0.00010000                2.63995884               -0.03702741               -4.07562178               -3.75966189               25.03849090                4.33502263
              14.88815029                5.33432045               53.52085331                0.00010000                1.63557741                1.06973050               -3.90711600               -4.10573309               26.64705401                3.52705404
              15.89903708                4.87587396               53.51375971                0.10880054                0.88657260                1.55673935               -3.02695519               -1.73515583               14.20436569                2.18342677
              16.90588174                4.45028135               53.23862197                0.63988083                0.68446604                2.17332884               -3.48285129                0.08563403                0.86089962               -0.61942896
               7.06056201                9.43861341               54.26454354                0.88506656                0.00280391               -0.20256461                0.58471242               -0.03962619                0.02263388                0.71271658
               8.06059004                9.09693853               53.99912490                0.21046093                0.17598016                0.24123996               -0.63590186                0.04117857                0.23048911               -0.60089893
               9.06408161                8.75513273               53.73781735                0.00010000                1.93231969                0.70918377               -1.83066055               -0.62573315               10.88232601               -2.11941469
              10.09923644                8.39795262               53.68464705                0.00010000                3.83321054                0.25292262               -2.71879711               -1.10233831               21.81424135                0.33872518
              11.14074582                8.01935744               53.63746049                0.00010000                4.33988184               -0.23469355               -3.40719554               -1.52776825               22.99609624                2.04979465
              12.18603408                7.62361488               53.60124551                0.00010000                4.51364666               -0.52326388               -3.85875009               -1.77056692               24.62988209                3.19196948
              13.23101875                7.21175618               53.57828881                0.00010000                4.23185819               -0.49626053               -4.02180972               -2.21024644               26.29878232                4.03106305
              14.27067124                6.78383692               53.56602350                0.00010000                3.53620612               -0.10340244               -3.88449641               -2.82240863               27.41355179                4.82902090
              15.30174287                6.34100669               53.55604655                0.00010000                2.54803048                0.39203161               -3.47205660               -3.35987617               27.52913871                5.08346190
              16.32163185                5.88640580               53.53768496                0.15442379                1.34504597                0.90148401               -2.28416343               -1.65718473               13.85429138                1.29141213
              17.32864379                5.46438775               53.24861335                0.66179014                0.70119459                1.16144688               -2.87606514               -0.01759649                0.34074142               -0.94352246
               7.39961329               10.43700564               54.17676261                0.88192812                0.09093767               -0.11663596                0.29703160               -0.04030867                0.00795715                0.70724872
               8.40052267               10.09972553               53.90472814                0.24670029                0.27423858                0.31525093               -0.91658478                0.04471606                0.12644251               -0.57882840
               9.40509806                9.76238086               53.63498111                0.00010000                2.72575299                0.72069247               -2.07451587               -1.17282891               12.67194975               -1.84977882
              10.45503773                9.39889803               53.61306198                0.00010000                5.38140420               -0.24898666               -2.98118784               -1.84779102               25.45882501                0.11128475
              11.51272615                9.01481593               53.59234262                0.00010000                5.91697566               -0.84792437               -3.63753206               -1.65383958               26.38723620                1.42158216
              12.57337724                8.61675023               53.58006906                0.00010000                5.90990005               -0.92270707               -3.99594273               -1.44429039               27.99463933                2.40103683
              13.63092415                8.20587184               53.58113933                0.00010000                5.36248067               -0.81211730               -3.96307188               -1.48142800               29.93570215                3.39698394
              14.68062686                7.78147261               53.59694725                0.00010000                4.37298666               -0.53380967               -3.41262893               -1.77934672               31.08287420                4.92943500
              15.71838388                7.34216109               53.61133288                0.00010000                3.09427337               -0.22317253               -2.61132507               -2.19404763               27.78011508                8.21195277
              16.74251232                6.89390364               53.55347943                0.19519145                1.55910189                0.71109028               -2.11178128               -1.39263641               12.30124944                0.87466939
              17.74956592                6.47351028               53.25280858                0.67439007                0.70535975                0.84824912               -2.64905364                0.01373798                0.15049015               -1.34957828
               7.73431606               11.43628069               54.08881398                0.85515802                0.17930831               -0.02670463                0.00549510               -0.04420248                0.01249791                0.60734127
               8.73610914               11.10324355               53.81050143                0.29297317                0.35682338                0.39054033               -1.20548087                0.01407243                0.25100328               -0.49754657
               9.74145253               10.76954658               53.53684084                0.00010000                3.68682043                0.72440741               -2.32691927               -2.06150230               14.40995718               -1.13440696
              10.80984555               10.39297288               53.54093394                0.00010000                7.41821494               -1.50881222               -3.22729772               -2.00977461               28.64747886                0.09451106
              11.88981683               10.00239895               53.54230315                0.00010000                7.81234021               -1.55177812               -3.84332894               -1.20767134               29.49229673                0.79544417
              12.96609236                9.60516074               53.55097726                0.00010000                7.34254955               -1.42300695               -4.10806428               -0.75420999               31.27201075                1.37507530
              14.03666782                9.19551383               53.57526472                0.00010000                6.63513515               -1.27140288               -3.87261553               -0.72318861               33.80845510                2.05978782
              15.09879506                8.77316073               53.62201925                0.00010000                5.43815338               -1.18654453               -2.91844196               -0.92573027               37.40939347                3.38426536
              16.14543089                8.33654324               53.70626672                0.02752226                3.18174318               -0.62343652               -0.60548810               -0.91017935               28.55620819                7.01354027
              17.16242992                7.90062761               53.56704326                0.25899787                1.21371927                0.67307268               -2.20751933               -0.82476026                8.68480146                0.70435053
              18.16970527                7.48135273               53.25395169                0.67596795                0.72753482                0.78689515               -2.61788988                0.02695966               -0.03011142               -1.20795331
               8.06480353               12.43647155               53.99915174                0.93546958                0.27347030                0.01908602               -0.28970792                0.15522503                0.28189580                0.51378139
               9.06753823               12.10753633               53.71745342                0.69658191                0.46675770                0.42927866               -1.50521663                0.16278170                0.88359356               -0.41797850
              10.07413868               11.77686901               53.44763301                0.40686253                5.72258183                0.73224346               -2.61946802               -3.67211224               16.13516354               -0.65181371
              11.18198986               11.36872178               53.46991676                0.31535827               10.11230923               -2.42511000               -3.47092925               -2.44000091               31.25160543               -0.01548576
              12.27638486               10.98378037               53.48623000                0.30710466                9.15941458               -1.86185814               -4.02333180               -0.36478093               32.10087415                0.38695499
              13.36517816               10.58829009               53.51036454                0.31393835                8.60377641               -1.68706503               -4.19791570               -0.25824913               34.10067862                0.72050349
              14.44846039               10.18044378               53.55179554                0.33555208                7.79523456               -1.50700506               -3.84515565               -0.34816138               37.11031716                1.12270800
              15.52108285                9.75774171               53.62158769                0.37247082                6.21265093               -1.54190114               -2.64104587               -0.30879248               41.51357868                2.00503484
              16.57271341                9.32969236               53.73808515                0.54599185                3.00623856               -0.68508798               -0.31363030                0.20942162               30.48400291                3.90055556
              17.58120762                8.90736510               53.57887025                0.66429503                0.79707277                0.67374855               -2.33331483               -0.14443879                8.62446754                0.62580721
              18.58865487                8.48924819               53.26175100                0.83755465                0.74472473                0.78954531               -2.65871289                0.08326867                0.68778011               -0.94062279
               4.79084628                2.57318365               55.89153565                1.00000000               -0.69823089               -0.85296293                2.95841862               -0.25672826               -0.79421688                0.79379161
               5.78386397                2.19476284               55.65008294                1.00000000               -0.52133178               -0.41921164                1.58784643               -0.19231689               -1.02820567                0.12880643
               6.78041965                1.81551164               55.40391913                1.00000000               -0.17199382               -0.00080822                0.25377524               -0.20150283               -0.91960342               -0.17579807
               7.78042410                1.43412967               55.16421260                0.54442495                0.00908056                0.47188377               -1.12099209               -0.31201625                0.43705743               -0.75788342
               8.78060126                1.04907219               54.94422173                0.53179719                0.28730545                1.01404381               -2.57237636               -0.28169921                1.73931042                0.05081232
               9.78617020                0.66264122               54.72737143                0.62843279                0.82118182                1.37923881               -4.02457288               -0.23856430                1.93048307               -0.15548425
              10.79702489                0.27348899               54.50783021                0.57157536                1.10494067                1.81286101               -5.51139508               -0.36044001                2.88043119               -0.48086527
              11.80826902               -0.11975354               54.30746421                0.08233619               -6.98734735                2.01090120               -6.35207398              -17.29744423               10.70794840               -0.15528689
              12.65727795               -0.85363886               54.24923015                0.00010000               -5.61387714                4.64625452               -5.70643465              -18.30293431               16.83379555               -0.05751877
              13.69599148               -1.44167839               54.25894238                1.00000000                2.73133778                1.00443390               -5.02478368              -11.68822287                9.91563107                0.60040394
              14.71190470               -1.79088255               54.05721060                1.00000000                1.59132263                1.30458047               -5.85524309               -0.50846027                0.11575745               -0.76701426
               5.16669980                3.56465402               55.80129518                1.00000000               -0.59229976               -0.80590721                2.63999064               -0.02863450               -0.14883922                1.07095313
               6.16077681                3.19057073               55.55978130                1.00000000               -0.39893005               -0.37736508                1.26861084                0.03130932               -0.20548740                0.20636956
               7.15872120                2.81550356               55.31714035                1.00000000               -0.01265739                0.04229510               -0.07724039                0.03082626               -0.07370575               -0.30449752
               8.16052366                2.43884851               55.07800134                0.33559280                0.24036417                0.50184817               -1.45886759               -0.04490597                1.78997659               -1.02411453
               9.16352849                2.05921263               54.87204839                0.50031418                0.55262511                1.00460478               -2.89934020               -0.09093536                3.15690014                0.10939891
              10.17157616                1.67643361               54.65846539                0.76945762                1.05446949                1.39404430               -4.28967713               -0.08135676                2.69633261               -0.19289387
              11.18461788                1.29161760               54.44078993                0.66504982                1.36411692                1.82094541               -5.66418917               -0.30567587                4.09339460               -0.77100410
              12.19885850                0.90035547               54.25237706                0.08300699               -2.47034263                0.97313506               -5.81432922              -16.96036376               17.20224468                2.22800053
              13.13521102                0.19282369               54.29591223                0.00010000               -7.55637036                3.74963560               -5.11297974              -25.48806910               27.08753119                3.06873473
              14.04773109               -0.43163405               54.35200427                1.00000000               -3.95933814                0.69352538               -2.60647933              -13.59102953               13.04354788                0.83115703
              15.05602426               -0.77783674               54.14579460                1.00000000                0.82931690                1.00188773               -3.49730283               -0.30288499                0.39610984               -0.51387435
               5.53844018                4.55706550               55.71673223                1.00000000               -0.47995589               -0.70739602                2.29010785               -0.02653535                0.06534702                1.30750812
               6.53364062                4.18721554               55.47096325                1.00000000               -0.28408940               -0.28584788                0.93870936                0.03198017                0.17891017                0.19778721
               7.53275839                3.81635754               55.22750293                0.71175354                0.10881444                0.13628802               -0.40274126                0.02485806                0.40632639               -0.59894261
               8.53581691                3.44416663               54.98607804                0.00010000                0.42195273                0.56826697               -1.75527818               -0.06722733                3.30851964               -1.27165083
               9.54119744                3.06916429               54.80026025                0.06670059                0.81605945                0.73234985               -3.22416500               -0.61457293                4.73114888                0.75387720
              10.55213810                2.69052211               54.58737974                0.22197901                1.28960377                0.61900356               -4.61762859               -1.17736678                3.05795226                3.27583780
              11.56698952                2.30990790               54.36616150                0.21408810                0.78587794               -0.10145984               -5.95819792               -3.21934607                7.76313229                7.20529569
              12.56785566                1.89970916               54.24505118                0.00010000               -4.37417201               -3.24230685               -2.60225202              -18.70157112               24.28955243               10.36223411
              13.47950608                1.22135386               54.37026660                0.00010000               -8.65121695                4.23176297               -5.15827358              -29.08805375               33.56705815                4.11534175
              14.39483132                0.57219212               54.43739194                0.76831744               -4.06268421                0.20889208               -0.71698451              -15.10833835               14.25393506                0.49212848
              15.39825239                0.22915521               54.22574139                1.00000000                0.34210787                0.52920496               -1.94391883               -0.15958423                0.52694640               -0.96526839
               5.90586902                5.55050610               55.63132376                1.00000000               -0.37446534               -0.59709108                1.92629216               -0.03936477                0.18187056                1.12635495
               6.90212437                5.18485377               55.38039934                0.80121059               -0.18008759               -0.17613492                0.59459879                0.01528103                0.43204195               -0.10422013
               7.90226727                4.81822932               55.13452755                0.16796387                0.21239996                0.25229474               -0.70787853               -0.00975056                0.98288774               -1.08163993
               8.90637237                4.45021385               54.89439614                0.00010000                0.13071389                0.68844643               -2.05638114               -0.46741156                5.53877891               -1.03026987
               9.90488155                4.07385962               54.73926751                0.00010000                0.04564208                0.53736439               -3.11675944               -1.24658858                9.70586566                2.36381061
              10.90728521                3.68881368               54.58587257                0.00010000                0.30811787               -0.15605825               -4.12556343               -2.40371356               11.04797135                6.51341820
              11.91104391                3.28958840               54.45653508                0.00010000                0.30479543               -1.91653491               -4.40559428               -5.77489440               16.12838835               11.80522138
              12.91338112                2.83550933               54.39867996                0.00010000               -1.50384613               -4.31232368               -4.35682908              -12.87006341               23.27404687               12.19506134
              13.88096698                2.27745895               54.40712517                0.00010000               -8.78090733                3.67458313               -4.61844989              -20.64532300               30.80183417                1.84601363
              14.73776297                1.57254380               54.51728788                0.00010000               -7.10302889                8.91221167                0.35134828               -6.84026227               16.86155404              -10.79182669
              15.73890641                1.23274736               54.29734213                0.65391444                0.11434333                2.26431741               -1.26087777                8.85339786                0.46742912              -10.74410003
               6.26895754                6.54512368               55.54319415                1.00000000               -0.27345245               -0.48312117                1.56749490               -0.04395237                0.13155737                0.86744393
               7.26622302                6.18369284               55.28547423                0.44037226               -0.08771214               -0.05252153                0.22637345                0.01288525                0.49007771               -0.47358013
               8.26720330                5.82140344               55.03495536                0.00010000                0.23076762                0.38735914               -1.04955833               -0.00800861                1.98096534               -1.63034526
               9.27083837                5.45793556               54.80683744                0.00010000                0.52312676                0.67944015               -2.08674310               -0.39847605                9.36912004                2.69706958
              10.27766583                5.07991157               54.70425911                0.00010000                0.87483376                0.44759005               -3.09603258               -0.92047033               15.06185740                3.63936128
              11.28833505                4.68740095               54.59050146                0.00010000                1.35650741               -0.30120193               -3.85003489               -1.77333144               15.92556391                5.82613070
              12.30479598                4.27157720               54.50149589                0.00010000                1.71243987               -1.54415466               -4.30686143               -3.83713602               19.38842504                7.23229844
              13.32258384                3.81346268               54.44922970                0.00010000                1.23845864               -1.65426005               -4.51459464               -7.67899073               23.27023497                5.48008210
              14.32956516                3.29484552               54.43193875                0.00010000               -0.99230901                1.83038473               -4.38690950               -9.54556192               23.22490821                0.51792943
              15.30273766                2.75043636               54.37372720                0.00010000               -3.73259629               12.91642912               -5.64251139               -0.30193643               14.13797078              -10.22513230
              16.25491323                2.27444156               54.17727873                0.55537213               -4.78244328                7.59476405               -5.54456597                3.13132474                5.97317738              -14.41750126
               6.62785166                7.54084367               55.45261471                1.00000000               -0.17493369               -0.37955629                1.21311278               -0.03614294                0.02590539                0.70768535
               7.62610232                7.18380334               55.18750393                0.28096537                0.00063620                0.06197653               -0.08618281                0.01965863                0.44306744               -0.60893574
               8.62786438                6.82597650               54.93074318                0.00010000                0.68961967                0.51966030               -1.37391223               -0.14830434                6.66840330               -1.95650881
               9.63989471                6.46380265               54.78972465                0.00010000                1.45711890                0.53495026               -2.28783623               -0.30371267               13.75708589                3.71498404
              10.65700676                6.08281143               54.67445556                0.00010000                2.01291208                0.16973382               -3.21142114               -1.04593673               16.59839362                3.53919234
              11.68015296                5.68278965               54.58769881                0.00010000                2.56163445               -0.48218471               -3.91421010               -1.95914020               19.24635398                4.54609288
              12.70823945                5.25870531               54.52043587                0.00010000                2.81900165               -1.04642060               -4.39388784               -3.67740108               21.73885257                4.87888703
              13.73653299                4.80242413               54.47582614                0.00010000                2.24213136               -0.64498859               -4.67812213               -5.99867288               24.02828547                3.71681813
              14.75308208                4.31406664               54.44509269                0.00010000                0.77976100                1.93594398               -5.05965408               -6.40323289               25.37310230                1.10967637
              15.75212821                3.83087238               54.41870862                0.01988592                0.02202138                5.65220722               -6.47864283               -2.28166706               14.79430945                1.93468458
              16.75352250                3.38464264               54.17123884                0.58604351                0.13942947                7.74500746               -5.95793175                2.33004038                3.39602448               -3.48894438
               6.98231536                8.53753256               55.36129162                0.90637848               -0.08319954               -0.28785150                0.90535214               -0.03748368                0.04425846                0.69914405
               7.98148336                8.18493237               55.08997361                0.21372028                0.09612710                0.15701353               -0.38789567                0.02577721                0.34996347               -0.58800599
               8.98423790                7.83179664               54.82476281                0.00010000                1.32229150                0.62944538               -1.67155797               -0.39583786                9.08598866               -2.06651504
              10.00792919                7.46863457               54.72748803                0.00010000                2.67611017                0.40942636               -2.64300000               -0.75874703               18.20364094                0.85802307
              11.03776010                7.08330625               54.64331848                0.00010000                3.26645815               -0.04956124               -3.46830003               -1.51402295               19.93847009                2.68744612
              12.07325836                6.67775725               54.57705576                0.00010000                3.69266857               -0.50949725               -4.11723650               -2.30644567               22.05174004                3.52239215
              13.11161348                6.25064879               54.52930193                0.00010000                3.69953486               -0.65075302               -4.55834553               -3.47144794               24.13706619                3.93203163
              14.14724905                5.80056291               54.49705732                0.00010000                3.07193879               -0.02505586               -4.82696083               -4.67925711               25.97136253                3.68348473
              15.17305225                5.33356440               54.47752074                0.00010000                1.96396366                1.52158512               -4.93063981               -4.75443232               28.02578399                3.03448735
              16.18652833                4.86348050               54.47933783                0.08431166                1.04606333                2.39216094               -4.24835420               -1.94477230               15.34582208                3.03971210
              17.19397352                4.42934170               54.20172599                0.62342582                0.74451912                3.15879259               -4.16688561                0.14865154                1.44341107               -0.03648681
               7.33230235                9.53508664               55.27056155                0.87742311                0.00514259               -0.20393622                0.61759811               -0.03995717                0.02038337                0.73175024
               8.33235378                9.18694361               54.99254271                0.20155396                0.19715395                0.24207303               -0.67872530                0.03732381                0.24153303               -0.57908640
               9.33624543                8.83856541               54.71889963                0.00010000                2.04281952                0.70449215               -1.94379272               -0.77320539               11.04590006               -2.06085741
              10.37321017                8.47199118               54.65618312                0.00010000                4.06790925                0.20096725               -2.96810405               -1.41124466               22.12383210                0.16303772
              11.41760362                8.08182020               54.60153575                0.00010000                4.67356675               -0.33261232               -3.77893691               -1.95891937               23.42489262                1.71675323
              12.46668150                7.67259970               54.56026882                0.00010000                4.92006065               -0.62794210               -4.35682255               -2.30951851               25.21829302                2.75780660
              13.51600483                7.24569025               54.53516797                0.00010000                4.66753671               -0.53034009               -4.65963736               -2.83466930               27.08407691                3.58811636
              14.56003224                6.80192301               54.52378743                0.00010000                3.95355067                0.03070139               -4.68078782               -3.43639320               28.42627027                4.60234866
              15.59507584                6.34449835               54.51784562                0.00010000                2.87116093                0.72235540               -4.35289979               -3.76348702               29.12869703                5.24694745
              16.61745546                5.87871560               54.51340508                0.13643601                1.48486419                1.21340561               -2.73377427               -1.77796874               14.94294996                1.69479646
              17.62477313                5.44781849               54.21961081                0.64574803                0.73176698                1.42365522               -3.04206155               -0.05445962                0.52785345               -0.47027564
               7.67780229               10.53345383               55.17988563                0.87580918                0.09487854               -0.12076196                0.32810369               -0.04192753                0.00902491                0.72281845
               8.67875107               10.18977383               54.89528769                0.23583372                0.29619676                0.32391288               -0.97048403                0.03754032                0.15517268               -0.56363486
               9.68372622                9.84588649               54.61353772                0.00010000                2.88492170                0.74007240               -2.20832264               -1.34793519               12.83658532               -1.80455314
              10.73644951                9.47265391               54.58177461                0.00010000                5.71234844               -0.27362088               -3.27964919               -2.17015349               25.73683872               -0.02636163
              11.79797319                9.07665400               54.55385622                0.00010000                6.33742140               -0.90033754               -4.07528979               -2.03045337               26.80635712                1.15022473
              12.86319794                8.66519841               54.53747977                0.00010000                6.38117913               -0.95301249               -4.56340457               -1.84687839               28.62468401                2.05915009
              13.92559678                8.24004199               54.53854835                0.00010000                5.82575791               -0.77998907               -4.64146057               -1.86951240               30.91605828                3.12922858
              14.97971309                7.80117694               54.55996618                0.00010000                4.76965763               -0.40457031               -4.12332855               -2.08481282               32.36533832                5.04838596
              16.02098993                7.34801151               54.58252388                0.00010000                3.39678566               -0.09215916               -3.31794837               -2.37301250               29.07446153                9.48739277
              17.04764881                6.88774861               54.53194637                0.18339790                1.68443060                0.81479601               -2.26299674               -1.50051737               12.91626456                0.88854490
              18.05467854                6.45781481               54.22691131                0.65814928                0.70297323                0.88244111               -2.58036893                0.00825721                0.20200424               -1.09502413
               8.01882380               11.53267141               55.08900787                0.84668039                0.18481303               -0.03378489                0.03453339               -0.04555321                0.01553934                0.61947681
               9.02067193               11.19342187               54.79811887                0.27762053                0.37914247                0.40704596               -1.26990867                0.00700814                0.29967128               -0.49303717
              10.02640665               10.85336686               54.51280921                0.00010000                3.91838263                0.75784820               -2.47976430               -2.26412044               14.59679306               -1.11646577
              11.09903958               10.46651876               54.50706458                0.00010000                7.90217009               -1.58562588               -3.55859265               -2.25937270               28.93550114                0.03089017
              12.18445005               10.06381345               54.50162445                0.00010000                8.36581848               -1.60418916               -4.32119842               -1.44158413               29.94751435                0.64564458
              13.26635595                9.65353945               54.50719179                0.00010000                7.90929996               -1.43666771               -4.70910581               -0.96691925               32.00499480                1.18213046
              14.34263605                9.23009047               54.53372639                0.00010000                7.20052554               -1.24435250               -4.54277752               -0.89632332               35.03994218                1.93416022
              15.41036646                8.79383161               54.59058012                0.00010000                5.92039353               -1.15249572               -3.52651951               -1.06349042               39.67958949                3.58379043
              16.46104392                8.34265516               54.70016311                0.03891172                3.36376717               -0.55683328               -0.69359479               -0.94125265               29.43245259                8.08703293
              17.47764180                7.89501152               54.54480632                0.25584388                1.18809784                0.71401720               -2.29892664               -0.87835979                8.05149438                0.59090575
              18.48480588                7.46546731               54.22869983                0.65844802                0.71640714                0.74850541               -2.45526917                0.03134819                0.01168149               -1.06824597
               8.35539031               12.53277813               54.99637500                0.93033621                0.28054802                0.01067285               -0.26326803                0.17031251                0.28339695                0.52298290
               9.35819579               12.19791475               54.70203956                0.68743568                0.49783084                0.44928868               -1.57743404                0.16565150                0.93745021               -0.41913940
              10.36534692               11.86104345               54.42065205                0.40454591                6.13098382                0.76765931               -2.78042908               -3.95464050               16.36154417               -0.65383626
              11.48081546               11.44094139               54.43363288                0.31516722               10.83869484               -2.55773651               -3.80157228               -2.64607348               31.63837976                0.00514120
              12.58212082               11.04457022               54.44383929                0.30717555                9.83835355               -1.92432304               -4.49051497               -0.45674000               32.69021906                0.36195141
              13.67758253               10.63646506               54.46586491                0.31369819                9.26286665               -1.70743951               -4.77142097               -0.34810593               34.98265144                0.68477909
              14.76737815               10.21515494               54.51084956                0.33461777                8.41480303               -1.49355322               -4.46109735               -0.44269115               38.55210560                1.14035429
              15.84587859                9.77812703               54.59356705                0.37084380                6.68034072               -1.57045817               -3.11524604               -0.36279164               43.85519343                2.27424811
              16.90098497                9.33687484               54.73483466                0.55557382                3.06954346               -0.57803218               -0.44476023                0.18920120               31.01803626                4.14408086
              17.90726946                8.90202896               54.55559672                0.66432712                0.67044742                0.70174397               -2.37462113               -0.24173037                7.72017096                0.53415044
              18.91439391                8.47278492               54.23636830                0.82714196                0.71244519                0.73176058               -2.42807050                0.03439990                0.68940499               -0.82706965
               5.03149394                2.67277856               56.92122953                1.00000000               -0.69438915               -0.85626037                2.96819735               -0.26230564               -0.74475438                0.76060147
               6.02455005                2.28792488               56.66588427                1.00000000               -0.50956545               -0.41463078                1.56823109               -0.19853086               -0.95784240                0.12375059
               7.02130263                1.90226136               56.40615726                1.00000000               -0.14203060                0.01237145                0.19809853               -0.20623213               -0.85756359               -0.16219126
               8.02170944                1.51459836               56.15244474                0.54575721                0.08759170                0.49025624               -1.21721778               -0.31664472                0.40910708               -0.72810589
               9.02305447                1.12338527               55.91736712                0.55363647                0.40570625                1.05154113               -2.75864845               -0.29518839                1.59817789                0.04626526
              10.02982356                0.73108122               55.68568612                0.64105226                0.91591944                1.44631288               -4.26076337               -0.25939587                1.71979157               -0.19143613
              11.04137285                0.33581317               55.45132213                0.48654725                0.92449367                1.91001625               -5.74993551               -0.64638514                2.96203685               -0.57910861
              12.04831344               -0.06972887               55.24382752                0.03620782               -9.53917830                2.04546415               -6.38637607              -21.16370952               11.01166980               -0.38853162
              12.85058929               -0.89096629               55.18658879                0.00010000               -7.74785010                5.89210018               -6.89398069              -21.91350506               17.14101260                0.94500366
              13.89335643               -1.53905950               55.19658075                1.00000000                3.40762391                1.83308359               -8.13475213              -14.04012608                9.99033526                0.94004012
              14.91874177               -1.89954941               54.98552787                1.00000000                2.53853331                2.20687512               -9.29508900               -0.70524579                0.09694515               -1.05296910
               5.41372457                3.66421596               56.82780193                1.00000000               -0.59012244               -0.80894489                2.65027861               -0.03118137               -0.12568543                1.02954091
               6.40782334                3.28377857               56.57238779                1.00000000               -0.39104978               -0.37258378                1.24958957                0.02852338               -0.16598019                0.19833076
               7.40590357                2.90238507               56.31608024                1.00000000                0.00788450                0.05564132               -0.12963442                0.02994416               -0.04174238               -0.29069880
               8.40798103                2.51950092               56.06287801                0.35890882                0.29787894                0.52232956               -1.54908587               -0.03833202                1.74076603               -0.97530258
               9.41186115                2.13390068               55.84173221                0.56434879                0.65173126                1.05976287               -3.12542678               -0.08638558                3.08912527                0.08660677
              10.42101566                1.74554435               55.61386193                0.81025780                1.17264501                1.47463008               -4.59574749               -0.07731640                2.66891630               -0.27725476
              11.43531405                1.35491333               55.38234680                0.56376503                1.45252060                1.92543644               -6.00552935               -0.64736633                4.81281956               -0.92343951
              12.45006607                0.95072577               55.19502804                0.01014171               -3.45972491               -0.59541053               -5.51218511              -21.11091296               18.85551311                3.75037672
              13.36611955                0.16795471               55.24275868                0.00010000               -9.64096673                4.67218226               -5.43084373              -30.04573428               29.76409731                3.42482449
              14.25724673               -0.52072866               55.31804091                1.00000000               -4.69701641                1.35415324               -4.91635219              -16.14861526               14.49732344                1.44166528
              15.27217922               -0.87748066               55.10167434                1.00000000                1.49324889                1.75109669               -6.11607965               -0.48215974                0.84481760               -0.70986441
               5.79174509                4.65659966               56.73975399                1.00000000               -0.47936843               -0.70944440                2.30467430               -0.02955683                0.08585687                1.24889567
               6.78695140                4.28047320               56.48027213                1.00000000               -0.27829601               -0.28153272                0.92103574                0.02933533                0.20893453                0.17787598
               7.78617917                3.90337418               56.22319893                0.70475451                0.12378912                0.14928088               -0.45206583                0.02758517                0.43715430               -0.57655886
               8.78942718                3.52504495               55.96806040                0.00010000                0.45520789                0.59004387               -1.83078162               -0.03216367                3.21953696               -1.20938389
               9.79528332                3.14458053               55.76629833                0.10209667                0.89187033                0.62688360               -3.52291295               -0.67512666                4.69114525                0.96693512
              10.80726459                2.76057382               55.53917544                0.24597595                1.39803927                0.35525591               -4.99186337               -1.26964605                3.15337952                3.60120748
              11.82324411                2.37432189               55.30460856                0.19121040                0.28946020               -0.83771352               -6.32713466               -5.22413555               10.78180049                7.99720944
              12.81305379                1.91836292               55.22796147                0.00010000               -5.10575364               -5.05794756               -1.20592534              -22.25097114               25.81149445                8.50525192
              13.72112904                1.20247735               55.32363325                0.00010000               -9.86171460                4.43131623               -4.38903672              -33.08904300               34.79216029                3.44793438
              14.61581950                0.48802356               55.42773722                0.92818623               -4.92632327                0.57563570               -1.55274543              -17.74575149               16.95261668                0.78246892
              15.62260257                0.13547252               55.20057462                1.00000000                0.67830681                1.00794279               -3.56865178               -0.25974515                0.80992910               -1.62572224
               6.16538635                5.65002707               56.65071774                1.00000000               -0.37508224               -0.59707217                1.94387329               -0.04234093                0.20134834                1.06559855
               7.16163553                5.27814792               56.38625967                0.77459549               -0.17514107               -0.17351799                0.57695249                0.01557112                0.47104816               -0.14445136
               8.16188353                4.90537069               56.12717870                0.15333909                0.22479419                0.26504948               -0.75720976               -0.00126534                1.01758591               -1.07325094
               9.16613141                4.53130180               55.87345179                0.00010000                0.04731068                0.69203259               -2.11952369               -0.59585676                5.67233509               -0.82556376
              10.16282974                4.14643836               55.70723773                0.00010000               -0.01250195                0.22767794               -3.25465975               -1.55057533                9.97375360                2.65861985
              11.16588137                3.75264947               55.54339681                0.00010000                0.51062515               -0.82536841               -4.32701836               -2.99998471               11.78449332                6.99987818
              12.17304225                3.33815906               55.41205732                0.00010000                0.55049075               -3.23867643               -4.48068502               -7.51594359               17.54146396               12.32528039
              13.17689119                2.84956682               55.35543085                0.00010000               -1.91821007               -4.67474826               -4.36589766              -14.90101682               24.73840154                9.57520622
              14.13467804                2.25658104               55.36473048                0.00010000              -10.37773238                3.56552891               -4.01207716              -23.74577717               34.35701914                0.09613277
              14.96933654                1.49078405               55.52046849                0.05561411               -8.12958159               10.03538730                0.04619037               -7.73996182               20.27400919              -14.54154698
              15.97208641                1.14267819               55.28130285                0.79300710                0.27498723                2.37379859               -2.33172453                9.88378429                0.80050586              -14.27213451
               6.53465657                6.64465822               56.55900761                1.00000000               -0.27373694               -0.48138935                1.58661932               -0.04570881                0.11997739                0.81689349
               7.53191920                6.27700284               56.28762134                0.42291435               -0.08282972               -0.05457373                0.20322848                0.02058716                0.51756018               -0.49776416
               8.53299998                5.90867517               56.02414814                0.00010000                0.22615891                0.39206360               -1.10668017               -0.00070433                2.18575336               -1.63536502
               9.53644238                5.53888560               55.78595284                0.00010000                0.49620837                0.51142240               -2.05079002               -0.68919696                9.65344426                2.86668247
              10.54292415                5.14913409               55.67248675                0.00010000                0.95509067                0.10809170               -3.21733367               -1.37242193               15.44323242                3.66359570
              11.55554419                4.74406645               55.55089156                0.00010000                1.65418710               -0.94814350               -4.03458503               -2.48652269               16.63179037                5.77929110
              12.57600789                4.30954837               55.45701811                0.00010000                2.05336432               -2.36796543               -4.56249911               -5.23140973               20.41367214                6.66913517
              13.59661148                3.82486795               55.40247779                0.00010000                1.44941865               -1.92403032               -4.82564584               -9.61774272               24.54864611                4.16687863
              14.60499626                3.27378793               55.38526746                0.00010000               -1.08441861                1.98212874               -4.92117791              -11.50221336               23.95236926               -1.64261621
              15.57492311                2.68873131               55.31623141                0.00010000               -4.42531445               14.87850107               -5.89554973               -0.90700440               14.46937456              -16.00334533
              16.51648997                2.18294849               55.11668609                0.55666282               -5.84331375                9.20084177               -6.61430461                2.74769339                7.15918655              -19.13134118
               6.89978293                7.64039928               56.46493903                0.94998137               -0.17526099               -0.37826257                1.24327317               -0.03825083                0.03403637                0.68844612
               7.89803032                7.27705644               56.18651679                0.26991783                0.01018791                0.05494891               -0.11076506                0.03199843                0.46454924               -0.60152471
               8.89998668                6.91321196               55.91666975                0.00010000                0.69291197                0.50176341               -1.43700214               -0.28470019                6.86484526               -1.94085960
               9.91188856                6.54153024               55.76592222                0.00010000                1.51068822                0.28279813               -2.42866564               -0.71138955               14.09021545                3.55859232
              10.93020045                6.14860019               55.64131197                0.00010000                2.19240432               -0.14777764               -3.37937576               -1.63111695               17.02307336                3.29309986
              11.95573664                5.73368660               55.54703111                0.00010000                2.87060524               -0.94865571               -4.18736175               -2.85529818               19.85085884                4.09406027
              12.98761255                5.29079975               55.47432759                0.00010000                3.22800625               -1.49213916               -4.80808573               -5.02586985               22.51867505                4.09632764
              14.02029677                4.81108621               55.42581996                0.00010000                2.65789318               -0.78094446               -5.32433321               -7.68268256               24.78416464                2.46212474
              15.04077042                4.29622361               55.38972152                0.00010000                1.08695629                2.42346698               -6.07018860               -8.06714716               25.32105153               -0.68366859
              16.04203589                3.78835407               55.34393691                0.00010000               -0.10822489                7.66202180               -8.46215813               -3.13517090               15.32238407                0.09740148
              17.03860592                3.32669503               55.10294359                0.56757969               -0.34299735               10.91155756               -8.12496822                2.50827930                5.05584424               -5.57106173
               7.26057724                8.63709297               56.37056234                0.89621410               -0.08307446               -0.28724400                0.94283773               -0.03789345                0.04296802                0.71166466
               8.25974649                8.27810182               56.08591509                0.20595863                0.11274673                0.14931428               -0.41940030                0.03348934                0.36197467               -0.57495657
               9.26283217                7.91871044               55.80763396                0.00010000                1.35399345                0.59643545               -1.74753687               -0.60938711                9.24924602               -2.03733269
              10.28682636                7.54454156               55.70011278                0.00010000                2.76566409                0.26982755               -2.80854266               -1.26717492               18.51320198                0.59807642
              11.31814545                7.14617854               55.60717925                0.00010000                3.47061558               -0.27227170               -3.73068393               -2.22453470               20.33289313                2.24893155
              12.35623867                6.72509334               55.53383221                0.00010000                3.99727122               -0.76697946               -4.50662326               -3.27209416               22.55014862                2.89808247
              13.39809088                6.27970558               55.48080898                0.00010000                4.06476485               -0.82638316               -5.14075108               -4.71375775               24.72115492                3.10395957
              14.43753397                5.80924906               55.44466157                0.00010000                3.41472901                0.09444100               -5.69340345               -6.06130424               26.58889855                2.68337708
              15.46638546                5.32225727               55.42224052                0.00010000                2.21071519                2.23594464               -6.27679237               -5.66742810               28.95835579                2.10829011
              16.48174827                4.84197175               55.42879263                0.04932896                1.17940935                3.96695653               -6.64280657               -2.21939339               16.58932834                3.86600503
              17.48997364                4.40117964               55.15528426                0.60168347                0.82253711                5.15509468               -5.73230116                0.32996304                2.67913404                0.60647716
               7.61700735                9.63465440               56.27689550                0.87019184                0.00752789               -0.20386405                0.64883245               -0.04054552                0.02006255                0.75380322
               8.61708263                9.28004273               55.98555039                0.19359760                0.21759251                0.23874244               -0.71752611                0.03569030                0.25928647               -0.56623169
               9.62135920                8.92514067               55.69894150                0.00010000                2.09971662                0.68348887               -2.04380375               -1.03026275               11.18173841               -2.03567795
              10.65907696                8.54692680               55.62528497                0.00010000                4.18993882                0.14738852               -3.19790678               -1.96781336               22.36289220               -0.11424807
              11.70515798                8.14315476               55.56188175                0.00010000                4.88453755               -0.42234078               -4.13721540               -2.67885529               23.75785658                1.23147720
              12.75676771                7.71834701               55.51410906                0.00010000                5.20118499               -0.70415420               -4.87243691               -3.19712753               25.65265140                2.11809365
              13.80918168                7.27427209               55.48509607                0.00010000                4.98756404               -0.49037944               -5.38544515               -3.83519784               27.63178413                2.89170153
              14.85651899                6.81297503               55.47240774                0.00010000                4.27587470                0.31992875               -5.70436082               -4.34527297               29.15436798                4.12026080
              15.89469917                6.34094250               55.46898856                0.00010000                3.11033306                1.36670873               -5.68951808               -4.18871796               30.73645465                5.21788701
              16.91872565                5.86769320               55.48300947                0.10986541                1.60451094                1.91507751               -3.75057208               -1.82218386               16.26606216                2.50727604
              17.92678939                5.42979692               55.18777212                0.62576412                0.80637347                2.06705717               -3.59108032               -0.10450454                0.95015898                0.28726617
               7.96898968               10.63301569               56.18332468                0.86979435                0.09843537               -0.12367723                0.35897245               -0.04402663                0.00880695                0.74640340
               8.96997403               10.28287667               55.88531846                0.22551360                0.31765861                0.32941017               -1.02086307                0.02915688                0.18728866               -0.56047714
               9.97534285                9.93238022               55.59081465                0.00010000                2.97409892                0.74811330               -2.33877695               -1.61519308               12.95968814               -1.79702904
              11.02945601                9.54748933               55.54746900                0.00010000                5.89026432               -0.25971907               -3.58018784               -2.69925622               25.91774622               -0.26083363
              12.09314813                9.13773172               55.51083683                0.00010000                6.58613926               -0.89129953               -4.53105663               -2.64985736               27.10103394                0.73717594
              13.16117879                8.71101026               55.48880097                0.00010000                6.68053822               -0.89644016               -5.19462537               -2.52555632               29.07115404                1.53347420
              14.22675890                8.26989799               55.48831012                0.00010000                6.13896507               -0.61881299               -5.47866376               -2.52329801               31.67123638                2.65296523
              15.28395809                7.81564764               55.51448068                0.00010000                5.05670150               -0.08696846               -5.13734037               -2.54377102               33.41239157                5.00992981
              16.32789293                7.34959145               55.54497392                0.00010000                3.62460419                0.25153047               -4.45724073               -2.51098876               30.47512162               10.96329101
              17.35645018                6.88027330               55.50821949                0.16475561                1.78915933                1.05510875               -2.59379207               -1.54366098               13.75956309                1.01744329
              18.36367611                6.44252079               55.20120120                0.63768956                0.72259370                1.03669517               -2.66199467               -0.00712652                0.29230723               -0.69744571
               8.31640485               11.63218086               56.08950465                0.83839918                0.18963831               -0.04093626                0.06591997               -0.04735954                0.01810330                0.63946270
               9.31830123               11.28663093               55.78510326                0.26263203                0.40189121                0.42177497               -1.33149117               -0.00208840                0.34965214               -0.49956956
              10.32444268               10.94010294               55.48724555                0.00010000                4.07195502                0.78631942               -2.64210540               -2.52325623               14.73800819               -1.12898352
              11.39974033               10.54173241               55.46976209                0.00010000                8.20986153               -1.59006608               -3.91525074               -2.63299810               29.11603147               -0.09303818
              12.48863991               10.12532877               55.45587919                0.00010000                8.71749892               -1.55710076               -4.84877301               -1.82525624               30.26393671                0.40668196
              13.57409031                9.70041821               55.45679514                0.00010000                8.27192147               -1.31854107               -5.42035292               -1.33954069               32.54757823                0.87424233
              14.65407834                9.26189583               55.48440917                0.00010000                7.59299037               -1.04467356               -5.43211745               -1.20705408               36.06808106                1.68638222
              15.72595012                8.81123566               55.55148885                0.00010000                6.28877001               -0.91974175               -4.48368523               -1.28395954               41.99174719                3.71691694
              16.77985374                8.34597311               55.69239483                0.05303813                3.44864877               -0.31802802               -1.06487706               -0.96443694               30.29569510                9.28833821
              17.79492310                7.88879538               55.52106472                0.24917271                1.11490729                0.80970069               -2.49744422               -0.89075355                7.30509645                0.45358735
              18.80215188                7.45053082               55.20484630                0.63617498                0.72287855                0.74245307               -2.34422605                0.03472877                0.07887272               -0.87211659
               8.65914234               12.63219696               55.99388638                0.92500267                0.28678437                0.00161044               -0.23218757                0.18526941                0.28836036                0.54039809
               9.66201018               12.29131217               55.68590474                0.67879633                0.53169505                0.46812388               -1.64724054                0.16637699                0.99867047               -0.43089652
              10.66977624               11.94810661               55.39202443                0.40215494                6.47800170                0.80036708               -2.95587755               -4.24785157               16.55461671               -0.67408453
              11.79157022               11.51568801               55.39388531                0.31494190               11.40904894               -2.60444028               -4.17037555               -2.89285700               31.93528392                0.00395269
              12.89795722               11.10658971               55.39641970                0.30719086               10.31253513               -1.87390600               -5.02802607               -0.62069770               33.15924475                0.29908259
              13.99782092               10.68463943               55.41493612                0.31342518                9.69215714               -1.57787708               -5.48418439               -0.50619867               35.69605573                0.60248695
              15.09180036               10.24900452               55.46257359                0.33357687                8.81903497               -1.28913037               -5.32792274               -0.59712917               39.84437774                1.11882915
              16.17420162                9.79725280               55.55928276                0.36865277                6.96220573               -1.39828599               -3.93463597               -0.46353216               46.16987220                2.59239729
              17.23104447                9.34323089               55.72918994                0.56767096                2.99378882               -0.27422261               -0.86668891                0.07979935               31.41192831                4.15989782
              18.23407739                8.89646731               55.53137782                0.66309497                0.49276594                0.76719342               -2.48468359               -0.37762216                6.73680024                0.40128514
              19.24089979                8.45736985               55.21318959                0.81386734                0.68223997                0.68390222               -2.20816035               -0.03495517                0.68328125               -0.67452184
               5.28664171                2.77525089               57.95089960                1.00000000               -0.68623173               -0.85305030                2.95456286               -0.26474042               -0.70201833                0.73238931
               6.27977939                2.38423082               57.68144756                1.00000000               -0.49669034               -0.40813395                1.54090343               -0.20150087               -0.89760472                0.11917929
               7.27670790                1.99242187               57.40788110                1.00000000               -0.11915054                0.02260505                0.15144809               -0.20766732               -0.80875747               -0.15027875
               8.27739638                1.59870101               57.13986825                0.54974528                0.13077676                0.50257882               -1.28302288               -0.32866537                0.35261734               -0.69714664
               9.27932344                1.20126731               56.88904877                0.57092854                0.46073203                1.07462424               -2.87117863               -0.31164330                1.45209742                0.02375865
              10.28661102                0.80246088               56.64215616                0.63839132                0.94003919                1.49383219               -4.40360337               -0.29760473                1.56086142               -0.23788353
              11.29812422                0.39985747               56.39283150                0.39418486                0.33123650                2.00049030               -5.90331011               -1.46091019                3.22677619               -0.63615256
              12.29323575               -0.02992520               56.17973668                0.00010000              -12.53896253                2.11542604               -6.37348161              -25.11468985               10.22337298               -0.88312573
              13.04734497               -0.94707857               56.11135053                0.00010000               -9.81883260                7.13542925               -7.64370124              -25.78012239               15.79789193                1.04002202
              14.09685910               -1.66579790               56.09624734                1.00000000                4.43021963                3.18406934              -12.21765380              -16.66753510                9.01185871                1.54712432
              15.13594937               -2.04423488               55.87130882                1.00000000                3.90902637                3.71540979              -13.96932236               -0.87325988               -0.14618573               -1.20111535
               5.67501437                3.76672038               57.85430075                1.00000000               -0.58354778               -0.80616415                2.63929564               -0.03312467               -0.10507001                0.99494016
               6.66917889                3.38014948               57.58477309                1.00000000               -0.38091188               -0.36648195                1.22489117                0.02612546               -0.13153457                0.19082933
               7.66739613                2.99264792               57.31454766                1.00000000                0.02540566                0.06530158               -0.17101414                0.02913148               -0.01833589               -0.27918259
               8.66968701                2.60372680               57.04701963                0.38426202                0.34654700                0.53520795               -1.60678720               -0.04612501                1.63696394               -0.92385052
               9.67432707                2.21201355               56.80953985                0.61784619                0.73264436                1.08650798               -3.26746006               -0.08728658                2.93095741                0.02683351
              10.68433989                1.81739920               56.56655044                0.82976332                1.26905432                1.52752532               -4.81372755               -0.09333743                2.58350662               -0.37295274
              11.69970816                1.41986238               56.32067935                0.47421098                1.56084920                2.01420463               -6.27756907               -1.52274333                5.89536281               -1.00523940
              12.71555688                0.99122906               56.14213336                0.00010000               -4.61140309               -3.03317102               -4.74337619              -26.18807761               20.60089501                5.06134616
              13.60748010                0.12427572               56.18729536                0.00010000              -11.83974877                5.77096611               -5.76717210              -34.84788515               30.23412683                3.16043869
              14.47876190               -0.63395721               56.25367722                1.00000000               -5.09131776                2.56059107               -9.23567092              -18.56366601               14.76261464                2.82314597
              15.50565374               -1.00708078               56.02347300                1.00000000                2.68918405                3.06235675              -10.88640228               -0.67101687                1.62860232               -0.55062189
               6.05912102                4.75912760               57.76282572                1.00000000               -0.47466532               -0.70779669                2.30022430               -0.03275373                0.10446923                1.19896205
               7.05437437                4.37690118               57.48938396                1.00000000               -0.27039041               -0.27669745                0.89966159                0.02528877                0.23663981                0.15870284
               8.05371321                3.99372790               57.21846161                0.69812641                0.13669397                0.15835837               -0.48937736                0.02673616                0.46937692               -0.55909953
               9.05710825                3.60940517               56.94946241                0.00010000                0.50960486                0.60416603               -1.87436540               -0.03286930                3.04461744               -1.14506017
              10.06390531                3.22299747               56.72980199                0.12725383                0.98936019                0.44150229               -3.70684487               -0.81546259                4.47470821                1.23343497
              11.07689545                2.83301138               56.48754247                0.25806550                1.49670935               -0.01520369               -5.25986927               -1.45201581                3.14893255                4.03363866
              12.09383950                2.44014157               56.23961881                0.18849717               -0.59172961               -1.80889572               -6.60346035               -8.67345139               14.41046237                9.02450088
              13.06506086                1.90941138               56.22093268                0.00010000               -5.91329799               -6.93659619               -1.18021910              -26.59408501               28.20624455                7.04240197
              13.97557354                1.16834075               56.28248587                0.00010000              -10.40592889                4.67358367               -4.19524706              -36.42039117               35.77506130                2.70429600
              14.85694228                0.38541392               56.40633703                1.00000000               -5.33986818                1.35879324               -2.96995439              -20.17098035               19.19322006                1.98946807
              15.86877617                0.01701226               56.15436836                1.00000000                1.18338922                1.91369855               -6.02038757               -0.46046327                0.89742130               -1.92211798
               6.43881214                5.75256445               57.67020122                1.00000000               -0.37277663               -0.59436696                1.94718717               -0.04446175                0.22161303                1.01291051
               7.43508437                5.37461553               57.39193839                0.74810954               -0.16926368               -0.17103708                0.55824704                0.01549773                0.51041821               -0.18706794
               8.43542687                4.99581508               57.11938336                0.13898743                0.23378382                0.27385968               -0.79705860                0.00341217                1.06332199               -1.07518692
               9.43976005                4.61581012               56.85200567                0.00010000               -0.05076276                0.66968077               -2.15792621               -0.82555420                5.80535395               -0.56538038
              10.43441161                4.22084360               56.67417432                0.00010000               -0.08022839               -0.19441155               -3.31320069               -2.05142672               10.22596271                3.05240586
              11.43815548                3.81709513               56.49933220                0.00010000                0.77137637               -1.68294619               -4.43245074               -3.88075480               12.57861707                7.62051800
              12.44983914                3.38368446               56.36692138                0.00010000                0.86602569               -4.87259640               -4.56491974               -9.84771462               19.08412002               13.00026470
              13.45547600                2.85249714               56.31136201                0.00010000               -2.33847021               -4.15001119               -4.50070934              -17.28452549               26.77676680                6.51511845
              14.40306973                2.21774739               56.32688363                0.00010000              -11.44026037                3.43307013               -3.87599515              -26.99965500               38.33383800               -2.06997681
              15.22667079                1.39321866               56.51821168                0.25184939               -8.49109644               11.07435553               -0.97559410               -9.13949812               23.76002945              -18.17177020
              16.23324780                1.03119319               56.25070764                1.00000000                0.65770166                2.65808677               -4.18162545               10.21802486                1.35032549              -17.95490170
               6.81412962                6.74724026               57.57492654                1.00000000               -0.26959338               -0.47532920                1.58415791               -0.04774571                0.10984397                0.77662587
               7.81143369                6.37348044               57.28953880                0.40382614               -0.07713773               -0.05682201                0.18376722                0.02715220                0.54691617               -0.52600588
               8.81258686                5.99920509               57.01282175                0.00010000                0.20674816                0.39292038               -1.14993150               -0.01763293                2.47309220               -1.65626420
               9.81556865                5.62279879               56.76582164                0.00010000                0.45024533                0.25022197               -1.92501310               -1.13995520                9.95300730                2.96796949
              10.82159177                5.21910924               56.63991244                0.00010000                1.04354208               -0.34313387               -3.25125204               -2.07493040               15.76321972                3.68327740
              11.83643949                4.79935246               56.50980976                0.00010000                1.99457113               -1.76824637               -4.14014292               -3.52102821               17.33434516                5.72364849
              12.86148319                4.34268964               56.41024590                0.00010000                2.44339638               -3.34217319               -4.76333068               -7.14781689               21.47391425                6.00285109
              13.88530742                3.82641116               56.35271679                0.00010000                1.66878604               -2.15071468               -5.14849325              -12.21705666               25.89666394                2.64358588
              14.89485892                3.23700215               56.33351519                0.00010000               -1.23004489                2.28364105               -5.45316160              -14.05968505               25.11238239               -4.54131416
              15.86070652                2.60690103               56.25581620                0.00010000               -4.88356560               16.35202667               -6.23228666               -2.40725622               15.18348462              -22.58900868
              16.79718760                2.07017399               56.04499264                0.56313373               -6.35189174               10.17150205               -7.60145253                1.49620719                8.15351250              -24.34159218
               7.18537687                7.74305786               57.47748017                0.93595290               -0.17142843               -0.37154394                1.25395991               -0.04089776                0.04039605                0.68214408
               8.18366259                7.37347909               57.18528862                0.25796435                0.01894932                0.04595993               -0.13206652                0.04165892                0.48861069               -0.59911785
               9.18575586                7.00367349               56.90200314                0.00010000                0.66971051                0.47865752               -1.49267740               -0.51131285                7.07194684               -1.95346514
              10.19705680                6.62081456               56.74115133                0.00010000                1.53017358               -0.07827237               -2.47799461               -1.33066387               14.44826583                3.27119962
              11.21635933                6.21398092               56.60686804                0.00010000                2.35488600               -0.56970666               -3.46363494               -2.49887988               17.43880696                2.96684061
              12.24415452                5.78173020               56.50395157                0.00010000                3.17323876               -1.53557538               -4.38416016               -4.14739048               20.40172279                3.54930577
              13.27982411                5.31684100               56.42427415                0.00010000                3.63339154               -2.03650683               -5.16917215               -6.92616696               23.20138855                3.15907896
              14.31682235                4.80948284               56.36933948                0.00010000                3.07810255               -0.93842449               -5.95199737              -10.05663585               25.37545423                0.90107574
              15.34138616                4.26342021               56.32368892                0.00010000                1.42657371                2.97305048               -7.15965814              -10.79971288               24.87721393               -3.10987690
              16.34535382                3.72025919               56.24946546                0.00010000               -0.23800653                9.74135007              -10.01892465               -5.21161781               15.43729749               -3.49065885
              17.33662603                3.23462323               56.00873948                0.55013789               -0.87277974               14.32343626              -10.63001392                1.30567057                6.78818190               -8.86637428
               7.55246921                8.73980938               57.38014837                0.88639788               -0.08179744               -0.28287487                0.97087762               -0.04012749                0.03838086                0.73376191
               8.55165124                8.37439964               57.08158561                0.19838107                0.12779634                0.13682593               -0.44369409                0.03998889                0.37931025               -0.57276080
               9.55502514                8.00877824               56.78981208                0.00010000                1.34983533                0.54988335               -1.81647275               -0.93882681                9.41251200               -2.05132088
              10.57864794                7.62123334               56.67131718                0.00010000                2.78367000                0.07677166               -2.92130195               -2.02960871               18.80809486                0.25722580
              11.61069854                7.20771511               56.56870480                0.00010000                3.59918304               -0.55943755               -3.92344025               -3.25075305               20.68755694                1.69160935
              12.65063160                6.76864095               56.48692329                0.00010000                4.22543369               -1.08686922               -4.83308661               -4.66949545               22.95029282                2.12928513
              13.69520721                6.30195950               56.42648691                0.00010000                4.34819414               -1.04089307               -5.69162158               -6.52402834               25.12226039                2.06380852
              14.73759549                5.80764267               56.38318925                0.00010000                3.64405489                0.25131387               -6.60475381               -8.15457926               26.86574024                1.32168428
              15.76808831                5.29646316               56.35198490                0.00010000                2.38378301                3.13512350               -7.80634226               -7.40487916               28.94299531                0.61819949
              16.78527115                4.80172803               56.34648170                0.00280114                1.32423116                6.45875306              -10.70083558               -3.05905631               17.82036630                3.87341196
              17.79457293                4.35664272               56.08707997                0.57473756                0.93017858                8.65118202               -9.23889000                0.37271819                5.28501699                0.69730719
               7.91539381                9.73740037               57.28353820                0.86338576                0.00996929               -0.20183173                0.67714637               -0.04239242                0.01913729                0.78256571
               8.91549351                9.37621561               56.97819219                0.18634000                0.23759026                0.23058935               -0.75104176                0.03132173                0.28028765               -0.56807974
               9.92014562                9.01467116               56.67802355                0.00010000                2.10171263                0.64318055               -2.13975599               -1.40606524               11.29496895               -2.06862442
              10.95752776                8.62235000               56.59222499                0.00010000                4.18955186                0.08633886               -3.39653678               -2.78723360               22.55448524               -0.49986585
              12.00393666                8.20279217               56.51879144                0.00010000                4.94962264               -0.51575109               -4.45021996               -3.71969073               24.01708670                0.60654394
              13.05652021                7.75999281               56.46282008                0.00010000                5.32025845               -0.77295704               -5.35224628               -4.51264566               25.93865368                1.29593242
              14.11034183                7.29602314               56.42745907                0.00010000                5.13534456               -0.40856564               -6.13184468               -5.36745578               27.90315852                1.93664864
              15.15922710                6.81450912               56.40970021                0.00010000                4.44306900                0.73258804               -6.88392565               -5.80994044               29.45366593                3.29670753
              16.19920321                6.32612268               56.40405526                0.00010000                3.23830182                2.37039478               -7.57385217               -4.82048144               32.07281764                4.78109851
              17.22399314                5.84943425               56.43839363                0.07073789                1.75239067                3.41570974               -6.26819208               -1.85670872               17.88356932                3.99262807
              18.23425102                5.40764687               56.14778921                0.60027875                1.02578786                3.50744941               -5.11028699               -0.17932114                2.06411737                1.54144692
               8.27399088               10.73577275               57.18706508                0.86379504                0.10160023               -0.12507000                0.38814550               -0.04639079                0.00884367                0.77894550
               9.27500688               10.37901143               56.87487043                0.21535590                0.33892856                0.33142909               -1.06616700                0.01498336                0.21603864               -0.57328080
              10.28076945               10.02164185               56.56676218                0.00010000                2.98876905                0.74531259               -2.48250157               -1.98444747               13.03634630               -1.85671449
              11.33478226                9.62296012               56.51017085                0.00010000                5.89462280               -0.20541559               -3.87980644               -3.45214773               26.02154569               -0.60902578
              12.39866190                9.19740008               56.46323509                0.00010000                6.61827318               -0.82139768               -4.97522279               -3.55096146               27.28902073                0.18139404
              13.46714772                8.75318181               56.43358726                0.00010000                6.73399431               -0.75518344               -5.83578652               -3.56772873               29.31452950                0.82063018
              14.53334179                8.29378819               56.42897507                0.00010000                6.20747038               -0.32342474               -6.41820763               -3.59626275               32.10279551                1.92021733
              15.59129713                7.82229443               56.45721937                0.00010000                5.17058790                0.44293714               -6.46454906               -3.34642450               34.04346457                4.70811787
              16.63675355                7.34387106               56.49337906                0.00010000                3.76578266                0.90416075               -6.30741902               -2.70367258               32.02671910               12.60175901
              17.66661278                6.87004223               56.48007053                0.13565483                1.89038604                1.57453411               -3.30593458               -1.48901178               15.01043623                1.49544048
              18.67456127                6.42679171               56.17367142                0.61238563                0.79484848                1.41948617               -3.08378378               -0.09659464                0.51427538               -0.00736620
               8.62798865               11.73489897               57.09032627                0.83060661                0.19354230               -0.04750539                0.09865334               -0.04898228                0.01972636                0.66998974
               9.62992407               11.38284419               56.77148905                0.24814848                0.42596649                0.43412138               -1.38892108               -0.01486461                0.38892525               -0.52086507
              10.63650798               11.02957741               56.45996710                0.00010000                4.14012520                0.81810743               -2.84969658               -2.84566344               14.82017187               -1.19346402
              11.71272657               10.61824168               56.42875957                0.00010000                8.30938780               -1.50930548               -4.30757956               -3.14347918               29.20356143               -0.29590150
              12.80269573               10.18636422               56.40464899                0.00010000                8.80254794               -1.39646195               -5.40611354               -2.38797677               30.44952671                0.07128444
              13.88877753                9.74488915               56.39878473                0.00010000                8.33041115               -1.04744865               -6.20009183               -1.93037709               32.84747665                0.43843670
              14.96930396                9.28955464               56.42508404                0.00010000                7.67191065               -0.62927582               -6.52688816               -1.74720057               36.75367213                1.27471038
              16.04221575                8.82336786               56.50090641                0.00010000                6.40389981               -0.39536371               -5.85746089               -1.69930939               44.18902354                3.72119416
              17.09738195                8.34420590               56.67886557                0.06777433                3.45382549                0.13057535               -2.02398081               -1.10340009               31.12156920               10.68261981
              18.11129226                7.88092493               56.49485743                0.23644388                1.07191082                0.96931160               -2.78120203               -0.83881312                6.59729006                0.33114062
              19.11882017                7.43603660               56.18181531                0.60903611                0.75279130                0.79081056               -2.35573751                0.00490348                0.20866437               -0.57628034
               8.97712078               12.73482264               56.99173124                0.92003760                0.29103612               -0.00763253               -0.19687392                0.20033442                0.29855907                0.56807942
               9.98003114               12.38769385               56.66909475                0.67125680                0.56689531                0.48496608               -1.71113912                0.16977516                1.05584569               -0.45592991
              10.98845869               12.03800400               56.36153450                0.40036140                6.75473640                0.84265909               -3.18870495               -4.55092126               16.69550016               -0.71840638
              12.11512587               11.59277401               56.35022537                0.31477854               11.78981094               -2.54676750               -4.59935622               -3.18672828               32.14089886               -0.03336742
              13.22425491               11.16947085               56.34327877                0.30721859               10.51119426               -1.68933714               -5.63264209               -0.87114122               33.49886532                0.19037597
              14.32534976               10.73223284               56.35618122                0.31320469                9.78320775               -1.26563063               -6.31865640               -0.75618643               36.17153526                0.46080912
              15.41991906               10.28120267               56.40429110                0.33260099                8.86549654               -0.83519697               -6.46853652               -0.83077391               40.85324330                1.03273445
              16.50265969                9.81438715               56.51487434                0.36640342                6.86047066               -0.89807105               -5.20372960               -0.69161147               48.34839154                2.99604360
              17.55712847                9.34648256               56.71750088                0.58104918                2.76730693                0.22766649               -1.67612497               -0.27328251               31.68822397                3.89620783
              18.55800582                8.88942846               56.50590304                0.65966601                0.36537703                0.85035251               -2.58668816               -0.52237550                5.80892914                0.22859398
              19.56443601                8.44260792               56.19220510                0.79801378                0.64301901                0.65713213               -2.04868784               -0.12046966                0.67811033               -0.45218629
               5.55635765                2.88062404               58.98032079                1.00000000               -0.67411953               -0.84353971                2.91943284               -0.26457965               -0.66568306                0.70918946
               6.54961645                2.48365740               58.69670234                1.00000000               -0.48254273               -0.39986495                1.50705252               -0.20213972               -0.84665585                0.11496504
               7.54670679                2.08592266               58.40918622                1.00000000               -0.10111681                0.02982462                0.11440515               -0.20688440               -0.77008854               -0.13977327
               8.54759412                1.68635267               58.12678429                0.55368905                0.15508528                0.50770833               -1.32047935               -0.33881944                0.28079282               -0.66717535
               9.54980850                1.28287827               57.85994354                0.58018864                0.48319684                1.08058533               -2.92491489               -0.32678499                1.30871668               -0.00938759
              10.55725805                0.87753500               57.59761405                0.62108746                0.92596781                1.51639916               -4.47227704               -0.34536836                1.44462900               -0.29267964
              11.56832786                0.46739442               57.33325593                0.28642587               -1.14980956                2.06268076               -5.96508420               -3.55493356                3.67727794               -0.64965820
              12.53426186               -0.01218474               57.11635789                0.00010000              -15.91456917                2.29414359               -5.94457308              -28.35188672                8.03515018               -2.10752213
              13.25003647               -1.02205550               57.03371477                0.00010000              -11.03132695                8.20836535               -7.45016981              -29.61742705               12.78166536                1.64757681
              14.31363532               -1.82297678               56.95222767                1.00000000                5.78293106                4.86213494              -15.82026538              -20.02362351                6.52779032                2.46349815
              15.36569509               -2.22790009               56.70614142                1.00000000                5.20597698                5.63474521              -18.33571622               -0.54586916               -0.78263161               -0.87245446
               5.95067849                3.87218864               58.88058784                1.00000000               -0.57327439               -0.79728030                2.60864749               -0.03497247               -0.08695280                0.96689076
               6.94494574                3.47965875               58.59688561                1.00000000               -0.36940852               -0.35877187                1.19542589                0.02320595               -0.10127532                0.18386951
               7.94329032                3.08622091               58.31265995                1.00000000                0.03911867                0.07169169               -0.20095558                0.02762328                0.00009360               -0.27009553
               8.94572812                2.69142975               58.03074227                0.40657506                0.38295838                0.54025203               -1.63518319               -0.05758752                1.50508703               -0.87205619
               9.95094949                2.29368413               57.77638301                0.65337116                0.79090886                1.08682463               -3.32812104               -0.09209184                2.71054234               -0.04469130
              10.96154629                1.89269899               57.51758738                0.82493773                1.33444507                1.54649190               -4.92446153               -0.12472615                2.43230329               -0.46115320
              11.97763839                1.48802123               57.25679542                0.37317416                1.69608316                2.05877295               -6.43008530               -3.61034976                7.58392272               -1.00298025
              12.99546796                1.01075670               57.10016051                0.00010000               -5.91900810               -4.89164785               -3.34012726              -31.39716549               21.88887249                4.34485180
              13.85925822                0.06002815               57.12741524                0.00010000              -13.95732871                6.95152512               -6.06531327              -39.19613455               27.34150644                3.32352642
              14.71632138               -0.77435543               57.13332749                1.00000000               -4.70492569                4.31276242              -15.97715101              -20.87073507               12.85639560                6.61969071
              15.76515971               -1.17155264               56.88394630                1.00000000                4.88383269                4.88478048              -18.28117918               -0.78005828                2.52216165                1.76246326
               6.34071798                4.86467843               58.78575847                1.00000000               -0.46696706               -0.70020923                2.27802505               -0.03635676                0.12155347                1.16006445
               7.33604830                4.47648196               58.49826537                1.00000000               -0.26148567               -0.27035158                0.87498866                0.01970401                0.26236104                0.14066119
               8.33548826                4.08735649               58.21341138                0.69047033                0.14654221                0.16429508               -0.51506416                0.02340579                0.50449953               -0.54839588
               9.33897915                3.69715771               57.93057309                0.00097729                0.56045817                0.61026055               -1.89044914               -0.05111589                2.83355598               -1.08268147
              10.34669742                3.30461476               57.69216143                0.13920193                1.07236381                0.18459528               -3.76809746               -0.98099494                4.14688932                1.55801486
              11.36042642                2.90846483               57.43397805                0.25526421                1.56828619               -0.49532238               -5.37540400               -1.64422610                3.04970667                4.57830751
              12.37806315                2.50856988               57.17253936                0.17206655               -1.30573969               -3.02419858               -6.73454936              -12.67130377               17.60730047               10.21486549
              13.33431163                1.88998231               57.20435709                0.00010000               -6.34186180               -8.13358097               -2.39018944              -31.72992846               31.59442985                6.34715379
              14.25122591                1.11697500               57.23972831                0.00010000              -10.32551087                5.20620100               -4.71902075              -39.57284670               37.07408917                2.29195491
              15.12780141                0.26327847               57.36833813                1.00000000               -5.33687866                2.61124523               -4.23421629              -22.13938749               20.99288078                5.87997470
              16.14448834               -0.13020448               57.08016687                1.00000000                1.66869258                3.22542549               -8.19502305               -0.90123017                0.41181733                0.19798043
               6.72634429                5.85818445               58.68966149                1.00000000               -0.36825269               -0.58833191                1.93553230               -0.04772574                0.23713848                0.96398452
               7.72266176                5.47425172               58.39742461                0.72217272               -0.16307982               -0.16747383                0.53884126                0.01181826                0.54501222               -0.22854942
               8.72308269                5.08950681               58.11123753                0.12370131                0.23928850                0.27868064               -0.82669613                0.00369837                1.11646446               -1.08539754
               9.72744753                4.70363496               57.83029327                0.00010000               -0.15301154                0.59708077               -2.17027270               -1.13490422                5.95910211               -0.21186039
              10.72002246                4.29737603               57.64097371                0.00010000               -0.13704376               -0.72544270               -3.28284148               -2.66697143               10.50843040                3.54673339
              11.72470665                3.88279254               57.45474779                0.00010000                1.13361895               -2.72723890               -4.43579479               -4.91837822               13.40301530                8.39154876
              12.74269484                3.42753726               57.32075893                0.00010000                1.38788075               -6.81586354               -4.67984440              -12.50957310               20.70397365               13.84435491
              13.75246427                2.84808508               57.26541667                0.00010000               -2.40948542               -3.51100536               -4.77203036              -20.32106224               29.03492863                4.17054161
              14.69450513                2.16415217               57.28721058                0.00010000              -11.58755764                3.45906801               -4.29944208              -30.86485140               42.29632406               -3.90971913
              15.52071312                1.27786947               57.50095661                0.49349415               -8.02020643               12.12094495               -3.14102453              -11.59411825               27.08305849              -20.71732396
              16.53410100                0.89295587               57.19767034                1.00000000                1.33878848                3.41446459               -6.78030852                9.34458991                2.04514286              -20.48526497
               7.10762893                6.85291179               58.59069077                1.00000000               -0.26666147               -0.46820619                1.58099900               -0.04644809                0.11851709                0.74396470
               8.10496232                6.47313249               58.29129669                0.38438311               -0.07249709               -0.06122206                0.17169042                0.03180583                0.58254056               -0.55765950
               9.10617899                6.09293011               58.00114951                0.00010000                0.17247635                0.38227627               -1.17697114               -0.07764708                2.87311684               -1.69229208
              10.10841184                5.70909932               57.74745258                0.00010000                0.40107145               -0.10881335               -1.68615816               -1.71413802               10.28890131                3.00837802
              11.11420042                5.29010591               57.60746171                0.00010000                1.17428947               -0.91156935               -3.20112660               -2.95126878               16.01821625                3.73965509
              12.13189763                4.85392006               57.46808870                0.00010000                2.41893647               -2.76166808               -4.16847742               -4.80974818               18.03817403                5.72344697
              13.16257915                4.37225261               57.36175150                0.00010000                2.96889205               -4.48984666               -4.91335378               -9.53001394               22.51652476                5.41895316
              14.19127547                3.81976220               57.29950792                0.00010000                2.07826728               -2.47249100               -5.51452576              -15.50847161               27.25016676                1.22077238
              15.20414449                3.18615636               57.27620423                0.00010000               -1.20800611                2.57020971               -6.09843559              -17.51906214               26.60573704               -7.47656186
              16.16711535                2.50569737               57.19158568                0.00010000               -5.14685768               17.50029601               -6.46774603               -5.15266933               16.24822356              -28.77867986
              17.10120734                1.93808481               56.96465704                0.57878605               -6.59080118               10.71621710               -8.46820078               -0.67523008                9.03023381              -29.25370427
               7.48497393                7.84882033               58.49001823                0.92324090               -0.16943747               -0.36008089                1.26657887               -0.03723249                0.05888381                0.70131888
               8.48327956                7.47302728               58.18387546                0.24604578                0.02944890                0.03052764               -0.14835132                0.05193411                0.51367548               -0.60708446
               9.48556291                7.09715233               57.88681620                0.00010000                0.63547028                0.43667514               -1.53386699               -0.81983669                7.31681657               -1.99733093
              10.49598897                6.70145869               57.71636232                0.00010000                1.53067185               -0.52434482               -2.44396014               -2.11619972               14.87051242                2.84266211
              11.51617635                6.27914464               57.57203928                0.00010000                2.51880117               -1.10092897               -3.46004688               -3.59047278               17.85192558                2.61200694
              12.54636499                5.82755918               57.45934791                0.00010000                3.50380330               -2.25547598               -4.49202731               -5.79197648               20.91091438                3.02158256
              13.58625242                5.33774033               57.37094415                0.00010000                4.10130488               -2.72278854               -5.45511970               -9.36164683               23.79705727                2.24579918
              14.62839109                4.79863526               57.30678001                0.00010000                3.59681523               -1.22200926               -6.53073552              -13.20543235               25.78892206               -0.66814931
              15.65818872                4.21555637               57.24652836                0.00010000                1.86700970                3.40492798               -8.15633404              -14.64757234               24.45628949               -5.75284589
              16.66573128                3.62787539               57.14355841                0.00010000               -0.11836062               11.24072209              -10.77507080               -8.61654901               15.12243108               -8.75381871
              17.65582151                3.10728021               56.89034331                0.54347472               -0.99097729               16.89956242              -12.27191874               -1.39601243                7.50001237              -13.08298085
               7.85847038                8.84571017               58.38997989                0.87754254               -0.08013909               -0.27156598                0.98865217               -0.04130442                0.03008394                0.77275262
               8.85766899                8.47374304               58.07704121                0.19085581                0.14402274                0.11845183               -0.46127312                0.04384532                0.39184305               -0.58380443
               9.86135084                8.10166361               57.77130451                0.00010000                1.32132722                0.48328704               -1.87684543               -1.37338715                9.58775741               -2.11276369
              10.88409554                7.69861243               57.64168674                0.00010000                2.74698188               -0.16914437               -2.97990167               -3.00832319               19.13412174               -0.16320738
              11.91629048                7.26808733               57.52871045                0.00010000                3.66834407               -0.91946486               -4.03119969               -4.55368105               21.04133274                1.07665951
              12.95746242                6.80881054               57.43717048                0.00010000                4.39898257               -1.49787422               -5.06251379               -6.48911606               23.29281922                1.33422228
              14.00427013                6.31779684               57.36697655                0.00010000                4.59441827               -1.36117169               -6.15230916               -8.96881133               25.37710766                0.97825497
              15.04935078                5.79532201               57.31256649                0.00010000                3.88413921                0.31218997               -7.46229251              -11.14684432               26.87684876               -0.20356346
              16.08195291                5.25425492               57.26611367                0.00010000                2.68548697                3.98069702               -9.40452020              -10.77684116               27.44162163               -1.34570595
              17.10306052                4.73051181               57.21477592                0.00010000                1.62622676                9.30407741              -14.88815662               -5.56235252               18.15540642                2.30427776
              18.11447745                4.27607606               56.97050646                0.55104216                1.14169235               13.33770994              -14.99232531               -0.77062056                8.87654186               -0.58103296
               8.22808212                9.84338901               58.29043843                0.85693592                0.01209143               -0.19518255                0.69937892               -0.04499611                0.01731552                0.81913849
               9.22820303                9.47539631               57.97052956                0.17937730                0.25718338                0.21855780               -0.77730333                0.01788833                0.29538166               -0.58737635
              10.23322578                9.10681807               57.65614638                0.00010000                2.05978753                0.58193852               -2.23800163               -1.89510012               11.38928592               -2.17846515
              11.26939878                8.69807581               57.55735423                0.00010000                4.08394174                0.00809039               -3.56294596               -3.83721238               22.74562507               -0.99159669
              12.31490462                8.26075535               57.47287735                0.00010000                4.87371885               -0.62926396               -4.69132582               -5.06262234               24.26702145               -0.10415378
              13.36687316                7.79760169               57.40706413                0.00010000                5.27300464               -0.86761657               -5.73725318               -6.29857390               26.14022864                0.39362746
              14.42036471                7.31051689               57.36245917                0.00010000                5.10614807               -0.35597362               -6.80886974               -7.59050354               27.95161514                0.83193721
              15.46899612                6.80487906               57.33472923                0.00010000                4.35486962                1.16408909               -8.09945034               -8.21369863               29.28105360                2.15566265
              16.50746210                6.29517031               57.31751151                0.00010000                3.18334865                3.62806947               -9.68032635               -6.36494357               32.45351226                3.67594359
              17.53266309                5.81395694               57.35764563                0.01557885                2.09092442                6.16032492              -12.03955773               -2.39149374               19.87890063                6.07182436
              18.54928059                5.37403441               57.08556638                0.56873498                1.66174993                6.61356503               -9.59030550               -0.37813340                5.30489551                3.40900247
               8.59355585               10.84180652               58.19108759                0.85844982                0.10418417               -0.12372629                0.41381720               -0.04964713                0.00731469                0.82284498
               9.59459770               10.47811420               57.86399512                0.20571407                0.36067457                0.32964953               -1.10404569               -0.01341301                0.22250688               -0.60602424
              10.60076935               10.11330238               57.54116462                0.00010000                2.94081613                0.73216342               -2.66630145               -2.44950774               13.05575494               -2.03344882
              11.65341402                9.69877423               57.46987287                0.00010000                5.73713983               -0.11579707               -4.19274924               -4.40347168               26.10158685               -1.08799840
              12.71551214                9.25550205               57.41133237                0.00010000                6.41576883               -0.70222881               -5.38041322               -4.73076853               27.45825505               -0.48562704
              13.78172940                8.79145820               57.37208524                0.00010000                6.48352748               -0.55043592               -6.40682825               -5.05465224               29.42726593               -0.01414688
              14.84518269                8.31067737               57.35994597                0.00010000                5.93470007                0.07785552               -7.35279236               -5.30945107               32.20340986                0.95455726
              15.90042340                7.81860380               57.38518970                0.00010000                5.01967337                1.15627629               -8.01281746               -4.84540609               34.05495848                4.02153109
              16.94557616                7.32681631               57.41882554                0.00010000                3.79715739                2.01666910               -9.15392102               -3.20067477               33.82079363               14.21433679
              17.97636654                6.85371831               57.44210080                0.09035496                2.05918383                2.78143650               -5.27865797               -1.36064403               17.02252336                2.99587214
              18.98675984                6.40834736               57.13952553                0.58199414                1.03932913                2.32185646               -4.43569884               -0.38065298                1.28152267                1.32385486
               8.95447383               11.84091448               58.09147772                0.82302658                0.19650840               -0.05289582                0.13055517               -0.05098512                0.01941262                0.71413091
               9.95643891               11.48198931               57.75732484                0.23649571                0.45508812                0.44339873               -1.43930892               -0.03634972                0.37563132               -0.56020847
              10.96357559               11.12146134               57.43025162                0.00010000                4.13453817                0.86506533               -3.16761501               -3.22215844               14.81436480               -1.35937369
              12.03912968               10.69575986               57.38361050                0.00010000                8.20148428               -1.33425875               -4.77494139               -3.77603367               29.26045971               -0.60151952
              13.12760528               10.24671077               57.34775691                0.00010000                8.57375602               -1.11821964               -5.98329511               -3.13501795               30.60479882               -0.35131043
              14.21060480                9.78659298               57.33279330                0.00010000                7.97124109               -0.61977832               -6.95504395               -2.80634367               32.95887694               -0.09845145
              15.28703010                9.31207400               57.35387140                0.00010000                7.26721295                0.02838544               -7.73357584               -2.67994842               36.99720640                0.68007257
              16.35594906                8.82800458               57.43433964                0.00010000                6.06519997                0.53170170               -7.75273277               -2.45170186               46.05756062                3.48880690
              17.40833410                8.33550369               57.65191521                0.07374914                3.39850538                0.85340592               -3.98620178               -1.51074141               32.19714305               12.49378839
              18.42391916                7.86958567               57.46544068                0.21061249                1.20376626                1.26148327               -3.18577909               -0.79234659                6.35106957                0.41914524
              19.43240942                7.42047154               57.15773155                0.57885576                0.84902603                0.95995927               -2.72603808               -0.15650979                0.47812015               -0.13551140
               9.31038651               12.84074861               57.98994890                0.91531167                0.29373322               -0.01658785               -0.15888158                0.21462459                0.31672284                0.61025614
              10.31332384               12.48698217               57.65168196                0.66630378                0.60845534                0.49928644               -1.76776198                0.18124711                1.06018408               -0.49702943
              11.32255562               12.13060369               57.32825033                0.40124996                6.96600374                0.91423438               -3.54624090               -4.84665290               16.74204518               -0.81561124
              12.45264392               11.67208906               57.30189819                0.31458968               11.97115274               -2.36708063               -5.15296403               -3.52187718               32.29047366               -0.12544679
              13.56197867               11.23313766               57.28376686                0.30730537               10.37976856               -1.35731112               -6.32413602               -1.21398140               33.78839077                0.03248420
              14.66023929               10.77906264               57.28856299                0.31300183                9.40967206               -0.75303371               -7.20410505               -1.13117977               36.43943968                0.25963914
              15.75017211               10.31124508               57.33320286                0.33157474                8.38601917               -0.08289252               -7.83765212               -1.17703889               41.45620495                0.84834236
              16.82795967                9.82923783               57.45520817                0.36401040                6.18040657                0.12332448               -7.15735763               -1.16697064               50.38558342                3.45931523
              17.87378025                9.34388443               57.69566744                0.58989749                2.37960442                0.83807400               -2.97416700               -0.96987818               32.34741180                3.76582103
              18.87555176                8.87894797               57.47964406                0.64966545                0.40388265                0.93623008               -2.67643979               -0.65363439                5.23728634                0.07214544
              19.88185790                8.42754655               57.17221583                0.78087045                0.63061371                0.70750042               -2.17123799               -0.19529506                0.72952806               -0.16664140
               5.84056494                2.98890057               60.00928825                1.00000000               -0.65841031               -0.82800571                2.86465688               -0.26221679               -0.63503826                0.69039656
               6.83398084                2.58616358               59.71158861                1.00000000               -0.46703772               -0.38997303                1.46759078               -0.20103820               -0.80365734                0.11100882
               7.83122419                2.18267894               59.41016920                1.00000000               -0.08629612                0.03419088                0.08680738               -0.20438560               -0.73925676               -0.13046799
               8.83225492                1.77744154               59.11345866                0.55624031                0.17219088                0.50553333               -1.33261394               -0.34283797                0.19829383               -0.64001083
               9.83466801                1.36820063               58.83055047                0.57968086                0.49681507                1.07012097               -2.93180875               -0.33656544                1.16051813               -0.04627967
              10.84219122                0.95666063               58.55271062                0.58932885                0.91289662                1.51515080               -4.48241378               -0.38253267                1.35538428               -0.35214797
              11.85292594                0.53978532               58.27352982                0.17969873               -4.43556507                2.07340192               -5.94569796               -8.22832161                4.60613783               -0.64493190
              12.75347992               -0.03968088               58.06084522                0.00010000              -19.29087209                2.98077874               -4.36901945              -29.14220713                4.66346908               -4.13751557
              13.46710850               -1.10152799               57.96234714                0.00010000               -9.92458339                8.62606975               -6.84037391              -31.54885902                9.09012435                3.73357282
              14.55498825               -1.97872757               57.77984203                1.00000000                7.26803688                6.10537227              -17.30256006              -23.35123538                3.00778744                2.84397073
              15.61246924               -2.41729372               57.50459449                1.00000000                5.74809847                7.14367587              -20.47125730                0.38239777               -1.55620685               -0.64729162
               6.24067977                3.98062051               59.90647370                1.00000000               -0.55984962               -0.78226628                2.55993366               -0.03699871               -0.07079575                0.94510012
               7.23508127                3.58226385               59.60868161                1.00000000               -0.35692092               -0.34940844                1.16185486                0.01940876               -0.07402092                0.17705877
               8.23354135                3.18302085               59.31052855                1.00000000                0.04922100                0.07517307               -0.22019366                0.02521590                0.01593107               -0.26389035
               9.23606569                2.78249687               59.01431596                0.42375616                0.40757290                0.53795000               -1.63778728               -0.06723052                1.36244857               -0.82173357
              10.24169281                2.37890184               58.74297743                0.66711966                0.82539267                1.06832154               -3.32422399               -0.09573059                2.45904211               -0.11210705
              11.25257355                1.97181214               58.46806121                0.79294011                1.35603353                1.53782472               -4.93444805               -0.15310305                2.24273569               -0.53310743
              12.26881348                1.56051934               58.19207764                0.26256641                1.50704789                2.03450225               -6.44104543               -7.95023520               10.13966168               -0.95407009
              13.28271451                0.99012690               58.07533081                0.00010000               -7.38351149               -4.46104073               -2.06731400              -34.97530262               21.62157261                1.44643582
              14.12114325               -0.01526729               58.06598909                0.00010000              -15.16778725                7.79562534               -6.30824695              -41.09174853               19.96584717                4.30142411
              14.97935876               -0.91767385               57.93413420                1.00000000               -3.31419448                5.70559343              -22.63136159              -22.46082892                7.95803223               15.16373949
              16.05485936               -1.34585696               57.65784942                1.00000000                7.55006006                6.22707710              -25.64939012               -0.77402079                2.46133995                9.15973329
               6.63653830                4.97325525               59.80838622                1.00000000               -0.45696241               -0.68543342                2.23928818               -0.04053911                0.13615071                1.12975647
               7.63196868                4.57917541               59.50688374                1.00000000               -0.25214121               -0.26253128                0.84735189                0.01272275                0.28626207                0.12335375
               8.63149548                4.18418240               59.20816033                0.67943153                0.15303186                0.16740755               -0.52993805                0.01856380                0.54403906               -0.54637221
               9.63502932                3.78820054               58.91165342                0.00752962                0.59713271                0.60982726               -1.88176709               -0.07375616                2.62124704               -1.02331636
              10.64343813                3.38956706               58.65444005                0.13747423                1.12411702               -0.12119273               -3.73846595               -1.11752658                3.77989209                1.93809793
              11.65751166                2.98741712               58.38003439                0.23653075                1.60841677               -1.04983416               -5.35227204               -1.76173346                2.90234199                5.20163685
              12.67560647                2.58047537               58.10492782                0.12670282               -1.38755769               -4.45799625               -6.71799985              -16.59412842               20.07001719               11.44003316
              13.62976050                1.87109830               58.17312889                0.00010000               -6.12660961               -7.46848857               -3.82332558              -36.95412192               34.94881000                5.30851591
              14.55307428                1.05438452               58.18810545                0.00010000               -9.66995830                5.91721926               -5.82700128              -42.17004883               38.89264326                2.72936593
              15.43636134                0.13538430               58.32165270                1.00000000               -4.98596174                3.66492368               -4.18620372              -23.43116285               22.84482262               14.80830459
              16.45335504               -0.29275218               57.99046790                1.00000000                1.69937052                4.14273375               -8.18374521               -1.52045564               -0.66836699                7.95352733
               7.02802866                5.96691185               59.70891187                1.00000000               -0.36200905               -0.57462163                1.90854962               -0.05237173                0.25257774                0.93405380
               8.02440857                5.57701322               59.40271521                0.69597344               -0.15705835               -0.16495036                0.51938230                0.00571123                0.57590838               -0.26714106
               9.02488750                5.18636900               59.10284943                0.10631358                0.23986697                0.27990892               -0.84577623                0.00390121                1.17782371               -1.10420221
              10.02920591                4.79469342               58.80860021                0.00010000               -0.23808989                0.43483763               -2.15712378               -1.49429262                6.15821028                0.28366872
              11.02012570                4.37647799               58.60851749                0.00010000               -0.13876695               -1.33651422               -3.17971388               -3.29980602               10.85815690                4.13449113
              12.02643057                3.95081545               58.41061631                0.00010000                1.65620184               -3.90979206               -4.36084436               -5.98585224               14.20363851                9.29952396
              13.05324973                3.47135942               58.27332449                0.00010000                2.16461743               -8.97959421               -4.79749710              -15.26351637               22.22487381               14.86745885
              14.06972292                2.84075713               58.21592140                0.00010000               -1.98967290               -3.08175195               -5.18415598              -24.10924029               31.07939357                2.93790146
              15.01345628                2.10307709               58.24089479                0.00010000              -10.59253631                3.68843088               -5.02779728              -35.16554422               45.07085257               -4.68637711
              15.85787219                1.15562463               58.45539119                0.65944859               -6.63665399               12.66706647               -6.36476997              -15.26112680               29.39140186              -20.63901748
              16.88072320                0.73699772               58.11510147                1.00000000                2.28510018                4.25895569               -9.76671070                7.05203467                2.59550976              -20.33021095
               7.41528812                6.96176281               59.60654652                1.00000000               -0.26623691               -0.45583654                1.58084371               -0.04806961                0.11686530                0.73725445
               8.41262575                6.57587640               59.29297261                0.36467916               -0.06974062               -0.07101725                0.16415396                0.03736616                0.61319449               -0.59374076
               9.41389331                6.18978058               58.98928233                0.00010000                0.12043650                0.36014398               -1.18807839               -0.21306393                3.43485245               -1.74103064
              10.41503448                5.79689729               58.73209847                0.00010000                0.37133377               -0.56298864               -1.33577607               -2.34528708               10.67924509                2.98353372
              11.42131998                5.36283678               58.57588991                0.00010000                1.39393513               -1.57528321               -3.10148161               -3.86947267               16.18473056                3.87837798
              12.44291318                4.90922128               58.42644021                0.00010000                2.95372416               -3.88676906               -4.13819212               -6.24579649               18.71325922                5.85801809
              13.48039446                4.40088349               58.31197883                0.00010000                3.64724216               -5.74137412               -5.02170204              -12.23373015               23.42090725                5.12451193
              14.51585803                3.80946326               58.24242627                0.00010000                2.72507169               -2.88479235               -5.87335616              -19.27183474               28.30828273                0.31680109
              15.53489590                3.12815313               58.21154648                0.00010000               -0.93199241                2.76883811               -6.90932345              -22.02301836               28.11336135               -9.45877101
              16.49721818                2.38872563               58.12646128                0.00010000               -5.16231711               18.31839766               -6.31239963               -9.48054477               17.21754226              -33.31578077
              17.43164956                1.79242694               57.87562863                0.61746396               -6.55686207               11.50582390               -9.62159124               -4.01320469                9.78051189              -32.12206188
               7.79884009                7.95779511               59.50281175                0.91131854               -0.17019667               -0.34592855                1.28110994               -0.03721731                0.05683756                0.72856443
               8.79713813                7.57559288               59.18232160                0.23311761                0.03826153                0.00965249               -0.15625644                0.06572504                0.53225252               -0.62429547
               9.79960532                7.19357188               58.87132580                0.00010000                0.60529229                0.37061058               -1.55709840               -1.19588882                7.62126770               -2.07090926
              10.80924397                6.78343365               58.69227213                0.00010000                1.54034663               -0.99600057               -2.36609844               -2.98548002               15.38368419                2.27242991
              11.83041226                6.34497232               58.53766711                0.00010000                2.71119816               -1.72132778               -3.39084400               -4.78160506               18.26868849                2.31516812
              12.86346794                5.87308007               58.41411102                0.00010000                3.89604473               -3.08060541               -4.52232852               -7.65658401               21.37305603                2.66610485
              13.90833315                5.35653194               58.31517176                0.00010000                4.67743211               -3.54369552               -5.65151934              -12.15299534               24.25803639                1.61608376
              14.95701658                4.78306128               58.23872477                0.00010000                4.27001957               -1.69205442               -7.01360112              -16.89703856               25.98594782               -1.79089150
              15.99373354                4.15845385               58.16056224                0.00010000                2.34854580                3.52063761               -8.81800526              -19.06266422               24.26805293               -7.95379554
              17.00398749                3.52199258               58.03396404                0.00010000               -0.03385303               12.25003705              -11.14334517              -12.22856771               14.88006658              -14.54387719
              17.99305648                2.96711419               57.76330111                0.54877076               -1.09310120               17.86860262              -13.02147198               -4.03818236                7.26762180              -17.85013154
               8.17894825                8.95484424               59.39992142                0.86903873               -0.07847653               -0.25598390                0.99646507               -0.04159063                0.02580250                0.81442402
               9.17816348                8.57606945               59.07236015                0.18322675                0.15932547                0.09606504               -0.47021508                0.04518065                0.40113337               -0.60386995
              10.18213476                8.19719279               58.75227517                0.00010000                1.28804765                0.38349302               -1.93029225               -1.87954164                9.78277024               -2.23365102
              11.20392444                7.77697728               58.61171915                0.00010000                2.69533485               -0.45508582               -2.99150458               -4.11586267               19.52568931               -0.62920933
              12.23604146                7.32841022               58.48808080                0.00010000                3.71487260               -1.34425760               -4.05958748               -6.01065901               21.43741332                0.51496774
              13.27822189                6.84760917               58.38567302                0.00010000                4.56559448               -2.00647347               -5.18424446               -8.60628107               23.62104593                0.70990721
              14.32735335                6.33000957               58.30344072                0.00010000                4.88867238               -1.84197383               -6.48195917              -11.93055599               25.52592777                0.13786697
              15.37599534                5.77562217               58.23394340                0.00010000                4.36789867                0.09689419               -8.15462158              -14.93322168               26.59096623               -1.47818759
              16.41471132                5.19856589               58.16389449                0.00010000                3.39955728                4.42379186              -10.91324153              -15.51361478               25.05854244               -3.19939777
              17.44398648                4.63372637               58.04871857                0.00010000                2.29656802               11.07766376              -16.45824409               -9.96190484               16.10302492               -1.50178417
              18.46064268                4.14979899               57.78723347                0.54336332                1.66561972               16.98468319              -18.80457966               -3.82018993                9.01696039               -3.09898186
               8.55555786                9.95267544               59.29752578                0.85113541                0.01353265               -0.18269414                0.71338982               -0.04743253                0.01404593                0.86709476
               9.55569319                9.57751418               58.96264612                0.17294551                0.27743989                0.20131053               -0.79274973               -0.01085958                0.28997405               -0.62313602
              10.56110666                9.20124174               58.63326352                0.00010000                2.00080504                0.48374217               -2.34910678               -2.46551050               11.45948954               -2.40508808
              11.59570929                8.77433193               58.52096607                0.00010000                3.92302630               -0.10166990               -3.70435449               -5.02163801               22.98551802               -1.57848090
              12.63956719                8.31808717               58.42496492                0.00010000                4.70168366               -0.78011225               -4.84710907               -6.59040734               24.59407665               -0.79563306
              13.68974296                7.83295060               58.34807501                0.00010000                5.10709227               -1.02197344               -5.98829871               -8.47685782               26.36309684               -0.37807833
              14.74170903                7.31969246               58.29128167                0.00010000                5.00264355               -0.42712360               -7.33406932              -10.54996281               27.88035823               -0.13848351
              15.78979583                6.78499917               58.24771121                0.00010000                4.18240098                1.37462349               -9.19458991              -11.76206866               28.85643240                0.96102758
              16.82535705                6.24692969               58.21044873                0.00010000                3.18602291                4.75941062              -11.66552602               -9.99531572               30.48767266                1.95795218
              17.85351629                5.74354585               58.19760248                0.00010000                2.95751945                9.42191250              -19.44246493               -4.88725274               21.13335395                7.85018392
              18.88450744                5.30680786               57.95598310                0.53770043                3.09911483               11.56523175              -19.24045725               -1.43881993               11.30050682                5.50360436
               8.92832212               10.95119036               59.19534142                0.85388023                0.10578699               -0.11775779                0.43246126               -0.05322985                0.00346137                0.87976267
               9.92937999               10.58009566               58.85278951                0.19898507                0.38423386                0.32195026               -1.12888529               -0.06765585                0.16424972               -0.66044789
              10.93600680               10.20686764               58.51343615                0.00010000                2.86331297                0.70312438               -2.91640459               -2.98744143               12.97921576               -2.40539101
              11.98664625                9.77494388               58.42631587                0.00010000                5.48039212               -0.00729772               -4.56362809               -5.46692383               26.22188894               -1.73139595
              13.04561464                9.31280798               58.35562682                0.00010000                6.02165984               -0.55918248               -5.74329032               -6.08662306               27.76447562               -1.19986114
              14.10707944                8.82716970               58.30545069                0.00010000                5.93454432               -0.32541200               -6.82499288               -6.96216278               29.59145336               -0.77740706
              15.16430552                8.32146710               58.28191923                0.00010000                5.32186441                0.51033710               -8.14457211               -7.90311704               32.11323579               -0.02896705
              16.21351673                7.80311464               58.29696303                0.00010000                4.59763969                1.90631800               -9.65440813               -7.60928428               33.34033935                2.92397056
              17.25625832                7.29375410               58.31030064                0.00010000                3.64232639                3.51550346              -12.45876846               -4.80416536               35.52140659               15.03560572
              18.28636326                6.82216462               58.37449737                0.02486291                2.45419781                5.41093636              -11.55115840               -1.68347302               20.39446606                6.78696221
              19.30534227                6.38110363               58.08495744                0.54460052                1.89790138                4.69141039               -9.21260956               -1.14142986                4.37481852                4.41919700
               9.29668266               11.95032028               59.09293738                0.81626784                0.19801344               -0.05524792                0.15810488               -0.05336008                0.01590784                0.77544262
              10.29866279               11.58395318               58.74270287                0.23309434                0.49134743                0.44716772               -1.47673343               -0.07313243                0.22374035               -0.62269329
              11.30650961               11.21530423               58.39661480                0.00010000                4.08838385                0.94133588               -3.64931100               -3.63453187               14.62711001               -1.68935923
              12.38043047               10.77418598               58.33326074                0.00010000                7.95496482               -1.06270925               -5.43210443               -4.48140695               29.36571900               -1.06973898
              13.46560891               10.30690352               58.28498309                0.00010000                8.07050554               -0.73536662               -6.62628627               -4.00001673               30.95847566               -0.83744612
              14.54184058                9.82644236               58.25968385                0.00010000                7.10464236               -0.06417273               -7.57485578               -3.96906095               33.13949112               -0.61119139
              15.60770175                9.32989920               58.27041252                0.00010000                6.17412853                0.90197527               -8.77984855               -4.26121902               36.85293366                0.00043714
              16.66532315                8.82312553               58.34585176                0.00010000                5.12610078                1.93608713              -10.15199981               -3.91347010               47.21932813                2.85344941
              17.71022377                8.31723976               58.59914154                0.05714963                3.35870753                2.02702109               -8.14785503               -2.39892205               34.02805879               14.67859547
              18.73249730                7.85176458               58.43114185                0.16045230                1.67885310                2.01499977               -4.10395462               -0.83818940                7.39474409                1.50133242
              19.74380083                7.40063607               58.12729455                0.54771887                1.13035262                1.46014572               -4.10013658               -0.68581337                1.21165722                0.70255867
               9.65998911               12.95008540               58.98855361                0.91087480                0.29442774               -0.02348804               -0.12133144                0.22600691                0.34263397                0.67195117
              10.66293339               12.58903902               58.63373951                0.66899734                0.65471248                0.50858337               -1.81125027                0.20750734                0.92616445               -0.56162285
              11.67308336               12.22569435               58.29060968                0.40943885                7.12427123                1.03901249               -4.03351723               -5.11009033               16.56730071               -1.00956186
              12.80541882               11.75368970               58.24716609                0.31434737               12.01372766               -2.04962769               -6.04075489               -3.88085101               32.39382034               -0.30100509
              13.91335792               11.29810065               58.21679605                0.30736237                9.96418646               -0.88028761               -7.22147036               -1.61527133               34.26082560               -0.17094559
              15.00470255               10.82588625               58.21209912                0.31280390                8.45200306               -0.05561128               -8.02633327               -1.64350561               36.78062472                0.03110079
              16.08239798               10.33950661               58.24753806                0.33061041                7.16021134                0.96074065               -9.12648582               -1.73287064               41.60022205                0.55950694
              17.14790677                9.84183639               58.37172718                0.36172249                4.86214224                1.87108575              -10.11212863               -2.00224254               52.22866195                3.85767013
              18.17964082                9.33429452               58.65801754                0.58263263                1.91481969                1.70547596               -5.67513958               -2.02688306               34.15029012                4.64361909
              19.18620317                8.86246461               58.45237425                0.62500239                0.71211077                1.07000326               -3.01900169               -0.82881277                5.61630627                0.03777570
              20.19388304                8.41030654               58.14878034                0.76400934                0.76798723                0.96704739               -3.13233282               -0.20758663                1.08425555                0.21590704
               6.13905617                3.10006107               61.03761393                1.00000000               -0.63938118               -0.80683946                2.79181290               -0.25789050               -0.60896244                0.67540001
               7.13266236                2.69169158               60.72605416                1.00000000               -0.45022815               -0.37867811                1.42320917               -0.19851106               -0.76700897                0.10713040
               8.13005161                2.28259461               60.41092237                1.00000000               -0.07418158                0.03573646                0.06840359               -0.20038906               -0.71433935               -0.12221741
               9.13117873                1.87183784               60.10013201                0.55652415                0.18576469                0.49624692               -1.32150911               -0.33984523                0.10834791               -0.61635917
              10.13376690                1.45709875               59.80130737                0.56966130                0.51038307                1.04536557               -2.89809418               -0.34053126                0.99616509               -0.08214484
              11.14138639                1.03979086               59.50796577                0.54634008                0.92745546                1.49222090               -4.44080311               -0.39348966                1.26056547               -0.40860355
              12.15231601                0.61740014               59.21434197                0.13902163              -10.13362324                2.01416847               -5.85932246              -16.10025414                6.67897136               -0.66657373
              12.93871392               -0.12390623               59.02897750                0.00010000              -21.97369301                5.13079799               -2.11759435              -27.07600134                3.83638659               -4.80867322
              13.71284215               -1.15466796               58.89690729                0.00010000               -5.35851037                7.49662781               -6.52130591              -28.84581114                5.79534624                7.70937091
              14.83154372               -2.07468171               58.60617647                1.00000000                8.61119405                6.17903977              -16.17453345              -24.42659229               -0.34014929                2.26351164
              15.88506603               -2.54735577               58.29671628                1.00000000                5.35223149                7.31244005              -19.51751614                0.92159820               -2.03908557               -0.79508183
               6.54484676                4.09199268               60.93178651                1.00000000               -0.54362785               -0.76128404                2.49459831               -0.03929897               -0.05624149                0.92850421
               7.53941048                3.68790480               60.62012271                1.00000000               -0.34360868               -0.33880720                1.12468894                0.01481871               -0.04886362                0.17007795
               8.53797458                3.28295197               60.30825608                1.00000000                0.05588624                0.07567771               -0.22941416                0.02216322                0.03069895               -0.26093027
               9.54052820                2.87680031               59.99798652                0.43520817                0.42052483                0.52846433               -1.61681894               -0.07269617                1.21996276               -0.77419316
              10.54638508                2.46755241               59.70989853                0.66018882                0.83862968                1.03689580               -3.27047542               -0.09699224                2.19854188               -0.16784465
              11.55730080                2.05471307               59.41889842                0.73615277                1.33884669                1.50758064               -4.86302365               -0.17057427                2.05033583               -0.58565882
              12.57316201                1.63754182               59.12797451                0.19286241               -0.16564202                1.93617798               -6.32174898              -14.66291685               13.09346538               -0.91811191
              13.55398796                0.92740175               59.05881423                0.00010000               -8.66951180               -1.02658666               -2.64570857              -35.29236099               20.66190617               -0.50364594
              14.39977178               -0.07970168               59.00125030                0.00010000              -13.51831274                7.56622902               -6.85726967              -38.62901233               10.63220293                6.91875277
              15.28362170               -1.01289131               58.68070026                1.00000000               -1.64078510                5.64346394              -24.40283666              -22.18689950                1.06088781               28.13164064
              16.36695608               -1.47423137               58.37095849                1.00000000                8.33343740                5.94848929              -27.70712888               -0.71277695                1.12225157               22.12995165
               6.94644595                5.08483539               60.83054424                1.00000000               -0.44465125               -0.66437247                2.18477905               -0.04487553                0.14873638                1.10811904
               7.94199944                4.68491543               60.51521240                1.00000000               -0.24232962               -0.25423861                0.81733697                0.00523283                0.30868490                0.10690615
               8.94159936                4.28410816               60.20281262                0.66328723                0.15624676                0.16743942               -0.53449776                0.01356383                0.58820316               -0.55433121
               9.94512437                3.88240713               59.89293775                0.00931649                0.61574724                0.60314862               -1.85026075               -0.09280100                2.42749544               -0.96928873
              10.95391430                3.47783667               59.61739211                0.12410642                1.14305573               -0.44682063               -3.64772537               -1.18401185                3.42355337                2.36023902
              11.96798549                3.06994247               59.32693261                0.20415043                1.62273463               -1.61679355               -5.22861910               -1.75206713                2.75134147                5.85095404
              12.98636899                2.65612370               59.03817936                0.07937137               -0.89376407               -5.98531954               -6.58142556              -20.28276168               21.77858807               12.58416417
              13.95011020                1.85556204               59.12789057                0.00010000               -5.29070141               -4.49280106               -5.08385716              -40.34865952               37.38240106                4.52647792
              14.88055497                0.99665663               59.12318828                0.00010000               -8.38873912                6.33426396               -6.95282819              -43.03469275               41.81032287                5.03225587
              15.78233542                0.03818757               59.28461405                1.00000000               -4.35321761                3.65859278               -3.00854045              -23.71649226               25.66239507               28.31337286
              16.79349061               -0.42838599               58.91649196                1.00000000                1.11551912                3.77111466               -5.92509851               -1.67562768               -1.38863874               21.73961184
               7.34378916                6.07870523               60.72783248                1.00000000               -0.35467950               -0.55391924                1.86825382               -0.05511477                0.26670113                0.91921491
               8.34024236                5.68282003               60.40781226                0.66865402               -0.15174967               -0.16320750                0.49978390                0.00432474                0.60112510               -0.30263235
               9.34075416                5.28630076               60.09432201                0.08564273                0.23506589                0.27624835               -0.85448356                0.00970394                1.24531106               -1.13002069
              10.34494368                4.88886329               59.78715079                0.00010000               -0.27923315                0.13454730               -2.12043462               -1.87099859                6.41289831                0.95705873
              11.33516950                4.45861599               59.57737944                0.00010000               -0.04856288               -1.96564076               -3.04401108               -3.84235491               11.27672115                4.79408258
              12.34397242                4.02237720               59.36753090                0.00010000                2.33588583               -5.11783872               -4.24469043               -6.93460769               14.91371423               10.31147295
              13.38188722                3.51783543               59.22480899                0.00010000                3.12547084              -11.16140588               -4.87576234              -17.80946158               23.39105961               16.13853315
              14.40648184                2.83754573               59.16173355                0.00010000               -1.27174137               -2.61335912               -5.59277708              -28.15442795               32.59356489                3.11794179
              15.35645239                2.04698360               59.18665463                0.00010000               -8.60736850                4.03284345               -5.71704137              -38.77217209               45.81644620               -3.60995453
              16.23433447                1.06028054               59.37366121                0.84178655               -4.49308777               11.13106675               -9.41357922              -19.03720276               29.72429845              -17.25614806
              17.26659064                0.60119092               59.00233612                1.00000000                3.22561653                3.79149647              -11.94978831                4.34065122                2.45147424              -17.31730108
               7.73711406                7.07375701               60.62230764                1.00000000               -0.26236603               -0.43442520                1.56051727               -0.04548090                0.11011963                0.74618287
               8.73449040                6.68165128               60.29457977                0.34453745               -0.06819409               -0.08330959                0.15756885                0.05221596                0.64178914               -0.62821729
               9.73575017                6.28963313               59.97738795                0.00010000                0.04493860                0.32202742               -1.18355161               -0.46348186                4.19346927               -1.80419912
              10.73538917                5.88509808               59.72073706                0.00010000                0.39015580               -1.07883342               -0.99339870               -2.93658094               11.14732767                2.94430695
              11.74355329                5.43852385               59.54543208                0.00010000                1.73423625               -2.26794424               -3.00337229               -4.64853274               16.22728139                4.13767524
              12.77007389                4.96758570               59.38532486                0.00010000                3.57289708               -5.03643660               -4.08005296               -7.66396178               19.30735132                6.20619496
              13.81501123                4.43289558               59.26131746                0.00010000                4.38997914               -6.96176627               -5.07934376              -14.96893322               24.08149054                5.30288747
              14.85787348                3.80329485               59.18204080                0.00010000                3.36827380               -3.31227152               -6.10602243              -22.96721808               28.78794825                0.32802315
              15.88237671                3.07731349               59.13801776                0.00010000               -0.52447137                2.85744211               -7.53356926              -27.53139158               29.43726784               -9.63562575
              16.84738405                2.26080890               59.06533769                0.00651743               -4.19469123               17.72300077               -6.40986373              -15.18051388               17.35628064              -34.59569738
              17.79848288                1.64744394               58.77222522                0.69286099               -4.89011648               11.87409121              -11.28563496               -7.54103733                9.17737718              -30.29708520
               8.12709098                8.07001672               60.51564043                0.90010807               -0.16804234               -0.32361917                1.27391540               -0.03654289                0.04997255                0.76342952
               9.12541056                7.68115383               60.18075033                0.22111497                0.04733771               -0.01550848               -0.15446990                0.07860504                0.54337701               -0.64478630
              10.12803774                7.29274131               59.85567423                0.00010000                0.59553918                0.27098697               -1.56710144               -1.59850739                7.97388062               -2.18940059
              11.13732134                6.86728662               59.66904036                0.00010000                1.58367449               -1.38818874               -2.30523863               -3.80348403               15.98369471                1.60341288
              12.15971123                6.41325711               59.50422240                0.00010000                2.95000584               -2.37174893               -3.30806201               -5.90532856               18.69210542                2.19245288
              13.19632146                5.92164847               59.36890134                0.00010000                4.35440870               -3.92705043               -4.50716618               -9.51037383               21.76730923                2.63699532
              14.24679940                5.37860011               59.25791376                0.00010000                5.31990535               -4.42256558               -5.74979434              -14.94205500               24.52611367                1.51505260
              15.30271957                4.77130030               59.16650799                0.00010000                5.07555551               -2.32615148               -7.29393365              -20.58123991               25.94077527               -2.07669016
              16.34831051                4.10413244               59.07016825                0.00010000                2.89370899                3.15334894               -9.07784761              -23.52939273               23.98421542               -9.00526054
              17.36059374                3.41474056               58.92069151                0.00010000               -0.29053484               13.80143901              -11.29802995              -15.55308494               14.50773586              -18.82935248
              18.34249981                2.83867274               58.62991387                0.55735512               -1.80939323               18.69852446              -13.59479417               -6.64158229                6.58946728              -20.38915836
               8.51410898                9.06728462               60.40990919                0.86175447               -0.07710675               -0.23529113                0.99422780               -0.04278249                0.02104938                0.86215112
               9.51333791                8.68134112               60.06763691                0.17691503                0.17691330                0.06751973               -0.46708174                0.03112302                0.38894956               -0.63177868
              10.51764724                8.29505287               59.73269866                0.00010000                1.27328898                0.24070082               -1.97967393               -2.39744586                9.99454493               -2.43133198
              11.53880369                7.85733430               59.58185665                0.00010000                2.67188139               -0.76885756               -2.97039021               -5.19387992               19.99617853               -1.04471030
              12.57108487                7.39108887               59.44751870                0.00010000                3.78598645               -1.79802209               -4.04019011               -7.41618168               21.88635905                0.15644302
              13.61452342                6.88904469               59.33348559                0.00010000                4.77167151               -2.56930070               -5.22581405              -10.75738581               23.95224199                0.47805945
              14.66651830                6.34444427               59.23733736                0.00010000                5.30964612               -2.46656937               -6.66563360              -15.03682908               25.58413041               -0.13532014
              15.72071634                5.75677182               59.14947406                0.00010000                5.09151458               -0.51101556               -8.61459637              -18.99128268               25.92838135               -2.03869258
              16.76834859                5.14038047               59.04784884                0.00010000                4.05328545                4.18953791              -11.71451752              -20.04601823               23.06455102               -4.43393549
              17.80178205                4.53683768               58.88561104                0.00010000                2.47191368               11.52206323              -15.92147396              -13.48819901               13.82745315               -6.48466831
              18.81778687                4.02141443               58.59441487                0.54306431                1.60048167               17.38548891              -18.63031757               -5.74084116                7.23495492               -7.88286382
               8.89812234               10.06531090               60.30470622                0.84654784                0.01424259               -0.16472219                0.71582788               -0.04967089                0.00885759                0.92299071
               9.89826477                9.68250423               59.95467456                0.17005778                0.29866433                0.17536880               -0.79035782               -0.06527627                0.23490426               -0.67076771
              10.90409563                9.29755533               59.60916424                0.00010000                1.95714846                0.33952052               -2.47038882               -3.07073503               11.47811211               -2.77194351
              11.93740774                8.85190947               59.48326714                0.00010000                3.77907862               -0.27413317               -3.78890729               -6.17006090               23.28329935               -2.24576470
              12.97967720                8.37729667               59.37593517                0.00010000                4.52053027               -0.98011038               -4.93001627               -8.05325279               25.03949342               -1.32162321
              14.02781835                7.87026245               59.28729816                0.00010000                4.93292400               -1.23717335               -6.12195742              -10.76426535               26.69120382               -0.73166315
              15.07833568                7.32926872               59.21577779                0.00010000                4.95696811               -0.67385455               -7.69398045              -13.98828456               27.80796640               -0.55759824
              16.12695771                6.76107999               59.15083743                0.00010000                4.44943007                1.10854161               -9.94483287              -16.16065444               28.22404160                0.20268688
              17.16732428                6.18792320               59.08420099                0.00010000                4.14190494                4.92275730              -13.65727687              -15.28884025               26.44713832                0.48143726
              18.20979581                5.64518182               58.96879633                0.00010000                4.56026049               10.95402462              -22.09759503               -9.68618321               17.55179204                6.78845931
              19.25852949                5.18638252               58.70075723                0.52613004                4.87336883               15.20027097              -25.75972903               -4.10247061               10.78900116                5.80672694
               9.27872890               11.06399018               60.19973682                0.84994515                0.10590546               -0.10498769                0.43954734               -0.05723597               -0.00357336                0.94948926
              10.27978796               10.68484849               59.84141741                0.20040401                0.40492005                0.30406068               -1.13161710               -0.15876861               -0.01786779               -0.73517139
              11.28682730               10.30184328               59.48283653                0.00010000                2.79365865                0.64726543               -3.19579961               -3.57662824               12.69799451               -3.02414634
              12.33566113                9.85185164               59.37860031                0.00010000                5.24197623                0.08026971               -5.06541761               -6.48442921               26.38060703               -2.69816754
              13.39166683                9.37148666               59.29646656                0.00010000                5.58024637               -0.42520239               -6.08344896               -7.34379708               28.33467756               -1.87251417
              14.44726606                8.86430122               59.23558538                0.00010000                5.21341233               -0.12708669               -7.08448779               -9.01863242               30.00140949               -1.16785947
              15.49593508                8.33096718               59.19705453                0.00010000                4.57913552                0.85975949               -8.67875291              -11.28866907               32.07370158               -0.49672374
              16.53884877                7.77894266               59.19210154                0.00010000                4.12674376                2.46147146              -11.38375449              -12.37413329               32.36642097                1.92421569
              17.57846995                7.23883562               59.16965017                0.00010000                3.53751481                4.67177489              -14.70996700               -9.33717930               34.76124454               14.26020827
              18.60959906                6.75591818               59.21107763                0.00010000                3.74330521                8.82768066              -23.01032117               -3.97752689               24.30710669               12.45751945
              19.65333606                6.32541985               58.95527334                0.50598722                4.37369901                9.21586494              -22.65136375               -2.75944821               12.58094703               10.14669488
               9.65526100               12.06321115               60.09463981                0.80970853                0.19752974               -0.05175105                0.17553884               -0.05564569                0.00735636                0.85788247
              10.65723630               11.68858544               59.72779017                0.24898848                0.51494598                0.44139716               -1.49257350               -0.13537011               -0.17889924               -0.71078497
              11.66555992               11.31050064               59.35726540                0.00010000                4.04197370                1.02897066               -4.13859080               -4.07114183               13.99951928               -2.20815520
              12.73807577               10.85351486               59.27496841                0.00010000                7.73958794               -0.67966910               -6.67763416               -5.15175971               29.48107659               -1.88846514
              13.82035168               10.36879262               59.21523119                0.00010000                7.49447065               -0.26969237               -7.45732029               -4.75994084               31.82709024               -1.33579659
              14.88796518                9.86772072               59.18129619                0.00010000                5.87845957                0.52764478               -7.96299422               -5.22424980               33.79645810               -0.87310243
              15.93792087                9.34646391               59.17827443                0.00010000                4.18207086                1.86084775               -9.50166436               -6.53989422               36.68299053               -0.37730555
              16.97160660                8.81030942               59.23129964                0.00010000                3.28421550                3.78488626              -12.30394429               -7.09502718               47.51134380                1.98108780
              18.00360518                8.28135870               59.48895811                0.00010000                3.60272180                4.00845943              -17.59138325               -4.54524739               38.39945217               16.25099812
              19.04366104                7.82173544               59.38336159                0.06488258                3.03660016                4.06602588               -7.92141027               -1.15714262               11.87096138                5.89921667
              20.06433718                7.37069982               59.07572882                0.50788538                2.06761452                3.17366284               -8.69788329               -2.23382246                3.79920395                3.49135585
              10.02686740               13.06295516               59.98752227                0.90688153                0.29236684               -0.02559897               -0.09000622                0.23276767                0.38134372                0.76059635
              11.02979107               12.69367643               59.61545695                0.68564565                0.68038253                0.50909921               -1.83007675                0.22885386                0.58668286               -0.65494480
              12.04047505               12.32242269               59.24757998                0.43254525                7.22714429                1.19220578               -4.37009556               -5.27939582               15.84793092               -1.34752983
              13.17433395               11.83825826               59.18108309                0.31423906               12.08935526               -1.52566040               -8.04467722               -4.19067555               32.30632060               -0.55363577
              14.28226215               11.36609282               59.13933745                0.30739775                9.53879096               -0.26998017               -8.45889246               -1.97915921               35.42743097               -0.42704958
              15.36510977               10.87485412               59.12803633                0.31256114                7.01431699                0.71334000               -8.62836152               -2.18097537               37.69068456               -0.14240662
              16.42254849               10.36818413               59.15067314                0.32966344                4.84718312                2.17202236              -10.00834446               -2.54792432               41.54542235                0.31813373
              17.46205343                9.85464038               59.25296560                0.35942701                2.67952440                4.43309658              -13.35497445               -3.41428291               53.97294964                3.36603749
              18.47613898                9.31900481               59.58216465                0.54348215                1.75308284                3.76461073              -14.20479242               -3.61670403               39.16059551                8.92748426
              19.49711509                8.83723869               59.41926403                0.56834740                1.72959268                1.55032574               -4.85892709               -1.16017955                8.84950385                0.61254357
              20.51073084                8.38889311               59.10956917                0.74219438                1.36157445                1.81932859               -6.56267986               -0.19519327                2.79964675                0.88656202
               6.45150524                3.21406340               62.06512451                1.00000000               -0.61730178               -0.78031080                2.70215446               -0.25170057               -0.58621426                0.66316911
               7.44533222                2.80016908               61.74005279                1.00000000               -0.43228403               -0.36619185                1.37444797               -0.19458932               -0.73491735                0.10322500
               8.44285955                2.38556718               61.41153727                1.00000000               -0.06476686                0.03448223                0.05907295               -0.19499105               -0.69346156               -0.11484158
               9.44403688                1.96940533               61.08702848                0.55481773                0.19489935                0.48019449               -1.28822552               -0.33102559                0.01284824               -0.59600944
              10.44675754                1.54937542               60.77258858                0.55212969                0.51655256                1.00847892               -2.82363756               -0.33968168                0.81223450               -0.11478917
              11.45436793                1.12662327               60.46389456                0.49617567                0.93680489                1.45088544               -4.34153253               -0.39569783                1.14315349               -0.45710573
              12.46549364                0.69918876               60.15634337                0.12608640              -15.33627996                1.91309519               -5.70293184              -23.58022065                9.66002767               -0.74947433
              13.14764233               -0.19552781               60.01849334                0.00010000              -22.98385926                7.66687220               -1.41413676              -25.25731796                9.58382602               -1.92030178
              14.00581645               -1.15602661               59.83192102                0.00010000                0.03669725                5.28533733               -6.21873881              -23.74037188                3.77589360               12.15099831
              15.14837628               -2.08250491               59.45635136                1.00000000                9.23957318                4.90262924              -12.98683037              -23.03345438               -2.44097625                1.57853597
              16.19060792               -2.58167979               59.11424417                1.00000000                4.22316408                5.86461803              -15.87710194                0.70051170               -2.01680811               -0.59060044
               6.86288255                4.20626029               61.95636567                1.00000000               -0.52481126               -0.73458677                2.41369521               -0.04173973               -0.04283297                0.91599115
               7.85763444                3.79650716               61.63117539                1.00000000               -0.32955138               -0.32725462                1.08438583                0.00967431               -0.02508558                0.16289142
               8.85629152                3.38591200               61.30594026                1.00000000                0.05940339                0.07313386               -0.22909372                0.01873787                0.04510123               -0.26106410
               9.85882250                2.97420727               60.98197958                0.44176259                0.42301162                0.51225842               -1.57374129               -0.07444675                1.08150792               -0.72940229
              10.86475175                2.55946021               60.67756792                0.63748159                0.83408890                0.99577591               -3.17532572               -0.09591739                1.94074036               -0.21005008
              11.87550428                2.14113213               60.37080074                0.66282981                1.30076103                1.45902231               -4.72842236               -0.18785925                1.87863051               -0.61889371
              12.89076697                1.71831971               60.06564266                0.16358067               -2.64137219                1.80677079               -6.12028280              -20.76322928               14.99295545               -0.92518859
              13.82267684                0.88114091               60.02241664                0.00010000               -8.94328441                2.71181768               -4.51307534              -33.83678387               22.78602617                1.75214481
              14.71190128               -0.10317323               59.92884370                0.00010000               -9.59042555                6.28259568               -7.28843076              -34.39393635                4.60970202               11.47120746
              15.63086833               -1.03347862               59.44607747                1.00000000               -0.75566831                4.55978576              -20.07342771              -20.59655481               -5.14562473               41.36981155
              16.69678792               -1.52303361               59.10370684                1.00000000                6.59195927                4.61711118              -22.96072068               -0.39457290               -0.19246427               36.62354706
               7.27017670                5.19937166               61.85208180                1.00000000               -0.43027030               -0.63637744                2.11527761               -0.04873835                0.15936284                1.09356558
               8.26587400                4.79362399               61.52323048                1.00000000               -0.23212487               -0.24569745                0.78536030               -0.00173495                0.32927029                0.09175428
               9.26553420                4.38702985               61.19747037                0.64031433                0.15628702                0.16406321               -0.52885170                0.00950836                0.63604172               -0.57218406
              10.26899974                3.97965050               60.87464821                0.00682205                0.61900695                0.59140040               -1.79743137               -0.10774844                2.25759223               -0.91946993
              11.27791434                3.56929094               60.58148554                0.10262200                1.13757519               -0.75702673               -3.51736982               -1.16592593                3.10009637                2.79989451
              12.29175124                3.15580372               60.27546201                0.16331728                1.61529635               -2.12397301               -5.04126982               -1.60978664                2.61964186                6.48488477
              13.31022027                2.73532418               59.97329931                0.04313605                0.03241816               -7.36638658               -6.36763182              -23.04969319               22.82932737               13.58715899
              14.29239960                1.85870854               60.07145175                0.00010000               -3.88315055               -1.60875857               -5.85259968              -41.43135667               38.76146715                6.06613256
              15.23255726                0.96962531               60.04904889                0.00010000               -6.80470215                5.96108790               -7.32988088              -42.20307404               45.83846725                9.78810345
              16.15630556                0.00869081               60.26148189                1.00000000               -3.53654020                3.16283234               -2.01542816              -22.65772664               29.37668119               42.21422715
              17.16182645               -0.48933757               59.87196592                1.00000000                0.55208923                2.89760258               -3.44261562               -1.02209124               -1.10623627               37.32362476
               7.67340313                6.19353274               61.74627695                1.00000000               -0.34615857               -0.52465707                1.81264785               -0.05547488                0.27875579                0.91481208
               8.66994155                5.79159321               61.41271089                0.64036469               -0.14739762               -0.16250020                0.47973578                0.00838764                0.61857204               -0.33394685
               9.67045518                5.38919326               61.08575976                0.06115498                0.22324524                0.26572605               -0.85232090                0.02566320                1.31705859               -1.16093901
              10.67440645                4.98603528               60.76619152                0.00010000               -0.25875837               -0.28783115               -2.06035902               -2.19682115                6.70671468                1.74100899
              11.66528001                4.54431967               60.54763727                0.00010000                0.14344279               -2.52718067               -2.92662429               -4.20095694               11.71705748                5.50287623
              12.67727531                4.09865267               60.32572250                0.00010000                3.07941356               -6.19144862               -4.12218746               -7.59520507               15.48443341               11.37666473
              13.72686828                3.57099198               60.17580924                0.00010000                4.12366344              -13.07438582               -4.88455165              -19.72994295               24.09533448               17.70748983
              14.75974857                2.84896574               60.10406586                0.00010000               -0.45053704               -2.37296291               -5.78104602              -31.62131853               33.56580463                4.77639324
              15.71785754                2.01604852               60.12655396                0.00010000               -6.15359530                4.11508444               -6.04280035              -40.57002995               45.14149761               -0.17080773
              16.63667667                1.02977803               60.26711961                1.00000000               -2.27273483                7.05452855              -10.68447737              -21.36496567               28.17308309              -12.20526831
              17.67240284                0.53491844               59.87610571                1.00000000                3.57261762                2.41225295              -12.03230749                2.49382038                1.52545570              -13.00273176
               8.07294626                7.18887852               61.63775687                1.00000000               -0.25650319               -0.40352947                1.52040855               -0.03962309                0.10228195                0.76557269
               9.07038123                6.79037398               61.29612399                0.32470645               -0.06704310               -0.09766030                0.15256210                0.07480854                0.66493749               -0.65853102
              10.07160540                6.39234437               60.96561130                0.00010000               -0.02221625                0.26399462               -1.16484334               -0.80711892                5.07297660               -1.88098970
              11.06993690                5.97389387               60.71223050                0.00010000                0.48362094               -1.58264807               -0.88895401               -3.38168979               11.66884882                3.02459891
              12.08127782                5.51874732               60.51582246                0.00010000                2.16189631               -2.87924560               -2.96113245               -5.14028783               16.17820841                4.52498670
              13.11317483                5.03197475               60.34483915                0.00010000                4.20152583               -6.04967091               -4.02670078               -8.85317046               19.77547990                6.79432389
              14.16530833                4.47383646               60.21039195                0.00010000                5.08709312               -8.00894495               -5.07371343              -17.31724820               24.49266383                6.01103973
              15.21491669                3.81124929               60.12030582                0.00010000                3.75180177               -3.74357620               -6.12170780              -25.90402256               28.85373041                1.43017601
              16.24034437                3.05192700               60.06087509                0.00010000               -0.23901796                2.62345183               -7.43032348              -33.00455608               30.26242330               -8.09523534
              17.21013633                2.14978138               59.99826401                0.10826141               -1.94611628               14.76770754               -7.36293046              -19.76497896               16.59826721              -29.56562408
              18.20142204                1.55890749               59.64991593                0.82419520               -0.87142893               10.11114674              -11.75382464               -7.38747554                5.50655005              -22.65098470
               8.46961974                8.18546215               61.52829005                0.88958143               -0.16478817               -0.29285239                1.24701509               -0.03383734                0.04352039                0.80459636
               9.46797186                7.78964001               61.17923220                0.21135112                0.05865829               -0.04321687               -0.14531100                0.08913926                0.53744027               -0.66414775
              10.47079291                7.39447315               60.83998377                0.00010000                0.61989209                0.13658860               -1.56578040               -1.95285814                8.32129659               -2.35310820
              11.48036970                6.95438232               60.64616736                0.00010000                1.68002354               -1.60187925               -2.30425383               -4.43236614               16.62240992                1.00196357
              12.50439338                6.48673476               60.47150587                0.00010000                3.23765264               -2.94605060               -3.27388059               -6.79305941               19.11192245                2.32728259
              13.54512276                5.97765925               60.32396770                0.00010000                4.84276980               -4.66006022               -4.49501644              -11.08242205               22.07067008                3.00314816
              14.60124878                5.41081308               60.20017587                0.00010000                5.92274160               -5.21986590               -5.76047785              -17.29129421               24.61140184                2.04789773
              15.66357759                4.77409422               60.09284610                0.00010000                5.89927754               -3.03652059               -7.27914849              -23.65803632               25.67809138               -1.45747005
              16.71923433                4.06851756               59.97900529                0.00010000                3.54095025                2.19637187               -8.93431676              -27.47205181               23.35162331               -8.29785272
              17.73439659                3.32513218               59.80800344                0.00010000               -0.64166097               15.30734005              -10.54978456              -18.37715012               13.75008084              -20.69529277
              18.70640111                2.73714137               59.49140522                0.57175776               -2.79954860               18.11954304              -13.52855168               -9.48347728                6.38307299              -19.82080495
               8.86391380                9.18302147               61.41980597                0.85550589               -0.07607940               -0.20772617                0.97603495               -0.04225330                0.01652167                0.91307074
               9.86315301                8.78950965               61.06301851                0.17506879                0.19460590                0.03391580               -0.44809524                0.00080320                0.33956901               -0.66024467
              10.86780592                8.39507615               60.71268169                0.00010000                1.29374816                0.05959245               -2.00833210               -2.81849745               10.18905751               -2.69332666
              11.88902797                7.94185629               60.55231134                0.00010000                2.71668887               -1.08546707               -2.96896937               -6.05075944               20.48842738               -1.29096478
              12.92213970                7.45982631               60.40727700                0.00010000                3.92100459               -2.20139604               -4.03379524               -8.55750444               22.32281308                0.12781694
              13.96744806                6.93877354               60.28115674                0.00010000                5.04538896               -3.07208500               -5.25547810              -12.58927517               24.25587505                0.76045002
              15.02304748                6.36943914               60.17012805                0.00010000                5.83017113               -3.09948765               -6.74581020              -17.75871788               25.53322280                0.30675810
              16.08405149                5.75051887               60.06165147                0.00010000                5.84089447               -1.38343930               -8.73963857              -22.56544218               25.14217472               -1.59050306
              17.13986537                5.09585443               59.92960414                0.00010000                4.49590144                3.31197737              -11.52412755              -23.87420529               21.38238962               -5.03919546
              18.17396952                4.45592818               59.73028909                0.00010000                2.39343719               11.43581301              -14.85193518              -16.04783904               12.22940037               -9.31805974
              19.18773411                3.92129835               59.41462711                0.54054407                1.37645953               16.24712781              -17.24421242               -6.96475485                5.96747703              -10.86660411
               9.25579833               10.18130763               61.31184234                0.84278446                0.01349208               -0.13874596                0.70255810               -0.05014769                0.00470872                0.98191203
              10.25593325                9.79031832               60.94683897                0.17500064                0.31389931                0.13834922               -0.76292671               -0.14363559                0.10373178               -0.72093548
              11.26207632                9.39566500               60.58385574                0.00010000                1.93355482                0.16037040               -2.55012627               -3.63337375               11.42515171               -3.23123731
              12.29460435                8.93267298               60.44518792                0.00010000                3.71248597               -0.62885099               -3.77786660               -7.06788909               23.60199301               -2.85139648
              13.33632604                8.44270684               60.32636460                0.00010000                4.45600353               -1.18823191               -5.00495436               -9.16360052               25.51575621               -1.52671638
              14.38372442                7.91621755               60.22563587                0.00010000                4.90015237               -1.44795273               -6.23933494              -12.74059503               27.06459342               -0.47086420
              15.43432909                7.34882333               60.13740206                0.00010000                5.10645181               -1.02015820               -7.92732061              -17.17880977               27.84059604               -0.12475540
              16.48585346                6.74642543               60.04881455                0.00010000                5.10059159                0.53089375              -10.38392429              -20.49340989               27.10363230                0.17082771
              17.53634092                6.13475711               59.93730319                0.00010000                5.10712193                3.91733573              -14.72144704              -19.99676225               23.30991993                0.28589389
              18.58799590                5.55384844               59.75565058                0.00010000                5.00123743               10.04107857              -20.54998197              -12.98802341               13.70296507                1.51191794
              19.63636567                5.06208393               59.44078852                0.52762135                4.83697709               14.38837902              -24.51355179               -5.13466600                7.19728971                0.05626930
               9.64488946               11.18024655               61.20413237                0.84711261                0.10334602               -0.08075736                0.42893203               -0.06045502               -0.01296358                1.02755019
              10.64592292               10.79227663               60.83015717                0.21985199                0.39471646                0.26898106               -1.09865272               -0.27185145               -0.35082407               -0.82313064
              11.65278379               10.39828355               60.44952016                0.00010000                2.73527160                0.53663331               -3.30267513               -4.28759660               12.02296080               -3.73326905
              12.70062835                9.92927927               60.32500752                0.00010000                5.12696637                0.06304583               -5.43839537               -7.23700097               26.30567920               -4.35782380
              13.75532312                9.43606167               60.23395784                0.00010000                5.29456595               -0.26950681               -6.53001071               -7.99839440               29.04131041               -2.31004986
              14.80651967                8.90981449               60.16376094                0.00010000                4.69701399                0.01559105               -7.29664742              -10.80118067               30.64878868               -0.88864624
              15.84926340                8.34903598               60.10834417                0.00010000                4.08649193                0.99555704               -9.08084467              -14.58243560               32.03703138               -0.06522160
              16.88824951                7.76113675               60.06928794                0.00010000                4.16218568                2.77288949              -12.80599019              -17.79109682               32.12932587                2.07474501
              17.93250711                7.17420115               60.01610130                0.00010000                4.93163571                4.74940642              -16.74752525              -15.72885279               29.52750858               10.60778598
              18.98688222                6.65674975               59.91429094                0.00010000                6.80313507               10.38570408              -29.24062943               -8.49926468               20.21017743               16.03939271
              20.06856981                6.20906593               59.63193017                0.50037923                8.16875878               12.70417077              -33.92727342               -4.83414292               13.59148506               12.60674459
              10.03052908               12.17969248               61.09644815                0.80389850                0.19301449               -0.03570681                0.17253503               -0.05659594               -0.01329760                0.96064988
              11.03245922               11.79569794               60.71285140                0.30018213                0.43963348                0.41649582               -1.46712198               -0.23042000               -0.79376976               -0.82142385
              12.03932175               11.40639767               60.31384298                0.00010000                3.98134935                0.99155150               -4.02359107               -4.50659961               12.43288585               -2.66763154
              13.11208621               10.93393389               60.19970806                0.00010000                7.82505913                0.05541813              -10.17166449               -5.49607780               29.18912322               -3.60394027
              14.19582293               10.43731670               60.13583668                0.00010000                7.13201442                0.26427301               -8.20595448               -4.88871720               33.26626811               -1.61487133
              15.25472650                9.91652937               60.10042397                0.00010000                4.77675895                0.98716795               -8.17346040               -6.39606811               34.82310770               -0.63685624
              16.29135811                9.36873447               60.08037923                0.00010000                2.50699264                2.60179406              -10.14319197               -8.77661970               37.05856467               -0.05230310
              17.30486635                8.80188322               60.09977287                0.00010000                1.73963752                5.23442337              -14.17810031              -11.56822439               44.95982419                1.85551682
              18.32615086                8.22974524               60.24731387                0.00010000                3.91397327                7.61149865              -28.22011295               -8.81367509               45.44697318               14.40805219
              19.38314582                7.76156252               60.27271365                0.00010000                5.44497919                7.30804322              -22.65061252               -3.23356970               23.45230007               13.85749709
              20.43505045                7.31616735               59.95333688                0.44528164                5.19046269                7.56455745              -23.48895961               -4.50472433               11.18004518               10.15653443
              10.41174662               13.17953242               60.98675349                0.90293476                0.28627144               -0.01600636               -0.08193028                0.22916670                0.43101819                0.88194175
              11.41460933               12.80060655               60.59713797                0.72582894                0.63346146                0.49086034               -1.79272478                0.14411906                0.20638774               -0.78180674
              12.42441585               12.41811458               60.20320777                0.47949355                7.25892154                1.17169140               -4.03867022               -5.00153605               13.73728268               -1.59532567
              13.55978776               11.93038763               60.08627255                0.31395310               12.52687261               -0.35462635              -13.33218803               -4.06821741               31.15982639               -0.46505563
              14.67495330               11.44134713               60.04761820                0.30742904                9.36963895                0.40304292               -9.28364867               -2.12845254               37.30693579               -0.80693419
              15.74718054               10.92955785               60.03953189                0.31236912                5.67119255                1.30284771               -9.03054939               -2.76835942               39.13987573               -0.13025387
              16.78837715               10.40107186               60.04737117                0.32860715                2.43468578                3.23373894              -10.93505137               -3.48472749               41.81815114                0.36394706
              17.79587426                9.86582522               60.10462769                0.35716542                0.40885783                6.39419956              -15.47537849               -4.63124657               53.62749809                1.60149240
              18.79655431                9.32643112               60.37392169                0.48996507                1.99572322                9.66858836              -30.24387312               -6.10538556               50.51368915               13.67210060
              19.83578872                8.80291061               60.35519571                0.45416740                3.63556870                4.13480910              -16.30859181               -3.03941166               21.21083964                6.08889356
              20.86926568                8.36035708               60.01752674                0.68379728                3.34769590                4.41897345              -18.04596375               -0.83382983                9.28198110                2.90185956
               6.77747532                3.33084214               63.09165702                1.00000000               -0.59240714               -0.74869291                2.59666189               -0.24359135               -0.56538924                0.65245277
               7.77155125                2.91151089               62.75354312                1.00000000               -0.41343153               -0.35259487                1.32169801               -0.18922519               -0.70547986                0.09921192
               8.76920669                2.49149180               62.41210383                1.00000000               -0.05834346                0.03057971                0.05859677               -0.18820023               -0.67437380               -0.10811024
               9.77038438                2.07001544               62.07436750                0.55125221                0.19694098                0.45770926               -1.23373803               -0.31774310               -0.08145114               -0.57813750
              10.77314551                1.64484429               61.74483462                0.52943942                0.50551460                0.96101618               -2.70753508               -0.33563008                0.61959665               -0.14518503
              11.78049467                1.21683639               61.42113512                0.44261601                0.88861382                1.39313541               -4.17695597               -0.42121151                1.01660120               -0.50010643
              12.79091779                0.78381207               61.10028333                0.04261425              -16.28409401                1.82700412               -5.47103611              -26.30102060               12.11538246               -0.87097303
              13.45481279               -0.17015888               61.00069477                0.00010000              -22.02078958                7.96451152               -2.46198108              -25.29580589               16.89059829                2.48580138
              14.35050200               -1.10549335               60.77253251                0.00010000                2.27941234                3.80879553               -5.48538343              -20.83991665                3.30872894               15.52218658
              15.50040104               -2.02256321               60.34643986                1.00000000                8.92211279                3.19375942               -9.02261034              -21.08548601               -3.27712657                1.08905187
              16.52894425               -2.53809312               59.97917424                1.00000000                2.85432115                3.86109386              -11.10809319                0.33738783               -1.57627188               -0.18790382
               7.19437066                4.32335521               62.98006042                1.00000000               -0.50364874               -0.70233592                2.31816627               -0.04400068               -0.03022713                0.90573740
               8.18933417                3.90798494               62.64181043                1.00000000               -0.31491234               -0.31479363                1.04135725                0.00436994               -0.00233382                0.15543863
               9.18807241                3.49179759               62.30367421                1.00000000                0.05982661                0.06765938               -0.21963471                0.01516813                0.05948407               -0.26364547
              10.19053070                3.07459254               61.96651170                0.44486746                0.41531621                0.48951769               -1.50956171               -0.07332367                0.95072488               -0.68699554
              11.19637874                2.65445445               61.64639201                0.60495832                0.81339828                0.94604623               -3.04240873               -0.09339359                1.69130242               -0.24268728
              12.20679867                2.23076775               61.32432997                0.58309536                1.25132404                1.39410075               -4.53932392               -0.21512338                1.71758756               -0.63635923
              13.22140522                1.80208211               61.00556886                0.09225428               -3.01456135                1.69441157               -5.87817180              -23.26167471               15.89650221               -0.95134434
              14.14650744                0.90948624               60.96855273                0.00010000               -7.65501126                3.26971746               -5.43278727              -33.73551606               26.75457750                5.92733959
              15.06830499               -0.06740539               60.85548169                0.00010000               -7.03306878                5.01008912               -6.81120587              -32.16598391                2.63192793               16.34159910
              16.00584607               -0.99062561               60.27923170                1.00000000               -1.02284722                4.19965894              -13.39119249              -19.27629107               -8.97799810               51.18929543
              17.04784805               -1.49948218               59.91174408                1.00000000                4.20019809                4.18903829              -15.47064481                0.18702130               -0.63093848               48.19004257
               7.60733585                5.31679542               62.87284979                1.00000000               -0.41395794               -0.60144053                2.03108763               -0.05175400                0.16806228                1.08287782
               8.60319627                4.90521502               62.53091961                1.00000000               -0.22166948               -0.23686816                0.75181303               -0.00768117                0.34759095                0.07809521
               9.60290246                4.49284498               62.19223559                0.60914419                0.15323904                0.15717320               -0.51286159                0.00665380                0.68554030               -0.59873552
              10.60626105                4.07980580               61.85698912                0.00070900                0.60999855                0.57543197               -1.72499034               -0.12050011                2.10953396               -0.87270073
              11.61510243                3.66376521               61.54704471                0.07655629                1.11517492               -1.00589269               -3.35648225               -1.07432274                2.80956042                3.21412262
              12.62856455                3.24471841               61.22610721                0.11950257                1.59316869               -2.51171981               -4.81159080               -1.36872343                2.49843845                7.07413951
              13.64696580                2.81770030               60.91082672                0.00010000                1.05127127               -8.35947594               -6.10450246              -24.27188048               23.53123255               14.46788509
              14.64958997                1.89523547               61.01083858                0.00010000               -1.98358198               -1.26333590               -5.95764064              -42.12230471               39.66417760                9.18593629
              15.60729416                0.99470843               60.97659066                0.00010000               -5.13189827                4.95733171               -6.78010929              -40.29409461               49.90409018               15.48373805
              16.54695201                0.06142997               61.24430549                1.00000000               -2.84481698                3.50093374               -1.67143249              -20.33112345               32.96572918               52.99128194
              17.55039782               -0.45431236               60.84763965                1.00000000                0.34458159                3.13342331               -1.98754744               -0.01025782               -0.35557640               50.32128279
               8.01649639                6.31132640               62.76408544                1.00000000               -0.33654001               -0.48700352                1.74153061               -0.05340203                0.28905285                0.91511805
               9.01313099                5.90324758               62.41740697                0.61179558               -0.14408400               -0.16278320                0.45961378                0.01765505                0.62664869               -0.35986815
              10.01361471                5.49494106               62.07727559                0.00010000                0.20347417                0.24721732               -0.83764025                0.05271672                1.38967700               -1.19498620
              11.01720047                5.08610118               61.74594361                0.00010000               -0.18175178               -0.70957909               -1.97976829               -2.41552637                6.99829023                2.44442574
              12.00997967                4.63433660               61.51884695                0.00010000                0.41443223               -2.93051142               -2.86715001               -4.30807248               12.09252741                6.20384418
              13.02548912                4.18053335               61.28508715                0.00010000                3.77354363               -6.97457169               -4.02975118               -7.84972791               15.90009107               12.43270509
              14.08545054                3.63489259               61.12711795                0.00010000                5.07820486              -14.44752761               -4.84269657              -20.69408982               24.46448417               19.45852394
              15.12705321                2.88421952               61.04611263                0.00010000                0.53890253               -2.60586656               -5.70437106              -33.41381898               34.19762811                7.33599249
              16.09622860                2.03174124               61.06579862                0.00010000               -3.94044129                3.41245160               -5.85722670              -40.12268139               44.17709265                4.85071106
              17.04824439                1.07939306               61.15997166                1.00000000               -0.85505216                3.35913083               -9.58981161              -21.25992033               25.81249751               -7.76518099
              18.07912755                0.56318628               60.76168997                1.00000000                3.08831652                1.67185452               -9.88882932                1.12493265                0.42126061               -8.34989109
               8.42242545                7.30705535               62.65271581                0.95466146               -0.24907382               -0.36334286                1.46257422               -0.03056441                0.09383394                0.78825324
               9.41993471                6.90195935               62.29763101                0.30726068               -0.06611289               -0.11356114                0.15114334                0.10343182                0.67903796               -0.68094850
              10.42110320                6.49778933               61.95409108                0.00010000               -0.06898663                0.18338491               -1.13234828               -1.12156678                5.87072782               -1.96999690
              11.41855498                6.06561422               61.70295798                0.00010000                0.67028057               -1.94280651               -1.26599281               -3.57936865               12.30388797                3.42809151
              12.43450881                5.60515498               61.48620943                0.00010000                2.62295076               -3.29941884               -2.96106612               -5.31087923               16.10884681                4.98020143
              13.47101400                5.10522697               61.30479084                0.00010000                4.74445163               -6.75697534               -4.02191484               -9.64147504               20.09718081                7.55507205
              14.52939784                4.52874975               61.15984319                0.00010000                5.67254727               -8.75353124               -5.03786176              -18.87051696               24.70823174                7.12367380
              15.58446494                3.84311814               61.05960664                0.00010000                4.01345753               -4.17071371               -5.92456953              -27.76967569               28.92714939                3.38080859
              16.60966699                3.06295746               60.98941129                0.00010000                0.29218083                1.88525516               -6.69863158              -35.52742558               30.44671301               -5.43850186
              17.59030856                2.12861259               60.91807908                0.25595340               -0.21784743                9.47082770               -7.30209412              -20.44408465               16.18667346              -18.99731582
              18.60531004                1.57912473               60.53714872                0.98450154                1.50014816                5.71795889               -9.28680404               -3.73727783                1.74973454              -13.51516297
               8.82607710                8.30405954               62.54058073                0.88038152               -0.16114489               -0.25307986                1.20039342               -0.02887476                0.03714490                0.84511939
               9.82446565                7.90097636               62.17784411                0.20630224                0.07257070               -0.07149493               -0.12709958                0.09340343                0.50318997               -0.67473556
              10.82752851                7.49860875               61.82435863                0.00010000                0.68908978               -0.02374829               -1.54758109               -2.13494715                8.59435404               -2.54583011
              11.83824744                7.04724505               61.62295528                0.00010000                1.83104103               -1.65598865               -2.33612689               -4.74192959               17.16882729                0.62500000
              12.86414933                6.56834822               61.43874478                0.00010000                3.54087058               -3.31842509               -3.33270102               -7.38321365               19.46792665                2.71657237
              13.90906485                6.04539384               61.27900101                0.00010000                5.29998550               -5.13207239               -4.53774471              -12.13751921               22.24475382                3.67199357
              14.97014904                5.45982196               61.14270420                0.00010000                6.41935629               -5.76982518               -5.73285867              -18.86492090               24.58523439                3.08733987
              16.03745198                4.80080524               61.02092502                0.00010000                6.50182955               -3.70624143               -7.00154417              -25.53784097               25.33511867               -0.06612642
              17.10018563                4.06944634               60.89148192                0.00010000                4.28717226                0.91705955               -8.24131094              -30.71519235               22.77419588               -6.12428693
              18.12319543                3.26880962               60.70969582                0.00010000                0.15860390               13.71083802               -8.49754905              -21.04311789               12.46182224              -19.21980576
              19.10335771                2.67754546               60.35934283                0.61017334               -1.98377157               13.77871609              -11.33573520              -10.96889977                5.50677341              -15.53236371
               9.22801433                9.30199375               62.42942989                0.85068967               -0.07607614               -0.17183994                0.93691954               -0.03912191                0.01294338                0.95994789
              10.22725357                8.90052946               62.05867501                0.18139707                0.20606137               -0.00147477               -0.41095950               -0.04095195                0.24275127               -0.67763776
              11.23213556                8.49731436               61.69253202                0.00010000                1.33616761               -0.12583234               -1.98134654               -3.06569052               10.28041884               -2.95195926
              12.25397693                8.03249444               61.52247726                0.00010000                2.82800873               -1.25298412               -2.93860836               -6.49182880               20.88340984               -1.26527773
              13.28869574                7.53878648               61.36684279                0.00010000                4.14064717               -2.41333606               -4.11461419               -9.22569329               22.63760888                0.39278046
              14.33678987                7.00258553               61.22837602                0.00010000                5.39961420               -3.35764372               -5.35892675              -13.82126739               24.42909422                1.45060377
              15.39668802                6.41335324               61.10242116                0.00010000                6.36469378               -3.56322343               -6.79512982              -19.58861679               25.42174406                1.33087462
              16.46408374                5.76899331               60.97468129                0.00010000                6.53353737               -2.19725822               -8.52842581              -25.01886721               24.45553019               -0.35099324
              17.52735877                5.08129866               60.81736629                0.00010000                4.86316702                1.88487891              -10.54314129              -26.98314679               20.17625101               -4.45036262
              18.56134708                4.40282935               60.58857233                0.00010000                2.05507971               11.13043563              -13.16242946              -18.47126201               10.99680725              -10.32378699
              19.56846036                3.85469906               60.24953062                0.54886737                0.71132775               14.63296979              -15.52473119               -8.37094430                4.88548793              -11.59044490
               9.62822326               10.30062275               62.31875738                0.84008764                0.01027426               -0.10291952                0.66718165               -0.04730364                0.00245012                1.03416357
              10.62832600                9.90094686               61.93941603                0.19576169                0.30132274                0.09219953               -0.70469278               -0.22002637               -0.09822845               -0.75460589
              11.63424971                9.49609211               61.55816172                0.00010000                1.93063740               -0.00618528               -2.45802428               -3.92304421               11.27733642               -3.55801939
              12.66693875                9.02218536               61.40770981                0.00010000                3.76473355               -1.11597092               -4.01982220               -7.63252496               23.72097429               -3.29975233
              13.70954438                8.52008150               61.27583608                0.00010000                4.55670001               -1.14864495               -5.18707972               -9.94502582               25.75880949               -1.45781440
              14.75807275                7.97824097               61.16251146                0.00010000                5.12122692               -1.54226656               -6.46136589              -14.12291826               27.31112635                0.28589837
              15.81196892                7.38855750               61.05723137                0.00010000                5.55282372               -1.33338336               -8.12087045              -19.34601024               27.78927804                0.93572323
              16.86912922                6.75686008               60.94315895                0.00010000                5.73588670                0.02429625              -10.55910604              -23.59095828               26.13037116                0.84886011
              17.92668665                6.10714392               60.78977205                0.00010000                5.56202818                2.98410020              -14.19401156              -23.43917005               20.82965158                0.22033463
              18.98036979                5.49141833               60.55779669                0.00010000                5.27563801                7.84068055              -18.57599904              -15.01562014               11.24526358               -2.38061464
              20.03219942                4.97020486               60.21048620                0.53347653                5.18296295               10.51536616              -21.68010475               -6.05000022                5.76339084               -5.73449416
              10.02642003               11.29993536               62.20831546                0.84487029                0.09636521               -0.04098601                0.39230138               -0.05792695               -0.02007508                1.09832069
              11.02738368               10.90237345               61.81944436                0.26867249                0.30080716                0.21146503               -1.01461752               -0.35523173               -0.71991586               -0.89510731
              12.03243617               10.49719066               61.41678303                0.00010000                2.49766761                0.36841463               -2.88440994               -4.95435780               11.16810393               -3.94322974
              13.07733704               10.01017502               61.26983240                0.00010000                5.06517205               -0.10071701               -5.46561798               -7.42256410               26.09459386               -7.14745199
              14.13373962                9.51581358               61.16586635                0.00010000                5.42592356                0.13766677               -7.29479250               -8.15090423               29.44434453               -2.08545726
              15.18585551                8.97174019               61.08965243                0.00010000                4.87045451                0.04858357               -7.57782719              -12.36579865               31.20467247                0.01454524
              16.23114871                8.38668557               61.01543763                0.00010000                4.39113231                0.89166733               -9.58920514              -16.72433098               31.81916494                0.94074372
              17.27367815                7.76947923               60.93598173                0.00010000                4.64342051                2.76099575              -13.43664883              -20.54828459               31.31105732                2.62141234
              18.32401712                7.14098066               60.83469966                0.00010000                6.21477973                5.22777162              -19.09924651              -19.84595303               25.59924714                5.63789973
              19.39797375                6.55964296               60.62626505                0.00010000                8.29350963                8.32811419              -27.46467356              -12.48300179               14.29336443               11.48721300
              20.48988731                6.06500638               60.27672787                0.52482472                9.19135606               10.90145418              -32.97963485               -4.73904808                7.94831046                7.50614030
              10.42218855               12.29980302               62.09809051                0.79933945                0.17775163                0.00239786                0.13190262               -0.04774834               -0.05077091                1.05918870
              11.42396607               11.90517616               61.69844773                0.39827605                0.25862108                0.35468526               -1.35821789               -0.31308821               -1.17528752               -0.91260098
              12.42736098               11.50346040               61.27679358                0.01715033                3.79492340                0.72979776               -2.93895175               -4.56775913                8.28545747               -2.59062684
              13.49986454               11.02017102               61.07153512                0.00010000                7.88000759                2.28265711              -17.02186430               -5.24212775               25.25456890               -6.31098524
              14.58496113               10.52283483               61.05111210                0.00010000                7.00101223                0.52887534               -8.10110965               -4.97782363               35.41196964               -1.14264913
              15.63988478                9.97921264               61.01782698                0.00010000                4.73910663                1.11465021               -8.73389653               -7.70725919               35.50474759                0.06616503
              16.67974326                9.40639084               60.97541059                0.00010000                3.19918307                2.73968102              -10.96430655              -10.22328182               37.04015720                0.66415586
              17.70386845                8.81207999               60.94773763                0.00010000                2.99303030                5.37406754              -16.22274167              -13.01583818               39.71564571                2.49852256
              18.73960387                8.21169935               60.92455585                0.00010000                5.14077928                9.91252612              -29.97265135              -12.11358712               42.52290418                6.48282492
              19.80668403                7.65798061               60.93034934                0.00010000                9.35438768               11.72047425              -41.56995235               -7.18561623               29.26115778               15.46693417
              20.92669162                7.18823394               60.60594963                0.45791298               12.00075897               12.67721021              -45.74072848               -2.88361320               18.33763903               10.46887241
              10.81471879               13.29998332               61.98588366                0.89933604                0.27457515                0.01802967               -0.13824540                0.20140666                0.47280557                1.00566686
              11.81746454               12.90946715               61.57960246                0.79486220                0.56836684                0.42909901               -1.62647321               -0.05998818                0.14196971               -0.89696404
              12.82608613               12.51178661               61.16680658                0.56063780                6.78277516                0.83262128               -3.04015091               -2.80943394                7.71429165               -1.46165048
              13.95312005               12.05582817               60.91443933                0.32049203               12.45276985                3.56571434              -18.02025677               -3.94422535               24.82546794               -3.50763978
              15.07514153               11.52639109               60.95366448                0.30738450                9.75171339                0.35562569               -9.48701160               -4.07170864               40.39210113               -0.93311350
              16.14815431               10.99403320               60.94742534                0.31220417                5.93370944                1.48205584               -9.73544821               -3.41864169               39.63069138               -0.08336295
              17.19381572               10.44147919               60.93197212                0.32776722                2.99492816                3.50883529              -12.20610664               -4.44638523               42.19018120                0.32408481
              18.20805288                9.87696059               60.94345803                0.35493167                2.10145188                6.48805914              -17.89251184               -4.69395738               46.70247745                1.54971649
              19.23584475                9.33923118               60.97728719                0.45318146                3.48369797               12.75318285              -35.67254892               -4.52131835               53.32759181                4.69577964
              20.27772684                8.79405245               61.09309219                0.42362572                6.79318212               13.60718322              -41.48090025               -3.92974932               36.82203208               14.65128471
              21.37170840                8.31855058               60.74864990                0.68461455                9.39815577               13.03166434              -44.32830371               -3.04850898               21.44887957                8.31755748
               7.11642525                3.45030565               64.11705775                1.00000000               -0.56494438               -0.71233833                2.47636674               -0.23342144               -0.54512725                0.64169231
               8.11077581                3.02561870               63.76648675                1.00000000               -0.39387748               -0.33792558                1.26526244               -0.18225497               -0.67686099                0.09498696
               9.10854770                2.60026422               63.41270921                1.00000000               -0.05493674                0.02431145                0.06640439               -0.18000269               -0.65506996               -0.10180127
              10.10967707                2.17355418               63.06235372                0.54680265                0.19170735                0.42915616               -1.15955371               -0.30115230               -0.16910046               -0.56119788
              11.11238185                1.74335693               62.71843788                0.50434645                0.47870860                0.90394388               -2.55309896               -0.32836828                0.43489812               -0.17351615
              12.11925124                1.31023145               62.38035544                0.38972829                0.79298992                1.32014023               -3.95246077               -0.46513891                0.90589327               -0.53925733
              13.12824165                0.87119825               62.04692265                0.00010000              -15.30230621                1.75511832               -5.17545816              -25.96469578               13.77174706               -0.98568175
              13.81320512               -0.08152770               61.96925371                0.00010000              -20.09978546                7.10715905               -3.75550577              -24.66893061               20.43956612                4.41682558
              14.72624594               -1.01148123               61.72221335                0.00010000                3.14934507                3.10818260               -4.81199732              -19.47749945                3.51837272               17.68271559
              15.87619202               -1.92630755               61.27589916                1.00000000                8.36839002                1.87492156               -5.60094663              -20.06942116               -3.21980678                0.69837092
              16.89361374               -2.45057756               60.89208231                1.00000000                1.74217165                2.28793841               -6.92365098                0.12606486               -1.03948820                0.03624945
               7.53877799                4.44318227               64.00272899                1.00000000               -0.48040167               -0.66507240                2.20906985               -0.04562984               -0.01824174                0.89525607
               8.53397397                4.02223944               63.65200253                1.00000000               -0.29990272               -0.30146748                0.99607021               -0.00053600                0.01948112                0.14756224
               9.53277993                3.60050733               63.30154757                1.00000000                0.05726117                0.05947701               -0.20149347                0.01170474                0.07385168               -0.26767150
              10.53511919                3.17784574               62.95178835                0.44600628                0.39897971                0.46051934               -1.42544569               -0.07033764                0.82905453               -0.64622895
              11.54075953                2.75239637               62.61671975                0.56834506                0.77799981                0.88807634               -2.87458472               -0.09036385                1.45539225               -0.26741743
              12.55067919                2.32343285               62.28001426                0.50535390                1.18573674                1.31489368               -4.29816520               -0.24800856                1.55473444               -0.64185682
              13.56447426                1.88874944               61.94807923                0.03193629               -2.14118180                1.59672649               -5.59228904              -23.30085279               16.58243834               -0.96322949
              14.50785555                0.98954389               61.91376090                0.00010000               -5.53066978                2.31975339               -5.44044726              -33.12173733               28.96414210                8.21332824
              15.45386087                0.01960060               61.79261958                0.00010000               -5.64047913                4.02321824               -5.78101344              -31.30880055                2.35629307               19.80754524
              16.39504597               -0.90755833               61.17825362                1.00000000               -1.73582361                5.70420192               -7.86562095              -18.94598152              -10.61220014               56.98030812
              17.41914439               -1.42769817               60.79429395                1.00000000                2.40984224                5.88598755               -9.18128718                0.70765940               -0.55496091               55.51180515
               7.95739830                5.43700420               63.89270355                1.00000000               -0.39582850               -0.56065932                1.93310928               -0.05332887                0.17502600                1.07196215
               8.95344002                5.01958935               63.53826674                1.00000000               -0.21114024               -0.22774956                0.71740868               -0.01200229                0.36313709                0.06582640
               9.95317550                4.60145376               63.18721314                0.56960534                0.14706345                0.14653554               -0.48596244                0.00536801                0.73360201               -0.63133909
              10.95638129                4.18276456               62.84014840                0.00010000                0.59059789                0.55545974               -1.63440860               -0.13268022                1.97912584               -0.82800035
              11.96498745                3.76111845               62.51435589                0.04857826                1.07783573               -1.15822613               -3.16651826               -0.95038734                2.54462665                3.55346436
              12.97793800                3.33652932               62.17923019                0.07653498                1.55630476               -2.74048564               -4.54415917               -1.08293686                2.37393067                7.57944546
              13.99611355                2.90313278               61.85120926                0.00010000                2.09906061               -8.88017206               -5.79316844              -24.05018617               24.15000782               15.24434804
              15.01991921                1.96486737               61.95229893                0.00010000                0.05292997               -2.13131819               -5.73082391              -41.84923677               40.58688352               11.95532400
              15.99717215                1.06898313               61.91344670                0.00010000               -3.76740273                4.03207633               -5.85465006              -37.17056913               53.11299981               19.94560251
              16.94457116                0.18777649               62.22805324                1.00000000               -2.45627721                5.41295779               -1.68748862              -16.99258223               35.68939431               59.86905825
              17.94804661               -0.33285781               61.83221498                1.00000000                0.34754473                5.30548585               -1.48305512                0.84892195                0.19784430               59.06237840
               8.37254112                6.43196908               63.78110756                1.00000000               -0.32567512               -0.44279552                1.65582844               -0.04875092                0.29732534                0.91338046
               9.36928437                6.01768445               63.42190317                0.58346174               -0.14145202               -0.16357359                0.44032122                0.03078333                0.62454593               -0.37898326
              10.36971208                5.60343804               63.06900696                0.00010000                0.17582647                0.22038202               -0.80781001                0.08939832                1.45772878               -1.23074774
              11.37280090                5.18895493               62.72659615                0.00010000               -0.08625287               -0.86602629               -1.87799177               -2.33455878                7.22921342                2.75929969
              12.36798702                4.72923184               62.49029427                0.00010000                0.71026141               -3.13324681               -2.87094645               -4.18486774               12.31394379                6.85629764
              13.38700612                4.26862314               62.24512747                0.00010000                4.35727369               -7.36834968               -4.00087772               -7.72695826               16.13757472               13.38255985
              14.45513249                3.71114600               62.07895531                0.00010000                5.90071719              -15.12045465               -4.83207887              -20.65809993               24.62349502               21.13841325
              15.50502047                2.94691753               61.98997844                0.00010000                1.62039348               -3.04071503               -5.52668371              -33.34657536               34.64969660               10.02080720
              16.48754036                2.10024212               62.00940943                0.00010000               -2.39926001                2.42452654               -5.34266542              -37.62913309               43.54062664                9.58173973
              17.45703527                1.20070082               62.07532338                1.00000000               -0.50744684                1.61672064               -6.78378228              -19.01346857               23.95505665               -4.25461157
              18.47739143                0.67841154               61.67832912                1.00000000                2.03561587                1.19045888               -6.49438444                0.28261386               -0.24476547               -4.05669203
               8.78499254                7.42814829               63.66700835                0.93944341               -0.24058246               -0.31593111                1.38838870               -0.01830302                0.08629247                0.80420747
               9.78258672                7.01631788               63.29914685                0.29513411               -0.06497812               -0.12915766                0.15518414                0.13432560                0.67943037               -0.69127600
              10.78369298                6.60586140               62.94296433                0.00010000                0.06547970                0.08387838               -1.08781775               -1.15085462                6.26719354               -2.06915553
              11.78389631                6.16544404               62.68691064                0.00010000                0.89644563               -2.07959469               -1.78450791               -3.54243426               12.75315815                3.93161042
              12.80162189                5.69845352               62.45660114                0.00010000                2.87941855               -3.43994994               -3.01935573               -5.32812714               16.12087608                5.41984234
              13.84148468                5.18916233               62.26440085                0.00010000                5.15176352               -7.05546030               -4.10589718               -9.93387672               20.19107510                8.34028478
              14.90465716                4.60072369               62.10963472                0.00010000                6.12034478               -9.05820413               -5.04641181              -19.46061479               24.79453969                8.40453253
              15.96389158                3.90405307               62.00181443                0.00010000                4.30745147               -4.46102436               -5.64902200              -28.33841223               29.10658731                5.63046152
              16.99080619                3.11747366               61.92690246                0.00010000                1.11203930                0.89173505               -5.75175464              -34.27675419               31.02315949               -2.01902105
              17.98613236                2.22011090               61.85222212                0.35518744                0.37356244                3.47709949               -5.10118356              -18.38927193               16.36485246               -9.41336198
              18.99827744                1.69095137               61.46417985                1.00000000                1.21450767                1.78503299               -5.41411288               -0.92339731                0.24934541               -6.80864312
               9.19583589                8.42565046               63.55229792                0.87219639               -0.15781185               -0.20522561                1.13367061               -0.02042098                0.03333256                0.87289446
              10.19425777                8.01510130               63.17669021                0.20955045                0.08664676               -0.09664518               -0.09876310                0.08921730                0.43395021               -0.66851580
              11.19756882                7.60511561               62.80903215                0.00010000                0.75511622               -0.18137650               -1.48787099               -2.09095972                8.75037551               -2.71435481
              12.20936009                7.14736304               62.59944482                0.00010000                2.00686806               -1.68239194               -2.37445222               -4.80968422               17.49773830                0.68534884
              13.23770618                6.66043284               62.40485185                0.00010000                3.83491620               -3.39314469               -3.49025483               -7.62389430               19.59010203                3.14541747
              14.28605842                6.12751393               62.23321281                0.00010000                5.66616378               -5.24435828               -4.67356144              -12.57420160               22.22463811                4.43171589
              15.35102946                5.52998191               62.08551870                0.00010000                6.77219156               -5.95971128               -5.74532257              -19.46484822               24.49223484                4.32800197
              16.42150225                4.85769704               61.95281521                0.00010000                6.74589929               -4.13939952               -6.59520672              -25.87898543               25.17007185                1.79840696
              17.48594744                4.11807682               61.81417907                0.00010000                4.71349370               -0.44583103               -6.99037429              -32.43805369               22.83779795               -3.42987548
              18.51577212                3.27024281               61.63805246                0.00010000                1.56475493                9.06203301               -5.35737708              -21.41778281               11.35095831              -13.45637979
              19.51724254                2.71411220               61.26469052                0.67945524                0.14704212                7.36973607               -6.84473156               -7.35056843                2.77063679               -8.83508396
               9.60568244                9.42404378               63.43854436                0.84766726               -0.07765353               -0.12725616                0.87251936               -0.03117263                0.01158818                0.98829386
              10.60490591                9.01438497               63.05479932                0.20053044                0.19647997               -0.03222223               -0.35509063               -0.07516619                0.10930657               -0.66971236
              11.60961204                8.60223387               62.67305476                0.00010000                1.37397435               -0.24310021               -1.82698389               -3.04141658               10.27475641               -3.03889982
              12.63238540                8.13179620               62.49353918                0.00010000                2.96905342               -1.40201241               -2.95869833               -6.48269335               20.98955149               -1.33268905
              13.66899311                7.63059062               62.32498472                0.00010000                4.40330935               -2.29529247               -4.27494928               -9.42633185               22.59663825                0.74393187
              14.72045158                7.08427516               62.17397820                0.00010000                5.80919899               -3.34274126               -5.58624474              -14.32839604               24.35129340                2.23053516
              15.78517709                6.48152946               62.03422545                0.00010000                6.88826886               -3.77302957               -6.86874085              -20.22861921               25.23407338                2.55723260
              16.85821696                5.82126508               61.89108296                0.00010000                7.21611276               -2.77974244               -8.15403304              -25.92772336               24.13245630                1.24598406
              17.92949935                5.10855704               61.71874132                0.00010000                5.17621840                0.18768028               -9.11248099              -28.37823779               19.41328120               -2.47240587
              18.96174133                4.40135156               61.46704050                0.00010000                1.70139724                9.91503113              -10.09126621              -19.68980237               10.69594488              -11.36969883
              19.96352729                3.83834609               61.10413249                0.58252456                0.17859638               10.30422990              -12.25550614               -9.84995022                5.04059507              -11.54313675
              10.01453005               10.42310533               63.32518597                0.83874617                0.00343054               -0.05819704                0.60152398               -0.03746240                0.00445539                1.06065068
              11.01456435               10.01445685               62.93274511                0.23662214                0.23996080                0.04789064               -0.61278791               -0.23502990               -0.28444644               -0.74530382
              12.01932926                9.60025361               62.53469526                0.00010000                1.83925597               -0.07233856               -2.06746258               -3.94941387               10.70775254               -3.39095445
              13.05134947                9.11932279               62.36479148                0.00010000                3.86856583               -0.46456399               -3.95689394               -7.23375505               23.42094560               -3.51896402
              14.09670058                8.61452699               62.22262300                0.00010000                4.86010914               -0.57570577               -5.68934487              -10.16334078               25.75774895               -1.57992619
              15.14855165                8.06065911               62.09640855                0.00010000                5.63832905               -1.47426467               -6.75576080              -14.97077084               27.25845271                1.11331672
              16.20946716                7.45452132               61.97498465                0.00010000                6.36842729               -1.59289150               -8.35879463              -20.22083072               27.53256862                2.06078881
              17.27592020                6.80210219               61.83763243                0.00010000                6.44145214               -0.61393846              -10.39619006              -24.78496123               25.47136970                1.92396103
              18.33829620                6.12183043               61.65342296                0.00010000                5.81334125                2.18091506              -12.74838371              -25.44246807               19.79431816               -0.34843315
              19.39218703                5.46854344               61.38413060                0.00010000                5.39791379                5.62949000              -16.00505371              -16.63268233               10.17599894               -5.09538817
              20.44625448                4.92019680               61.00718642                0.56259627                5.40674541                6.26896050              -18.71366323               -6.68050900                4.49040208               -8.77891722
              10.42223016               11.42287984               63.21197840                0.84387129                0.08268767                0.01013586                0.32116418               -0.04024592               -0.01927540                1.12818526
              11.42305704               11.01534278               62.80986482                0.34894419                0.17638337                0.14154861               -0.87129031               -0.32033399               -0.83292105               -0.89170382
              12.42575783               10.60078710               62.39183196                0.00010000                2.51899357                0.21539856               -1.97517211               -4.01118121               10.30701539               -3.31814271
              13.47343691               10.12250492               62.21569516                0.00010000                4.93160756                2.18922356               -9.22406949               -9.51004981               24.40988481              -13.26696044
              14.52438998                9.61907651               62.08806199                0.00010000                5.38024658                0.60692999               -7.23856673              -10.33225809               29.43059610               -1.56689606
              15.58104184                9.05478987               62.01220439                0.00010000                5.74637077               -0.02896732               -8.09353200              -13.87167855               31.61129187                0.71534792
              16.63931739                8.44967163               61.91656006                0.00010000                5.70833945                0.54808916              -10.14579264              -17.65100609               31.17361680                1.90423221
              17.69520863                7.80898631               61.80055496                0.00010000                5.74456741                2.11375919              -13.44471469              -21.16912393               29.39100688                2.60371491
              18.75420874                7.15217535               61.63411637                0.00010000                6.77563400                4.74918898              -18.92061197              -21.96719551               22.84624524                2.70440543
              19.83072131                6.51394136               61.36499747                0.00010000                8.62008189                6.77653136              -25.26685136              -14.68309371               11.62030272                1.26916962
              20.92661038                5.96372530               60.97233747                0.55941809                9.58890716                6.67129813              -29.31945133               -4.80419778                5.82638299               -4.15597741
              10.82879923               12.42330805               63.09908621                0.79493117                0.14511767                0.05898092                0.03420939               -0.02527375               -0.09444056                1.07839204
              11.83025041               12.01728782               62.68568704                0.53651699                0.15721348                0.25075094               -1.11839936               -0.26388496               -0.98449824               -0.87260113
              12.83194350               11.60456158               62.25506395                0.16479122                0.63043274                0.40342336               -1.59391687               -1.80367892               -0.19004342               -2.00890870
              13.84285907               11.16310726               61.85927077                0.00010000                6.29134806                2.59607516              -12.75793740               -9.09468331               23.44925718              -11.27904210
              14.95777047               10.62666559               61.97381449                0.00010000                9.88319457               -0.07481988               -8.76541670               -8.88040827               41.35039748               -0.66227094
              16.04052296               10.06007976               61.92574604                0.00010000                7.22400680                0.69520010               -9.50542920               -9.03688002               35.18639909                0.51537596
              17.10225060                9.46548310               61.86109310                0.00010000                5.47555265                2.23794389              -11.98854316              -10.94358492               35.82120099                1.35881780
              18.15003401                8.84437738               61.77531804                0.00010000                4.58733189                4.81962232              -17.05871050              -12.96343950               35.37401189                2.01591447
              19.19399724                8.21681421               61.64786085                0.00010000                6.84705917                8.13543457              -26.15830132              -14.05200358               31.17446319                2.90151227
              20.28697519                7.60407406               61.44131460                0.00010000               12.83027031               12.82546229              -46.52221822               -9.65230484               19.09288910                4.12193705
              21.45060265                7.05362276               61.03852231                0.51903801               16.36274515               13.87911967              -54.16056893               -2.01925596                9.93133364               -2.08254674
              11.23376514               13.42405946               62.98398858                0.89609310                0.27606704                0.07514050               -0.28248432                0.12642509                0.48637753                1.01463002
              12.23652581               13.02035780               62.56460851                0.88545247                0.50498360                0.30699792               -1.28785667               -0.13265477                0.34255492               -0.83450788
              13.24386481               12.60885557               62.14240475                0.65923996                1.64567086                0.42939866               -1.95629265               -1.10443844                0.27860259               -1.10402853
              14.26943923               12.17442642               61.72586741                0.32389960               10.29722509                1.13191602              -10.74807995               -6.90575681               21.98066922               -1.74937253
              15.44980931               11.61758011               61.85787797                0.30753019               14.60237515               -0.90854842              -10.09075093               -6.08274276               44.34273292               -2.02927247
              16.56148673               11.06869387               61.84482293                0.31195756                9.31693846                0.86141113              -10.78018758               -4.06110282               39.24366313               -0.00755669
              17.63614808               10.49443051               61.80324904                0.32678606                6.15610028                2.89474075              -13.71374841               -4.77600788               40.40726715                0.41579458
              18.68460873                9.90537876               61.74677746                0.35263665                3.86619508                6.10013798              -19.68416954               -5.51985139               41.90880131                0.80440942
              19.71347198                9.31488404               61.66047071                0.42116867                5.81289604                9.80698289              -30.54229365               -4.79893294               40.04342285                0.09066508
              20.80086666                8.77045061               61.52557770                0.45483640               13.68279373               16.63765465              -56.55889566               -2.28967095               27.90279547                3.84618718
              21.98712786                8.24130770               61.13096066                0.73468600               18.62612027               18.76849320              -63.75117158                0.73822990               18.35502361               -1.92390446
               7.46771477                3.57233350               65.14118435                1.00000000               -0.53521968               -0.67189688                2.34269990               -0.22104515               -0.52434670                0.62931784
               8.46236257                3.14237907               64.77884837                1.00000000               -0.37382204               -0.32228698                1.20552130               -0.17345809               -0.64772788                0.09048089
               9.46023833                2.71177905               64.41343192                0.97579264               -0.05444367                0.01611834                0.08144507               -0.17031240               -0.63397664               -0.09569626
              10.46127370                2.27992222               64.05117642                0.54213325                0.18017119                0.39510506               -1.06796141               -0.28184900               -0.24472662               -0.54375649
              11.46384175                1.84481023               63.69377264                0.47956326                0.44270379                0.83778578               -2.36604784               -0.31753844                0.26666635               -0.19944445
              12.47012777                1.40673361               63.34208591                0.34107368                0.68063513                1.23222477               -3.68077659               -0.51063731                0.81010731               -0.56956175
              13.47745445                0.96178527               62.99677417                0.00010000              -14.09071817                1.67456277               -4.82906186              -24.69322813               14.65762605               -1.08614938
              14.18831341                0.02916327               62.92558465                0.00010000              -18.16152226                6.15443153               -4.73483546              -23.42818705               21.90976571                4.78469798
              15.11422401               -0.89265150               62.67629256                0.00010000                3.89112689                3.01636620               -4.67061389              -18.45198690                4.46151644               18.64843676
              16.26613595               -1.81330472               62.23442093                1.00000000                8.07820877                1.01311800               -3.28369879              -19.87782019               -2.45996269                0.35470373
              17.27578818               -2.34179141               61.84070122                1.00000000                0.96522357                1.24126610               -4.06676137                0.03932990               -0.55713063                0.02279344
               7.89545874                4.56561453               65.02424182                1.00000000               -0.45535278               -0.62387003                2.08794541               -0.04607155               -0.00681364                0.88194623
               8.89090522                4.13915620               64.66173183                1.00000000               -0.28475584               -0.28740795                0.94910533               -0.00437251                0.04009625                0.13914864
               9.88976363                3.71194023               64.29964434                1.00000000                0.05171991                0.04898828               -0.17528886                0.00857890                0.08792188               -0.27158707
              10.89193962                3.28387327               63.93800278                0.44652549                0.37485226                0.42578829               -1.32298044               -0.06625121                0.71883485               -0.60651219
              11.89726067                2.85318809               63.58890032                0.53226456                0.72971327                0.82248750               -2.67531483               -0.08729970                1.23790600               -0.28500416
              12.90653388                2.41905586               63.23836667                0.43494578                1.10233354                1.22302452               -4.00954504               -0.27975863                1.38986120               -0.63499512
              13.91930734                1.97853090               62.89372307                0.00010000               -1.26419768                1.49629503               -5.24641210              -22.44527551               17.10464700               -0.95427979
              14.88124993                1.09070758               62.85974378                0.00010000               -3.41846068                1.44805705               -5.45318632              -31.51209716               29.96871850                9.05558392
              15.85093813                0.13751216               62.73986142                0.00010000               -4.46611130                3.47410696               -5.16034267              -30.71526375                2.92523488               21.57415104
              16.79192770               -0.80317354               62.12191928                1.00000000               -2.31349763                8.75230490               -4.40711109              -19.55276192              -10.77399535               59.85992490
              17.80466818               -1.32937875               61.72811834                1.00000000                1.27404769                9.23457232               -5.18591001                0.89163163               -0.29251441               59.47515606
               8.31971000                5.55985610               64.91151197                1.00000000               -0.37605732               -0.51626599                1.82307679               -0.05287182                0.18036835                1.05632300
               9.31594942                5.13663091               64.54526778                1.00000000               -0.20085805               -0.21842024                0.68311054               -0.01399982                0.37558005                0.05491999
              10.31569283                4.71275881               64.18251634                0.52137223                0.13756958                0.13173397               -0.44771579                0.00598719                0.77665985               -0.66573578
              11.31870081                4.28843799               63.82430095                0.00010000                0.56101694                0.53258285               -1.52727134               -0.14705069                1.86309552               -0.78188201
              12.32691317                3.86125998               63.48371435                0.02057697                1.02444887               -1.19853927               -2.94908359               -0.83886674                2.30339661                3.77657981
              13.33918979                3.43119410               63.13522403                0.03656406                1.49920230               -2.80209862               -4.23967576               -0.82515620                2.24406435                7.94306535
              14.35689722                2.99171117               62.79496335                0.00010000                2.99502080               -8.96477506               -5.43032684              -22.96537783               24.66835643               15.85517695
              15.39909021                2.05812441               62.89622210                0.00010000                1.84513157               -2.77937087               -5.66365475              -40.32687172               41.36100976               13.82856779
              16.39379985                1.17683064               62.85949766                0.00010000               -2.85592935                3.62040558               -5.23742930              -33.28124817               55.37084642               22.66926530
              17.34197162                0.36174138               63.21055572                1.00000000               -2.38843032                8.66527435               -1.85769723              -13.37162375               37.48187989               63.42306624
              18.34603124               -0.15709996               62.81797855                1.00000000                0.40596243                8.97331596               -1.52510945                1.29349419                0.37434744               63.72865853
               8.74085168                6.55528921               64.79720201                1.00000000               -0.31291743               -0.39534805                1.55744162               -0.04192639                0.30350553                0.90323545
               9.73772251                6.13478780               64.42621340                0.55949513               -0.13876927               -0.16420609                0.42269490                0.04518089                0.61229672               -0.38947949
              10.73807630                5.71457491               64.06111939                0.00010000                0.13874620                0.18111080               -0.75971366                0.13637882                1.51722536               -1.26784232
              11.74049743                5.29452493               63.70838378                0.00010000               -0.01745347               -0.85201153               -1.75683968               -2.20385391                7.35176354                2.83603938
              12.73772723                4.82921730               63.46142802                0.00010000                0.95410670               -3.11328657               -2.90512769               -3.94940509               12.32565570                7.32190184
              13.75957957                4.36301388               63.20506960                0.00010000                4.76711266               -7.36233820               -4.03544152               -7.36848888               16.14685135               14.09425703
              14.83306948                3.79923540               63.03047638                0.00010000                6.50067312              -15.07170828               -4.92825389              -19.84579412               24.56870221               22.51935572
              15.88959303                3.03512016               62.93557895                0.00010000                2.43133558               -3.26169062               -5.46117563              -31.95381945               34.97865871               12.32660194
              16.88169619                2.20992027               62.95894531                0.00010000               -1.55836001                2.04883836               -4.86157226              -33.95327882               43.71337082               13.00804164
              17.85842583                1.37013195               63.02429601                0.80291202               -0.67377185                0.79374425               -3.70193902              -16.07380487               23.41497092               -1.80866795
              18.86822075                0.85008757               62.63180229                1.00000000                0.97949268                0.68452188               -3.27395104                0.01307474               -0.30997852               -1.24571967
               9.15987430                7.55194914               64.68048359                0.92512350               -0.23069543               -0.26538953                1.29986509               -0.00486008                0.07971772                0.80385933
              10.15756734                7.13334679               64.30073469                0.29103082               -0.05955088               -0.14171119                0.16498434                0.15599043                0.65769238               -0.68598251
              11.15868328                6.71638103               63.93233472                0.00010000                0.12069995               -0.01718391               -1.02278214               -1.01219602                6.39267328               -2.14857295
              12.15998134                6.27139776               63.66726782                0.00010000                1.03764195               -2.01007197               -2.01963074               -3.27508494               12.80632969                4.15421527
              13.17943612                5.79899425               63.42582231                0.00010000                3.09102893               -3.31721579               -3.16758108               -5.14971322               15.98581817                5.75044733
              14.22180192                5.28394734               63.22267290                0.00010000                5.42194702               -6.92815362               -4.28345747               -9.77030222               20.02731865                8.97862483
              15.28787506                4.69027701               63.05891495                0.00010000                6.37635129               -8.87220663               -5.16278794              -19.18674447               24.74291085                9.57889397
              16.34932894                3.99289060               62.94662620                0.00010000                4.59237148               -4.38076546               -5.48261101              -27.49347904               29.44293546                7.74131131
              17.37972249                3.21780741               62.87437620                0.00010000                1.54996401               -0.04551460               -4.83816934              -31.26330872               32.37727642                1.40507725
              18.38032822                2.37761627               62.81605541                0.37833064                0.33295078                0.73658459               -2.60405786              -15.99698095               16.86113072               -4.04693502
              19.38638150                1.85659047               62.42886647                1.00000000                0.60532775                0.54017838               -2.49351878               -0.23890067               -0.01888262               -2.79744060
               9.57795917                8.54998142               64.56325414                0.86511195               -0.15487491               -0.15387763                1.04865312               -0.00969029                0.03021041                0.87153050
              10.57641043                8.13195357               64.17586885                0.22356426                0.09111172               -0.11332427               -0.06219791                0.08058897                0.33946117               -0.63965140
              11.57978141                7.71423123               63.79460121                0.00010000                0.79860422               -0.27538852               -1.34905017               -1.87112620                8.73978291               -2.74450350
              12.59238251                7.25432349               63.57546623                0.00010000                2.12009875               -1.54518762               -2.43656519               -4.47507927               17.49819629                0.79960338
              13.62218338                6.76287299               63.36893969                0.00010000                4.02541271               -3.15501426               -3.70305642               -7.45596607               19.35280386                3.46035739
              14.67289076                6.22445081               63.18552978                0.00010000                5.91039737               -4.99734244               -4.90767733              -12.41543210               21.93601819                5.02935252
              15.74039133                5.62179127               63.02779775                0.00010000                6.96511427               -5.76225339               -5.85342705              -19.02781405               24.33030640                5.43416530
              16.81219305                4.94750486               62.88902088                0.00010000                6.56565065               -4.18974101               -6.24151372              -24.99466105               25.37132776                3.60981190
              17.87170434                4.20900998               62.75167443                0.00010000                4.37550453               -1.26003814               -5.52836537              -30.13484248               24.34352026               -0.87351921
              18.89970314                3.38486364               62.60254828                0.11266169                1.68949921                2.58704840               -2.51232330              -16.92861296               11.93756373               -6.98180664
              19.90549433                2.86089114               62.22244820                0.78889965                0.57911885                1.23749717               -2.94592308               -1.96191129                0.54500124               -4.73398995
               9.99573618                9.54887159               64.44688028                0.84590448               -0.08068744               -0.07898473                0.78401679               -0.01738277                0.01265192                0.97445596
              10.99492931                9.13108031               64.05157319                0.23282757                0.15773261               -0.04891436               -0.28516097               -0.06404852               -0.00382743               -0.62467431
              11.99889084                8.71087326               63.65599234                0.00010000                1.34543437               -0.23677089               -1.51294862               -2.70046561               10.04269815               -2.80007421
              13.02183800                8.24049401               63.46330329                0.00010000                3.06493187               -1.23366943               -3.02415319               -5.99659435               20.66184903               -1.09351338
              14.06018947                7.73589397               63.28134381                0.00010000                4.63685011               -1.87336449               -4.50737833               -9.27973060               22.15229559                0.76336874
              15.11457500                7.18400049               63.11665113                0.00010000                6.20376298               -3.10848501               -5.87713506              -14.14363198               23.89947482                2.81415448
              16.18426473                6.57503194               62.96504634                0.00010000                7.38210052               -3.71763025               -7.00464296              -19.69498156               24.89146619                3.54780868
              17.26221701                5.90909577               62.81160063                0.00010000                7.77010576               -3.08187781               -7.75699449              -24.72500203               24.06246910                2.72989464
              18.33966685                5.19260664               62.63511667                0.00010000                6.38288994               -1.21048886               -7.70545209              -28.76840172               19.54476020               -0.17086269
              19.38987481                4.42935724               62.38674701                0.00010000                2.77107198                5.33449771               -5.27687449              -19.04215299               10.08442850              -10.51947858
              20.39508829                3.88134042               62.00442050                0.67132243                0.52134797                3.27651968               -6.21029748               -6.28160773                3.54649860               -9.25136613
              10.41319408               10.54840173               64.33078786                0.83941548               -0.00662972               -0.01363763                0.50588060               -0.01636927                0.01108937                1.03091371
              11.41312778               10.13097529               63.92716027                0.29416978                0.15821587                0.02585669               -0.49554166               -0.14817633               -0.33508413               -0.67130693
              12.41635840                9.70949581               63.51681246                0.00010000                1.71510665               -0.02070730               -1.48147860               -3.37349374               10.31323990               -2.74683758
              13.44742992                9.22965010               63.32857193                0.00010000                3.83619465                0.49312574               -3.98856115               -6.83117039               22.40333941               -6.97047237
              14.49308229                8.72540570               63.16204918                0.00010000                5.17251174               -0.13048943               -6.06487114              -10.08580821               24.89844505               -1.34767996
              15.55088015                8.16228111               63.02739625                0.00010000                6.41570613               -1.36454128               -7.05301657              -15.14793826               26.92169598                1.49628834
              16.62139641                7.54743866               62.89005548                0.00010000                7.46190782               -1.81850853               -8.59615999              -19.72040349               26.87810770                2.83033815
              17.70011831                6.88586730               62.73523515                0.00010000                7.73392183               -1.26139256              -10.06597255              -24.04567415               24.93418501                2.88831181
              18.77607485                6.18480020               62.53480438                0.00010000                6.50039996                0.40121210              -10.95233316              -25.87405206               19.24819684                0.40670009
              19.83012631                5.49155360               62.23769562                0.00010000                4.99104809                4.92425580              -12.08723550              -17.80473888               10.25700934               -8.74870089
              20.87589581                4.92642153               61.83621293                0.63173167                4.57695053                3.46052616              -12.94633250               -6.68087248                2.70668451               -9.90588871
              10.83026168               11.54859883               64.21473874                0.84404632                0.06100168                0.04794780                0.21830405               -0.00493974               -0.01564609                1.06444931
              11.83087170               11.13159744               63.80201855                0.44556295                0.12422334                0.10025809               -0.68265978               -0.14845695               -0.63556105               -0.75105502
              12.83274615               10.71045911               63.37727958                0.05340796                1.92165042                0.16068138               -1.12973376               -2.38114695                5.35685781               -2.34673858
              13.86930470               10.25035652               63.08535101                0.00010000                4.65480772                2.73839118              -11.60970232               -8.72528526               21.54430490              -12.40206879
              14.92584230                9.73328418               63.02109501                0.00010000                6.01392841                0.71838695               -6.64712558              -12.06176686               32.28494924               -2.64243958
              15.98958327                9.15670966               62.92778179                0.00010000                7.02140885               -0.26897431               -8.55290740              -14.45842040               30.88766416                0.89109263
              17.06627048                8.53866177               62.81252178                0.00010000                7.71793567               -0.02802194              -10.55027120              -17.38214342               30.01252373                2.35626813
              18.14394198                7.88386792               62.66708744                0.00010000                7.51145159                1.01542434              -13.14416973              -20.67841259               27.38117338                2.77893985
              19.21649951                7.20063088               62.45628742                0.00010000                7.41083589                2.92875266              -16.10038070              -21.75019261               20.16158782                0.99920500
              20.29215870                6.52784235               62.12092802                0.00010000                8.76177316                4.41427638              -21.70344849              -14.11629509               10.53468051               -9.08118522
              21.39173497                5.95055094               61.69033884                0.61754239                9.95762687                3.07691395              -22.42459775               -4.97878802                1.51160056              -12.03716766
              11.24709807               12.54936068               64.09877470                0.79139311                0.12002919                0.09361697               -0.10130204                0.00921693               -0.09470524                0.94845407
              12.24829836               12.13298045               63.67607974                0.67824490                0.14391526                0.16683092               -0.78760438               -0.08117308               -0.53433502               -0.63292983
              13.24997638               11.71270944               63.24491524                0.31263894                0.09003907                0.22826649               -0.77655373               -0.54546943               -0.83168766               -1.33280245
              14.25009915               11.28441793               62.81637637                0.00010000                4.77587171                1.86454591               -2.51213748               -8.24902475               23.21139417               -7.46796569
              15.34549381               10.73977344               62.87580377                0.00010000               10.31175024               -0.78027505               -8.76790630              -10.51589651               40.96730043               -2.08330231
              16.45633415               10.15690163               62.82771840                0.00010000               10.05507354               -0.04906863              -10.04336153               -9.74109903               35.13281532                0.50986299
              17.54659528                9.54687822               62.73563973                0.00010000                8.41233949                1.34107207              -12.73495749              -10.84948940               33.67111873                1.52460441
              18.62458094                8.90617579               62.60656342                0.00010000                7.52506434                3.31310064              -16.62839453              -12.92188599               31.03726361                1.96186216
              19.69709657                8.24337526               62.40138982                0.00010000                8.66497042                5.75969321              -22.56612947              -14.24616016               20.67125321                0.39442504
              20.79788035                7.57983913               61.99990498                0.00010000               11.69031522                8.73038181              -36.10105253               -9.11406765                8.53794025               -8.83703339
              21.93090287                6.98795981               61.52273825                0.57158185               13.30225252                7.23224231              -36.28802373               -2.37253291               -2.74763976              -11.53454520
              11.66320648               13.55047117               63.98023398                0.89343209                0.26929891                0.11104905               -0.43147830                0.05712985                0.48162489                0.83366160
              12.66589947               13.13493406               63.55384532                0.96504119                0.35963968                0.19536099               -0.89186787               -0.01222548                0.45975895               -0.52449924
              13.67039928               12.71502444               63.12768073                0.74458150                0.56803686                0.23150008               -1.17885909               -0.32204082                0.12866134               -0.71246657
              14.67726021               12.28764744               62.69947773                0.31808290                8.63206953                0.32295125               -1.75031482               -7.15118166               22.96368038               -0.37063574
              15.84304067               11.71767868               62.75184946                0.30751219               15.51981476               -2.20947620               -9.19178052               -6.84127167               42.72795556               -2.05735278
              16.98765651               11.15572829               62.73182159                0.31170019               12.84829297               -0.11733369              -11.57622397               -4.47753760               38.42792144               -0.17992476
              18.10000653               10.56548321               62.65769715                0.32591873               10.06753624                1.86049881              -14.86729041               -4.93879297               37.29775882                0.34109847
              19.18900723                9.95012994               62.54977464                0.35042322                7.89532183                4.39541507              -19.84564468               -6.04029394               35.86583335                0.26007350
              20.25791297                9.31582475               62.36644132                0.39337556                8.81427823                7.24494922              -27.60013389               -6.30235778               25.55468231               -1.34173042
              21.36529280                8.70244999               61.96191428                0.47271139               13.50649890               12.26108624              -49.31449136               -4.29020332                9.46139021              -11.50820628
              22.52804294                8.09519579               61.47362647                0.77213821               16.27501472               10.72359763              -49.96191356               -1.01141312               -2.79823287              -14.35990156
               7.83061029                3.69677708               66.16391175                1.00000000               -0.50366061               -0.62835098                2.19777524               -0.20642991               -0.50257113                0.61423659
               8.82557368                3.26166138               65.79059718                1.00000000               -0.35350877               -0.30583861                1.14309705               -0.16261162               -0.61759424                0.08567049
               9.82354011                2.82592546               65.41433811                0.97434785               -0.05659309                0.00657171                0.10228074               -0.15902197               -0.61065770               -0.08966552
              10.82444182                2.38902633               65.04099449                0.53837361                0.16327880                0.35646438               -0.96223936               -0.26082993               -0.30667285               -0.52457425
              11.82680569                1.94911268               64.67111693                0.45713916                0.40050208                0.76418949               -2.15366400               -0.30257365                0.11804528               -0.22257030
              12.83245186                1.50627870               64.30673991                0.29810074                0.55448677                1.13161301               -3.37373221               -0.55658138                0.72581879               -0.59062933
              13.83789542                1.05557745               63.95034141                0.00010000              -13.02849118                1.58972030               -4.44323575              -23.29206831               14.95171030               -1.19310032
              14.57188204                0.14584800               63.87455701                0.00010000              -16.56277187                5.41701170               -5.29209244              -22.14042863               22.51499633                4.56220628
              15.50663998               -0.76565021               63.62880107                0.00010000                4.53510386                3.35287237               -4.91584574              -17.64790157                6.21600103               18.60860005
              16.66258411               -1.69421018               63.21022518                1.00000000                8.16352844                0.77155579               -2.31157794              -20.09278276               -1.01738909                0.18173998
              17.66991055               -2.22495593               62.81074708                1.00000000                0.73264404                0.94835470               -2.87609631                0.02396953               -0.18593756               -0.04088103
               8.26366168                4.69049357               66.04448790                1.00000000               -0.42883082               -0.58033027                1.95695717               -0.04486885                0.00385883                0.86377196
               9.25937337                4.25860300               65.67098464                1.00000000               -0.26971310               -0.27275998                0.90111925               -0.00644087                0.05897558                0.13022833
              10.25826742                3.82599117               65.29804179                0.91958616                0.04332678                0.03692672               -0.14191083                0.00616961                0.10120027               -0.27388237
              11.26023991                3.39259097               64.92532874                0.44833861                0.34431717                0.38598011               -1.20448861               -0.06166183                0.62042040               -0.56757321
              12.26515376                2.95675457               64.56321345                0.50033626                0.67068748                0.75048359               -2.44981332               -0.08347604                1.04222794               -0.29548689
              13.27365366                2.51759483               64.19982336                0.37447344                1.00181621                1.12044990               -3.68135525               -0.30807469                1.23215308               -0.61956582
              14.28519009                2.07147465               63.84315098                0.00010000               -0.62810397                1.39527846               -4.84633367              -21.34947629               17.34563419               -0.94152600
              15.26109158                1.20001812               63.80469717                0.00010000               -1.75000135                0.98777747               -5.63600528              -29.64365377               30.43379184                9.19162816
              16.25019006                0.26787852               63.68941273                0.00010000               -3.48912161                3.44673760               -5.33214670              -30.14486320                4.08211193               21.91141206
              17.19130915               -0.68649462               63.09011140                1.00000000               -2.46470303               12.40356321               -3.08552511              -20.51035703               -9.82184044               61.11548498
              18.20089600               -1.21547238               62.69057575                1.00000000                0.95868528               13.14936725               -3.64841564                0.64109093                0.02931396               61.39144530
               8.69349405                5.68517047               65.92916509                1.00000000               -0.35467959               -0.47156950                1.70372041               -0.05009071                0.18422656                1.03262844
               9.68994726                5.25620618               65.55192895                1.00000000               -0.19092604               -0.20875223                0.64971547               -0.01334687                0.38464446                0.04517714
              10.68967553                4.82666399               65.17825882                0.46621885                0.12489645                0.11358182               -0.39866999                0.00792634                0.81111276               -0.69624608
              11.69244518                4.39674593               64.80960298                0.00010000                0.52283874                0.50589378               -1.40463860               -0.16270082                1.75764259               -0.73472245
              12.70013230                3.96412235               64.45537422                0.00010000                0.95625495               -1.15963283               -2.70722665               -0.76988404                2.08593477                3.86775925
              13.71157028                3.52868770               64.09443668                0.00066602                1.41751504               -2.72677083               -3.89996919               -0.66990955                2.11473405                8.11767902
              14.72848261                3.08348302               63.74260273                0.00010000                3.55174076               -8.69465722               -5.01831226              -21.61385239               24.88880504               16.19265952
              15.78260510                2.16560355               63.83902584                0.00010000                3.08864282               -2.84863277               -6.00673848              -38.25826759               41.50708503               14.89736533
              16.79025546                1.30328455               63.80869812                0.00010000               -2.34386132                3.88229526               -5.60934104              -29.44209045               57.05444253               24.11076255
              17.73572787                0.55386109               64.19089930                1.00000000               -2.47837832               12.27611977               -2.43367635              -10.20422813               38.88198249               64.52668963
              18.74068790                0.03803142               63.80171279                1.00000000                0.49600237               12.90408066               -2.02060168                1.18119856                0.33775143               65.36033506
               9.12058845                6.68106218               65.81225639                1.00000000               -0.29755296               -0.34985665                1.44988629               -0.03389085                0.30688254                0.87942488
              10.11761292                6.25442795               65.43035706                0.54089310               -0.13511218               -0.16317043                0.40682134                0.05714028                0.59144586               -0.39072512
              11.11788620                5.82826281               65.05381268                0.00010000                0.09573100                0.13720664               -0.69134059                0.18093386                1.56086879               -1.29543825
              12.11952754                5.40270884               64.69145936                0.00010000               -0.00359448               -0.76500203               -1.61183259               -2.03053816                7.33998375                2.78730254
              13.11781431                4.93356192               64.43219171                0.00010000                1.06836299               -2.90857759               -2.91220223               -3.69242766               12.10127390                7.50181580
              14.14089480                4.46305941               64.16441864                0.00010000                4.90914360               -7.02065260               -4.08946374               -6.93061358               15.86680596               14.43922911
              15.21599718                3.89758151               63.98039023                0.00010000                6.76149538              -14.42514131               -5.11100244              -18.64672404               24.23560753               23.41774838
              16.27612470                3.14304547               63.88075493                0.00010000                2.85467672               -3.00830936               -5.67522379              -29.86865706               35.15258782               14.08306450
              17.27309072                2.34552442               63.91217798                0.00010000               -1.18234944                2.47807737               -4.87233720              -30.26753175               44.95633111               15.32252808
              18.25247771                1.55902777               64.00128460                0.62800475               -0.84557038                0.35294272               -1.53220874              -13.48891774               24.21490679               -0.39671389
              19.25617931                1.04260923               63.61285010                1.00000000                0.37015969                0.31626129               -1.20780291               -0.06236562               -0.14203663                0.08488824
               9.54608468                7.67817334               65.69300565                0.91145051               -0.21952582               -0.21889027                1.20174813                0.00805567                0.07525029                0.77876038
              10.54388943                7.25294277               65.30244654                0.29468763               -0.05356853               -0.14790930                0.17787272                0.16609002                0.61817732               -0.66391263
              11.54501331                6.82940812               64.92250869                0.00010000                0.13229448               -0.08474429               -0.92635864               -0.83079977                6.34344792               -2.15413392
              12.54653532                6.38144589               64.64651803                0.00010000                1.04599343               -1.76946046               -2.08281714               -2.89996630               12.63262662                4.13626491
              13.56593318                5.90595080               64.39324952                0.00010000                3.12015501               -2.97217083               -3.31366318               -4.81434197               15.60224342                5.85665164
              14.60893842                5.38827465               64.17873171                0.00010000                5.48144450               -6.44683314               -4.51047299               -9.29723400               19.57707297                9.31482449
              15.67556207                4.79498019               64.00637896                0.00010000                6.41753143               -8.25238399               -5.40952567              -18.23449890               24.51372022               10.42539562
              16.73728905                4.10543737               63.89216221                0.00010000                4.66802223               -3.90633070               -5.56676838              -25.66033413               29.97544785                9.45192275
              17.76892252                3.35284609               63.83013908                0.00010000                1.57878316               -0.28292283               -4.28919541              -27.91588442               34.23309890                4.10063242
              18.76886471                2.56091994               63.80014097                0.40543524                0.16775766                0.04436522               -1.20280109              -13.86087707               17.93853059               -1.79741969
              19.77227767                2.04435664               63.41430947                1.00000000                0.34129623                0.06345707               -1.08578981               -0.04815974               -0.06993182               -1.11409140
               9.97121069                8.67668437               65.57327098                0.85945675               -0.15107578               -0.10870805                0.95186508                0.00178791                0.02873738                0.82872262
              10.96969993                8.25146977               65.17544625                0.24513714                0.07782029               -0.11713556               -0.02312245                0.08557132                0.25509838               -0.58784370
              11.97276709                7.82656793               64.78205114                0.00010000                0.76428037               -0.26934989               -1.12862690               -1.52137692                8.53684630               -2.57049686
              12.98498554                7.36731964               64.55071352                0.00010000                2.09658102               -1.23128277               -2.49894379               -3.93569159               17.09345116                0.84523132
              14.01469871                6.87411850               64.33079072                0.00010000                4.04675902               -2.66011474               -3.90155365               -7.02194399               18.75138451                3.50958660
              15.06592072                6.33412275               64.13505926                0.00010000                5.97228861               -4.47914279               -5.18262385              -11.78922702               21.33280386                5.29646685
              16.13414449                5.73253383               63.96845016                0.00010000                6.95657023               -5.23761441               -6.06717887              -17.83545288               24.04091604                6.13071105
              17.20505212                5.06491885               63.82798494                0.00010000                6.25729849               -3.78943296               -6.10024366              -23.02804479               25.98947596                4.89715421
              18.25929046                4.33986597               63.70361176                0.00010000                3.93487510               -1.54181256               -4.51798872              -26.43390578               26.79610387                1.22194729
              19.28374962                3.55991508               63.58780599                0.25382642                1.45261286               -0.25526459               -1.10405341              -13.53631167               13.51846412               -3.36463146
              20.28834271                3.04387837               63.20577206                0.92263334                0.45930891               -0.24012994               -1.18941114               -0.26204002                0.02171644               -2.61875748
              10.39654966                9.67599918               65.45422470                0.84547127               -0.08323559               -0.04096128                0.68387973               -0.00009473                0.01423589                0.90034485
              11.39571730                9.25060006               65.04909610                0.27029037                0.10931254               -0.04422055               -0.21321608                0.00800444               -0.04531293               -0.54291552
              12.39873591                8.82402113               64.64279579                0.00010000                1.22768056               -0.12691561               -1.14326876               -2.11822637                9.64148420               -2.32790045
              13.42027091                8.35682023               64.43305611                0.00010000                2.99776408               -0.47270043               -2.96139704               -5.10393100               19.83034417               -1.31615258
              14.45869119                7.85274850               64.23483715                0.00010000                4.72338170               -1.31481560               -4.73524538               -8.84909928               21.24621389                0.55429657
              15.51473854                7.29869179               64.05643550                0.00010000                6.46828634               -2.73342679               -6.11562020              -13.47310183               23.08105719                2.98085986
              16.58805691                6.69022791               63.89413260                0.00010000                7.73287348               -3.44405925               -7.17568095              -18.19985775               24.28988089                4.02011768
              17.66939601                6.02964871               63.73594307                0.00010000                7.85956296               -3.02686159               -7.46636234              -22.17075920               23.98366657                3.58376068
              18.74524817                5.32200984               63.56463227                0.00010000                6.23650270               -1.55361445               -6.32306008              -25.61624231               21.40584099                1.07390992
              19.79412607                4.55581465               63.36150301                0.15135312                2.69310549               -0.02633361               -1.53910783              -13.51433808               10.29039544               -5.97287373
              20.79911028                4.03955404               62.97992654                0.81491105                0.49842154               -0.38588438               -1.42121774               -0.87551885                1.20411546               -4.87624573
              10.82200702               10.67586515               65.33530358                0.84110190               -0.01689529                0.00914041                0.40247655                0.01241899                0.01702190                0.92223241
              11.82183807               10.25058535               64.92283428                0.35038214                0.10876876                0.04010754               -0.37880137                0.01260705               -0.25547624               -0.53790345
              12.82418240                9.82402961               64.50506569                0.00010000                1.61707363                0.08642128               -0.99272992               -2.09465547                9.30099372               -2.02455015
              13.85417954                9.35786563               64.28502025                0.00010000                3.58313862                1.49194360               -4.65457607               -6.79853807               20.69055010               -9.52602815
              14.89584517                8.84782219               64.10132558                0.00010000                5.23998673               -0.01376843               -5.75881065              -10.47222082               24.02233543               -1.51518530
              15.95897928                8.27945421               63.95534822                0.00010000                7.16726223               -1.32011087               -7.26161801              -14.57698641               25.97022964                1.47312480
              17.03919041                7.66365265               63.80306145                0.00010000                8.54378631               -1.95075798               -8.72022191              -18.14336452               25.65749945                3.04881063
              18.12985500                7.00438162               63.63631298                0.00010000                9.08046269               -1.82059393               -9.61550662              -21.25942649               23.99848940                3.24520351
              19.22079967                6.30879368               63.43437630                0.00010000                8.30318293               -0.82179206               -9.26505348              -24.33207334               18.52012918                1.53075420
              20.29591866                5.55938841               63.14238589                0.10770707                4.12769396                0.71468269               -5.49696263              -12.96977800                8.97656641               -8.18992054
              21.30335355                5.03616069               62.74825977                0.76597961                0.74348859               -0.15487073               -4.46259272               -1.37724900                1.59619659               -7.14253127
              11.24735762               11.67618199               65.21634448                0.84579106                0.04473556                0.04583763                0.11612968                0.03642434               -0.01837130                0.89629966
              12.24780497               11.25140221               64.79621162                0.52453032                0.11024535                0.11085503               -0.49840675                0.05763357               -0.37009648               -0.51022466
              13.24956252               10.82574955               64.36923729                0.13088043                0.63513009                0.17373872               -0.68253437               -0.69561948                1.34209645               -1.55135966
              14.26050758               10.38665910               63.98350111                0.00010000                3.90478292                2.08778019               -6.44232330               -7.56287689               19.71506498              -10.62705053
              15.32765818                9.85247313               63.95511948                0.00010000                7.34303914                0.32114593               -6.50908875              -12.22201248               33.55105986               -2.98846400
              16.40736836                9.27228957               63.84114625                0.00010000                8.63020181               -0.66084938               -8.56446508              -13.84481819               29.35892021                0.55315234
              17.50026222                8.65121275               63.70555464                0.00010000                9.58490476               -0.64264111              -10.62952465              -16.07076049               27.92299834                2.35208398
              18.59906645                7.99323683               63.53767156                0.00010000               10.16688500               -0.17270999              -12.41155733              -18.52322795               24.98642909                2.77201791
              19.70359992                7.30557400               63.31210876                0.00010000               10.41485233                0.28775689              -13.28465462              -21.49237207               16.22561054                0.82457978
              20.80736350                6.57010830               62.93092850                0.10186008                5.72104141                1.34793649              -10.82972062              -11.43252309                6.84031389               -9.32862310
              21.81802075                6.03645663               62.52384551                0.75060846                1.06572477                0.17417749               -8.32046360               -1.03367981                0.56795495               -7.31992095
              11.67229505               12.67678190               65.09706017                0.78889062                0.11281209                0.08160761               -0.19781967                0.04292173               -0.03989330                0.73142282
              12.67342317               12.25280246               64.66993495                0.76628905                0.13590325                0.14672175               -0.51857746                0.05958760               -0.21022053               -0.33012278
              13.67501312               11.82750439               64.23953287                0.40343916                0.13876247                0.16628523               -0.47377085               -0.09690581               -0.38851057               -0.82074000
              14.67619842               11.39962123               63.80902802                0.00010000                4.53806666                0.70759468               -0.52829559               -6.46113767               20.69052844               -2.98631488
              15.76577445               10.85424511               63.79845636                0.00010000               10.35724382               -1.40657313               -6.92997228               -9.45088099               38.13990548               -2.39163252
              16.88334330               10.26623723               63.72487881                0.00010000               11.55267489               -0.77002859              -10.01566332               -9.33080867               33.21622656                0.11906189
              17.99682795                9.65079982               63.60639395                0.00010000               11.08429454                0.29624495              -12.77565916              -10.07109112               30.39268270                1.43492928
              19.10502919                9.00092742               63.44275015                0.00010000               10.86264019                1.54604839              -15.62819711              -12.10681140               26.20982849                1.74828780
              20.21408075                8.31454881               63.19653826                0.00010000               11.56781909                2.61862220              -18.31634274              -15.28771051               12.63096538               -0.05506249
              21.33638557                7.58634714               62.71929355                0.09321058                6.79512732                2.30797896              -15.77239483               -9.96793850                3.13283911              -10.12411670
              22.34998330                7.03964423               62.31276184                0.72033291                1.35977271                0.79383041              -10.79888610               -0.18438647                0.05347062               -7.00931267
              12.09617494               13.67781414               64.97535901                0.89049461                0.20992973                0.10322391               -0.47478956                0.04023977                0.44670246                0.59373345
              13.09827424               13.25433665               64.54677115                0.96086601                0.23153469                0.15341935               -0.62612837                0.04816229                0.42339765               -0.19843345
              14.10080563               12.82907526               64.11882757                0.78566573                0.31349333                0.15708699               -0.75872565               -0.09703102                0.32093579               -0.41392896
              15.10454410               12.40081100               63.69086112                0.31437409                8.56094667                0.11897666               -0.69093367               -7.40211126               20.65549586               -0.30360422
              16.27202457               11.82434167               63.67404236                0.30748491               15.98266818               -2.99034346               -7.09670249               -6.57108823               39.14761248               -1.40496459
              17.42419747               11.25688900               63.61329845                0.31155324               14.60628189               -0.93482264              -11.43802381               -4.27478449               35.13525118               -0.38591539
              18.56415020               10.65713765               63.50590323                0.32493431               13.44918836                0.63378225              -15.02288089               -4.90433464               32.30334261                0.26490507
              19.69318123               10.02415780               63.34986456                0.34829646               12.41378937                2.32303764              -19.17373665               -6.14435565               28.39442958                0.05685542
              20.81242599                9.35794644               63.10846804                0.37992986                9.48640378                4.33976301              -23.80561100              -10.55997175               10.27028895               -1.27139544
              21.88290931                8.61626788               62.53928787                0.55444909                4.76564152                2.99207448              -24.60961198              -10.62828660               -3.37744375              -14.46425658
              22.90773882                8.05233324               62.13172239                0.85766946                2.48295128                1.26890019              -18.98641147               -0.61791213               -3.29541808              -10.80422990
               8.20429248                3.82346592               67.18513986                1.00000000               -0.47081570               -0.58292937                2.04437347               -0.18983973               -0.48011193                0.59630468
               9.19958432                3.38331756               66.80171031                1.00000000               -0.33323089               -0.28885631                1.07892402               -0.14972630               -0.58708005                0.08061775
              10.19762786                2.94257837               66.41547753                0.97305095               -0.06114494               -0.00365030                0.12748024               -0.14619957               -0.58585255               -0.08385046
              11.19836143                2.50076223               66.03193163                0.53578327                0.14146877                0.31510882               -0.84594429               -0.23913605               -0.35409170               -0.50348462
              12.20045724                2.05616577               65.65069936                0.43815205                0.35291201                0.68552832               -1.92400474               -0.28506769               -0.01089606               -0.24359719
              13.20541967                1.60875412               65.27461126                0.26137257                0.41071618                1.02136465               -3.03953168               -0.61110831                0.64551708               -0.60120074
              14.20867156                1.15230412               64.90790945                0.00010000              -12.26329962                1.51349453               -4.02604639              -22.16388806               14.80135095               -1.30651657
              14.96015367                0.26012706               64.81974280                0.00010000              -15.28978539                4.99442512               -5.47653005              -21.34931198               22.48832078                3.84553311
              15.90287585               -0.64170281               64.57797565                0.00010000                5.18442435                3.75461730               -5.10344434              -17.04944193                8.46582984               17.58109516
              17.06384216               -1.56944235               64.18818937                1.00000000                8.40748892                0.79043987               -2.14736153              -19.97960582                0.68260202                0.10536266
              18.07102563               -2.10226636               63.78317929                1.00000000                0.71834727                0.97508118               -2.70556217                0.04761211               -0.11017115               -0.09025466
               8.64254245                4.81763663               67.06338096                1.00000000               -0.40116081               -0.53628731                1.81878049               -0.04204699                0.01343757                0.84026721
               9.63853084                4.38042900               66.67975422                1.00000000               -0.25494571               -0.25777655                0.85276443               -0.00652559                0.07546782                0.12088644
              10.63744353                3.94254187               66.29680612                0.92089588                0.03227632                0.02423136               -0.10255062                0.00487616                0.11328715               -0.27386450
              11.63917636                3.50391332               65.91391301                0.45319587                0.30835426                0.34253434               -1.07368062               -0.05719842                0.53481146               -0.52971037
              12.64361062                3.06302106               65.53990405                0.47439601                0.60315232                0.67355669               -2.20414641               -0.08023113                0.87057213               -0.30065679
              13.65123941                2.61896777               65.16473956                0.32472470                0.88677986                1.00991343               -3.32311908               -0.33728461                1.08355742               -0.59698742
              14.66134621                2.16743906               64.79679640                0.00010000               -0.37876960                1.30104985               -4.40544589              -20.37419314               17.20237476               -0.92881987
              15.64366402                1.31007131               64.74702368                0.00010000               -0.70900361                0.99434487               -5.78690334              -28.43064279               30.14672820                8.67879046
              16.64716614                0.39584336               64.63321849                0.00010000               -2.46680708                3.89917241               -6.48756130              -29.57349392                4.79825653               20.51471558
              17.59432788               -0.56153795               64.06020878                1.00000000               -2.14201893               15.52721650               -3.07054590              -21.28022361               -8.33637533               61.59391469
              18.60432576               -1.09251555               63.65515002                1.00000000                0.99978865               16.50493724               -3.62791060               -0.09107645                0.11654377               62.44318992
               9.07786680                5.81274018               66.94558638                1.00000000               -0.33182291               -0.42997433                1.57873213               -0.04553751                0.18653913                1.00014363
              10.07454857                5.37816203               66.55826209                1.00000000               -0.18128703               -0.19866483                0.61764987               -0.01064426                0.39006392                0.03600146
              11.07424106                4.94306300               66.17454294                0.40647995                0.10948471                0.09372058               -0.34073230                0.00993678                0.83515041               -0.71778604
              12.07673827                4.50761292               65.79620818                0.00010000                0.47785523                0.47213031               -1.26679085               -0.18421879                1.66035332               -0.67751158
              13.08379817                4.06963691               65.42956982                0.00010000                0.87588490               -1.08213649               -2.44448618               -0.77388619                1.89412598                3.84274174
              14.09425597                3.62895239               65.05722465                0.00010000                1.31429959               -2.57321662               -3.53152188               -0.69170192                1.99292988                8.08704428
              15.11008416                3.17832511               64.69459711                0.00010000                3.44402764               -8.18124643               -4.56853397              -20.44196508               24.56579681               16.19867348
              16.16313652                2.28001396               64.77608733                0.00010000                3.64655411               -2.32131148               -6.21799753              -36.24257310               40.77439851               15.33219374
              17.18301524                1.43628064               64.74731084                0.00010000               -1.82699605                4.95432562               -7.98493064              -26.28924884               56.60093884               24.68508050
              18.12659660                0.74110198               65.16188219                1.00000000               -2.59279728               15.72469796               -5.94898838               -8.03621411               40.74549447               62.65244302
              19.13115930                0.22783238               64.77756651                1.00000000                0.45626975               16.58520999               -4.79590769                0.56920312               -0.00127235               63.95430318
               9.51078799                6.80903714               66.82619973                1.00000000               -0.27928571               -0.31152125                1.33808027               -0.02660804                0.30708035                0.84219246
              10.50799513                6.37645570               66.43434982                0.52637051               -0.12983060               -0.15913398                0.39235487                0.06292066                0.56577028               -0.38465880
              11.50819138                5.94441628               66.04729258                0.00010000                0.04614738                0.09984460               -0.60661191                0.20699567                1.59264399               -1.30251236
              12.50891808                5.51335593               65.67614713                0.00010000               -0.06989780               -0.63720110               -1.40076340               -1.89415877                7.22563311                2.65671767
              13.50679342                5.04137833               65.40318398                0.00010000                0.98995425               -2.60543146               -2.79757212               -3.51916744               11.57248780                7.40444986
              14.52871716                4.56750344               65.12328033                0.00010000                4.73259635               -6.46745923               -4.10597987               -6.58031120               15.27898753               14.35288053
              15.60144535                4.00381413               64.92825633                0.00010000                6.60699353              -13.38000596               -5.34384725              -17.46117795               23.55488567               23.65197982
              16.66085703                3.26364508               64.82207448                0.00010000                2.94238987               -2.26574599               -6.16116310              -27.34714977               35.02793921               15.41858230
              17.66029314                2.49492987               64.86149857                0.00010000               -0.94025939                3.60528207               -6.00353639              -26.86493045               47.29698742               17.08715023
              18.64205185                1.75295601               64.99365184                0.79288522               -0.90220653                0.70222493               -0.51383520              -11.37046899               26.13591542                1.24242752
              19.64224901                1.23918865               64.60764623                1.00000000                0.01971674                0.67771531               -0.33014390               -0.10240755               -0.02494063                1.46028098
               9.94249752                7.80650975               66.70451855                0.89919024               -0.20696733               -0.18501587                1.10165966                0.01672999                0.07162427                0.72981540
              10.94042785                7.37497935               66.30429215                0.30162977               -0.05083874               -0.14542817                0.18907922                0.16436198                0.57212871               -0.62931763
              11.94148075                6.94505989               65.91380755                0.00010000                0.07325976               -0.09410413               -0.80231879               -0.65253794                6.15859951               -2.06077007
              12.94189305                6.49486890               65.62561148                0.00010000                0.88932793               -1.43329474               -2.03273782               -2.54688657               12.17361501                3.91733185
              13.95926731                6.01752828               65.35954905                0.00010000                2.91604443               -2.49506202               -3.35782624               -4.45968904               14.93679975                5.66883064
              15.00021393                5.49960321               65.13246344                0.00010000                5.27258242               -5.74135432               -4.70118636               -8.68165222               18.80140108                9.25201672
              16.06471896                4.91072500               64.95072444                0.00010000                6.24319252               -7.35811415               -5.75714383              -16.90327720               24.01888424               10.79481603
              17.12507778                4.23469904               64.83529084                0.00010000                4.58433762               -3.09890006               -6.03892804              -23.31873924               30.58935418               10.57670120
              18.15640571                3.50838628               64.78859229                0.00010000                1.49253283                0.20129276               -4.37543423              -24.60201696               36.49194345                6.02633535
              19.15492844                2.75514648               64.79199939                0.42811850                0.01200734                0.16264813               -0.70801980              -12.05696545               19.46125561               -0.83565863
              20.15664586                2.24138669               64.40715067                1.00000000                0.17174143                0.18551345               -0.61523638                0.01139722               -0.08471354               -0.37568228
              10.37418339                8.80533683               66.58229145                0.85464258               -0.14511576               -0.08319331                0.85770748                0.01005998                0.02813166                0.74741163
              11.37273223                8.37354714               66.17540640                0.26480325                0.05338395               -0.10726919                0.00960058                0.11107422                0.21104449               -0.52200006
              12.37525107                7.94253420               65.77202867                0.00010000                0.63898633               -0.18795906               -0.89117931               -1.12886719                8.17196012               -2.26784159
              13.38551196                7.48469003               65.52548736                0.00010000                1.88071300               -0.75023417               -2.49468377               -3.32733203               16.34169514                0.75304310
              14.41286533                6.99147709               65.29090861                0.00010000                3.81877211               -2.05416203               -4.00721468               -6.47733143               17.85401352                3.21887945
              15.46188740                6.45267635               65.08187730                0.00010000                5.77093221               -3.81372407               -5.38649564              -10.90692357               20.41760038                5.17067181
              16.52828397                5.85665185               64.90645417                0.00010000                6.74667830               -4.49509983               -6.36619285              -16.25867217               23.53650067                6.31034937
              17.59682097                5.20166708               64.76701601                0.00010000                5.97606968               -3.11280447               -6.30438358              -20.56916225               26.71268466                5.54763847
              18.64780537                4.49895573               64.66131466                0.00010000                3.55455790               -1.25329883               -4.37587210              -22.98200484               29.38376266                2.58462285
              19.66791213                3.75620897               64.58046721                0.32352967                1.10955824                0.00866950               -0.64445123              -11.52983997               15.21854791               -1.70902499
              20.66999653                3.24289892               64.19865998                0.99168307                0.20844064               -0.00294508               -0.57965618               -0.04712063               -0.06219446               -1.22300127
              10.80627810                9.80484589               66.46055788                0.84612762               -0.08261339               -0.03051150                0.59663651                0.01329473                0.01449107                0.77720376
              11.80545196                9.37283397               66.04730887                0.29856099                0.07412062               -0.02227220               -0.15655344                0.09893715               -0.02911090               -0.44513210
              12.80776051                8.94130071               65.63312697                0.00010000                1.04757761                0.00145557               -0.85924711               -1.40142628                9.12470630               -1.86629283
              13.82640352                8.47986422               65.40407535                0.00010000                2.69869251                0.19972533               -2.89202205               -4.26933035               18.63189202               -2.04996764
              14.86173436                7.97644504               65.18663890                0.00010000                4.52485908               -0.83287114               -4.73360067               -8.30998912               19.98863133                0.27768372
              15.91690070                7.42332873               64.99433873                0.00010000                6.44102119               -2.28217444               -6.21455861              -12.44802858               21.94229720                2.71474949
              16.99055478                6.82082300               64.82153272                0.00010000                7.72449824               -2.98295111               -7.32038268              -16.27940558               23.36866193                3.94410858
              18.07139066                6.17244295               64.66227338                0.00010000                7.58344701               -2.63121041               -7.37344297              -19.27752085               24.08645637                3.69566391
              19.14222372                5.48332030               64.50865547                0.00010000                5.44988942               -1.55084619               -5.36493343              -21.22619633               23.90677545                1.44225551
              20.18038845                4.75531987               64.35596485                0.26305242                2.00499083                0.10603644               -0.51749337              -10.70652382               11.74713639               -2.01597375
              21.18232354                4.24132779               63.97599614                0.92329750                0.19350901               -0.16234941               -0.31330761               -0.09543559                0.10343766               -1.78535907
              11.23847312               10.80472660               66.33883739                0.84422575               -0.02169697               -0.00388221                0.32926490                0.03160303                0.01191382                0.75974063
              12.23825615               10.37310169               65.91958424                0.38229548                0.08595864                0.07291514               -0.29596343                0.14808515               -0.15755691               -0.39034243
              13.24019230                9.94256331               65.49695787                0.00010000                1.33624354                0.18320106               -0.74270961               -0.99395385                7.70259458               -1.49049382
              14.26498102                9.48868454               65.23548041                0.00010000                3.15043698                1.69717622               -3.96421850               -5.82116751               18.65502608               -9.23883410
              15.30320104                8.97481966               65.04687297                0.00010000                5.17839222               -0.00304612               -5.19652300              -10.20838384               23.20702463               -2.06689169
              16.36854887                8.40703286               64.88216389                0.00010000                7.51903027               -1.25433056               -7.19369684              -13.42005081               24.33814570                1.13160896
              17.45358164                7.79699283               64.71565104                0.00010000                9.01121900               -1.92260247               -8.63762112              -16.01698251               24.02404111                2.77716658
              18.54877325                7.14904287               64.54292501                0.00010000                9.34114412               -1.97859185               -9.06279820              -18.16641180               22.70133649                3.07067656
              19.64040452                6.46793880               64.34950331                0.00010000                7.35004569               -1.41798890               -7.42546413              -19.25910591               19.76781469                1.25864315
              20.69577416                5.75832970               64.12775637                0.26184316                2.78337271                0.45211805               -0.98377138               -9.57235510                8.86441069               -1.74400762
              21.69607198                5.23965193               63.74696108                0.91334580                0.02978152               -0.08386659               -0.06657510               -0.12095143                0.51428710               -1.51188959
              11.67015996               11.80476824               66.21706134                0.84896751                0.04169938                0.01240026                0.06585508                0.05627803               -0.02585093                0.69647610
              12.67057695               11.37429227               65.79205042                0.54941698                0.10693135                0.13583843               -0.38563985                0.17807894               -0.19645401               -0.29386078
              13.67229859               10.94496473               65.36362890                0.15079815                0.35734283                0.20705271               -0.55247252                0.12181353                0.70223619               -1.03751802
              14.67772381               10.51380774               64.95650454                0.00010000                3.34598864                1.43235409               -1.58941144               -6.42877059               18.51061681               -8.94868509
              15.73921836                9.97638411               64.89091324                0.00010000                7.43013523               -0.09008768               -5.71150081              -11.31627619               31.53147018               -2.99373455
              16.82632652                9.39824212               64.75649249                0.00010000                9.44933822               -0.99511011               -8.21223543              -12.49204722               27.18422586                0.18594806
              17.92820512                8.78237095               64.59993129                0.00010000               10.53949677               -1.08823060              -10.24117536              -14.11875238               25.24825274                2.00604387
              19.03711645                8.13287111               64.41885629                0.00010000               10.97748285               -1.00471653              -11.22167833              -15.87752347               21.98187341                2.57561050
              20.14775478                7.45496052               64.19059433                0.00010000                9.00558857               -1.10120383              -10.02941697              -16.78704666               16.21903671                0.98445490
              21.21722822                6.76436223               63.90433361                0.29719108                3.47526314                0.53338606               -1.56454176               -8.33853392                6.09664104               -1.58990297
              22.21726004                6.23965046               63.52392957                0.93577541                0.00318223                0.01223740                0.06279283               -0.02299034                0.84987821               -0.92901705
              12.10055063               12.80497460               66.09481831                0.78854776                0.10706167                0.04899498               -0.20163610                0.04220116                0.01681815                0.54225044
              13.10162124               12.37581846               65.66570819                0.75694619                0.12812345                0.15003613               -0.41628981                0.10258410               -0.04735416               -0.12537617
              14.10311310               11.94670436               65.23543982                0.39362287                0.16824918                0.15958734               -0.42952329                0.09713009               -0.07230799               -0.49910401
              15.10498623               11.51733162               64.80581046                0.00010000                4.46640194                0.20507146               -0.26440376               -5.81274636               18.03636314               -1.66662525
              16.19244114               10.97301791               64.73720432                0.00010000               10.38674310               -1.89883633               -5.53699004               -8.29318673               33.72604333               -1.98147717
              17.31272109               10.38713066               64.62740513                0.00010000               12.20682311               -1.35357066               -9.28956810               -8.28077756               29.72530347               -0.14117755
              18.43657760                9.77522822               64.48012655                0.00010000               12.29560581               -0.53040982              -12.07293885               -8.84399893               26.35384801                1.15929076
              19.55863321                9.12894854               64.29399948                0.00010000               11.82974384                0.20835505              -13.78310209              -10.60494602               21.23313004                1.58935221
              20.67317247                8.44591473               64.03506297                0.00010000                9.28401724                0.57883795              -12.95008098              -11.69052361               12.29634582                0.63806228
              21.74431355                7.76899742               63.68445708                0.31094443                3.59316198                0.44069895               -1.97285407               -7.43783539                2.81686497               -1.84257194
              22.74503571                7.23989668               63.30676053                0.93041261                0.07221632                0.07698097               -0.29540089                0.09020112                0.79162537               -0.59934361
              12.52931626               13.80574814               65.97073818                0.88867004                0.15826156                0.07735405               -0.41977717                0.03104829                0.39103368                0.42193016
              13.53089887               13.37729299               65.54132276                0.95928599                0.17058857                0.14745292               -0.55169837                0.04817985                0.38921803               -0.01727489
              14.53272803               12.94815648               65.11250621                0.76183552                0.21282311                0.14521142               -0.62042230               -0.00769774                0.48337017               -0.22338779
              15.53515534               12.51790917               64.68565906                0.31371646                8.54137778                0.05775469               -0.44550468               -7.47054349               18.02623356               -0.18420068
              16.70355559               11.93840739               64.60991541                0.30756088               16.16726600               -3.46105215               -5.84603186               -6.22547820               33.77783458               -1.00915497
              17.85850066               11.37117070               64.50306111                0.31123512               15.29758395               -1.59599586              -10.43352626               -3.75427500               30.11122496               -0.41793449
              19.00950727               10.77176275               64.35723953                0.32399637               14.79151813               -0.34654641              -14.09457916               -4.41365771               26.29088622                0.23162297
              20.15433102               10.13703821               64.16629991                0.34612126               13.21940840                0.80896705              -16.85810354               -5.69149217               20.20573983                0.30827122
              21.27389543                9.46653728               63.89032910                0.37477351                6.00792720                2.06225537              -17.37507881               -8.12080439                7.40198483               -0.56265722
              22.27448956                8.77317621               63.46972204                0.65228256                0.16850562                0.41787880               -3.88743785               -8.24975901               -1.56171953               -3.01518338
              23.27726555                8.24119008               63.09389824                0.95447342                0.27759821                0.12933962               -2.11738422                0.02437009               -0.53002544               -1.01367339
               8.58786715                3.95222096               68.20479922                1.00000000               -0.43727449               -0.53685796                1.88551089               -0.17182760               -0.45795059                0.57660563
               9.58349440                3.50718592               67.81217566                1.00000000               -0.31327071               -0.27169779                1.01408534               -0.13516779               -0.55755776                0.07555134
              10.58160173                3.06159127               67.41688771                0.97212417               -0.06781210               -0.01427934                0.15604454               -0.13233807               -0.56125731               -0.07859041
              11.58213816                2.61499388               67.02407560                0.53535203                0.11532021                0.27263396               -0.72175164               -0.21799178               -0.38950556               -0.48197142
              12.58390814                2.16583135               66.63263683                0.42293402                0.30069743                0.60396333               -1.68306588               -0.26673767               -0.11803257               -0.26101862
              13.58815211                1.71399809               66.24594927                0.23059646                0.24413831                0.90436097               -2.68634207               -0.67987101                0.57443833               -0.60450981
              14.58879090                1.25167322               65.86982048                0.00010000              -11.82849262                1.45373785               -3.57312535              -21.47380179               14.38549890               -1.42099740
              15.35158226                0.36819692               65.76502640                0.00010000              -14.06404451                4.90524787               -5.32341264              -21.20717962               22.30545533                3.15608300
              16.30751001               -0.52451398               65.52673219                0.00010000                5.97251286                3.33516120               -4.86565650              -17.67092609               11.11421615               15.14491239
              17.47103251               -1.43614174               65.16727795                1.00000000                8.51086417                0.78325989               -2.00535485              -19.14766673                2.50734274                0.07426844
              18.47772730               -1.97070249               64.75663584                1.00000000                0.66947831                0.97066833               -2.56888100                0.10563488               -0.10785916               -0.09069816
               9.03118392                4.94685239               68.08086351                1.00000000               -0.37263493               -0.49331962                1.67615090               -0.03803121                0.02156814                0.81320548
              10.02745757                4.50446894               67.68803993                1.00000000               -0.24047742               -0.24276557                0.80456508               -0.00531629                0.08910121                0.11157698
              11.02637437                4.06144848               67.29599078                0.92232697                0.01903189                0.01152696               -0.05843273                0.00410027                0.12337488               -0.27194813
              12.02783821                3.61772022               66.90385513                0.46201538                0.26821428                0.29838491               -0.93421848               -0.05451451                0.46178738               -0.49413680
              13.03173865                3.17187098               66.51913052                0.45532495                0.52971263                0.59329577               -1.94456648               -0.07941510                0.72536653               -0.30091248
              14.03843246                2.72304170               66.13336098                0.28540122                0.76074070                0.89448644               -2.94649705               -0.37054479                0.95003638               -0.57204397
              15.04695347                2.26621060               65.75504207                0.00010000               -0.54141999                1.21616709               -3.93402735              -19.68236734               16.77008930               -0.92220672
              16.02760406                1.41724940               65.68895910                0.00010000               -0.69916923                1.44998519               -5.67426934              -28.17879433               29.08520226                8.26196375
              17.03297008                0.50883764               65.55966150                0.00010000               -1.24769785                4.66100236               -8.23647622              -30.82945884                5.45245813               17.19801363
              18.00265010               -0.42830914               65.02870048                1.00000000               -0.98128466               15.48043165               -3.24981487              -21.02419321               -5.97512107               59.15987646
              19.01334439               -0.96099581               64.61801753                1.00000000                1.06942890               16.76618830               -3.81334729               -1.69034083                0.11382785               61.22546256
               9.47187341                5.94235457               67.96073973                1.00000000               -0.30814344               -0.39392621                1.45156345               -0.04009912                0.18738747                0.96211587
              10.46879198                5.50233061               67.56428195                1.00000000               -0.17204789               -0.18821085                0.58732504               -0.00774260                0.39243611                0.02700043
              11.46843246                5.06182181               67.17144418                0.34443406                0.09166962                0.07497340               -0.27726196                0.00991914                0.85025400               -0.72957532
              12.47062537                4.62096158               66.78426716                0.00010000                0.42829494                0.43598359               -1.11675387               -0.19069795                1.57311621               -0.57343906
              13.47699835                4.17769726               66.40648450                0.00010000                0.78881087               -1.00996500               -2.16794550               -0.93407726                1.72850021                3.78211153
              14.48640159                3.73188782               66.02380624                0.00010000                1.19687502               -2.40817340               -3.14655055               -0.93654796                1.88046753                7.86682341
              15.50093585                3.27599657               65.65123205                0.00010000                2.94888729               -7.58584131               -4.09365085              -19.66719585               24.05224949               15.82107814
              16.54537933                2.39719663               65.71466589                0.00010000                1.77717628               -1.25178966               -6.69914471              -34.57266547               38.35772627               14.91417073
              17.53647938                1.56870607               65.64899950                0.00010000               -1.24986221                6.85741731               -8.06524358              -25.46233573               54.38996680               25.92338878
              18.52038209                0.87346689               66.07191953                1.00000000               -1.35927888               19.10341374              -31.90033029               -8.88432657               41.83011377               53.52667989
              19.50929380                0.36462128               65.70579463                1.00000000               -1.10882874               20.16132502              -29.44575072               -0.16719487                6.88693627               49.00704068
               9.91042987                6.93897386               67.83901800                1.00000000               -0.25943937               -0.28383201                1.22654858               -0.02208578                0.30444009                0.79727277
              10.90783547                6.50070472               67.43820416                0.51147620               -0.12440451               -0.15153799                0.37972192                0.06125537                0.53948815               -0.37543779
              11.90794178                6.06294795               67.04168045                0.00010000                0.01566628                0.08174096               -0.51346156                0.20843425                1.65464219               -1.28278916
              12.90814880                5.62643989               66.66344409                0.00010000               -0.29054542               -0.52546439               -0.81141814               -1.88177619                6.57029137                2.59550387
              13.90213087                5.15167168               66.37624027                0.00010000                0.66266975               -2.30472448               -2.61937310               -3.53713965               10.71388496                7.03050056
              14.92140219                4.67487823               66.08229905                0.00010000                4.30849379               -5.85849094               -4.02991918               -6.48942216               14.38191365               13.87973001
              15.98830075                4.11449378               65.87351329                0.00010000                6.10195244              -12.16589479               -5.54259634              -16.52440606               22.53528611               23.12603761
              17.04344124                3.39221361               65.75753167                0.00010000                2.95761801               -1.25833839               -6.93832359              -25.13394235               34.14985794               15.67294807
              18.04745311                2.64598598               65.79210726                0.00010000               -0.71964393                5.24253212               -8.67010757              -21.64405102               50.97025068               19.24274327
              19.02904837                1.95375913               65.99100789                0.99992586               -0.98806926                4.19622543               -0.34331841               -9.23029702               29.27685454                6.15669643
              20.02769172                1.44223069               65.60624722                1.00000000               -0.13566447                4.06039833               -0.19556416                0.39650773                0.16188504                5.51869997
              10.34796997                7.93667793               67.71503885                0.88898963               -0.19269770               -0.16902921                1.00606497                0.01786870                0.06750400                0.66942898
              11.34604300                7.49929985               67.30622813                0.30224174               -0.05520023               -0.13458425                0.19426261                0.15634118                0.53472264               -0.59131319
              12.34686597                7.06345663               66.90646231                0.00010000               -0.08884399               -0.05281354               -0.66863614               -0.53319982                5.91797064               -1.90563583
              13.34426612                6.61045229               66.60586327                0.00010000                0.54756258               -1.12616346               -1.81777002               -2.35315840               11.61495129                3.39593611
              14.35781722                6.13160277               66.32609299                0.00010000                2.47624654               -2.01327200               -3.24774577               -4.12380608               14.04918279                5.13167219
              15.39379105                5.61471800               66.08470798                0.00010000                4.76475684               -4.96086678               -4.74410036               -8.07995650               17.73058870                8.81707408
              16.45311236                5.03267867               65.89123608                0.00010000                5.87086162               -6.32806201               -6.12287056              -15.56265467               23.07507305               10.64714213
              17.51120828                4.37202986               65.77138365                0.00010000                4.44702393               -2.16622679               -7.00981133              -20.90589342               30.96454328               10.92746922
              18.54205284                3.67355671               65.74263039                0.00010000                1.41615784                1.27546305               -5.30817112              -21.42885275               39.00330548                7.72452949
              19.53953144                2.95739140               65.78598057                0.39861892               -0.08860033                0.40049912               -0.57644553              -10.30002886               21.34893519               -0.33081781
              20.54028083                2.44582924               65.40200474                0.98993220                0.07493926                0.41710899               -0.47242515               -0.00513764               -0.06926351                0.09994975
              10.78554341                8.93559328               67.59042513                0.85177478               -0.13598174               -0.08403144                0.77858986                0.01035145                0.02564766                0.65424384
              11.78418360                8.49801304               67.17563826                0.27130889                0.02909606               -0.08901346                0.02880251                0.14106976                0.20515800               -0.45929801
              12.78612534                8.06189168               66.76422756                0.00010000                0.43779485               -0.08452806               -0.71090384               -0.82494162                7.72085705               -1.97894622
              13.79293949                7.60391662               66.50081984                0.00010000                1.46318516               -0.23122336               -2.38900481               -2.76773698               15.38126589                0.38408603
              14.81538904                7.11140624               66.25064642                0.00010000                3.28938364               -1.46324754               -3.93119655               -5.89362532               16.79661360                2.66485919
              15.85872717                6.57566090               66.02732935                0.00010000                5.21733780               -3.10089013               -5.40165319               -9.92870430               19.25665599                4.69705252
              16.91973579                5.98793254               65.84112630                0.00010000                6.28590822               -3.63827310               -6.64829491              -14.61943442               22.66593623                6.03129955
              17.98444533                5.34888907               65.70189727                0.00010000                5.68893578               -2.21884392               -6.99931296              -18.18215885               27.05896209                5.72230051
              19.03351451                4.67149524               65.61609432                0.00010000                3.31649636               -0.54452074               -5.17276308              -19.97402901               31.95077069                3.15972012
              20.05077526                3.96176911               65.57491697                0.31590179                0.85993840                0.54073081               -0.60714283               -9.93628438               17.08306841               -1.00526340
              21.05071328                3.45057287               65.19417893                0.98583215               -0.00619801                0.48582613               -0.44955087               -0.07784278               -0.05398964               -0.46647298
              11.22333748                9.93499730               67.46615743                0.84815498               -0.07714913               -0.05183896                0.54198222                0.01263675                0.00948418                0.65133400
              12.22256599                9.49751958               67.04596503                0.30342855                0.05630346                0.00119617               -0.12780687                0.15758155                0.00883467               -0.36208709
              13.22446355                9.06176607               66.62561084                0.00010000                0.84154137                0.09130633               -0.70715691               -0.77394844                8.46636393               -1.54682050
              14.23939682                8.60582782               66.37521567                0.00010000                2.18684452                0.83715648               -2.79700994               -3.75013929               17.30355180               -2.36700043
              15.26820044                8.10233782               66.14016514                0.00010000                3.96469239               -0.45981134               -4.44287138               -7.76072378               18.74413265               -0.20144771
              16.31869067                7.55270020               65.93214433                0.00010000                5.96475266               -1.78641332               -6.08239171              -11.20938311               20.56277469                2.15861435
              17.38749549                6.95991321               65.74772494                0.00010000                7.26558653               -2.35675617               -7.35083611              -14.29364528               22.18298488                3.49990833
              18.46400240                6.32765298               65.58847421                0.00010000                7.10983603               -1.98384153               -7.64802510              -16.58313870               24.09101509                3.43745626
              19.52969222                5.66266630               65.45733361                0.00010000                4.88628615               -0.97337831               -5.60640305              -18.08184331               26.45204039                1.69870690
              20.56172812                4.96820601               65.35115314                0.29475845                1.57121189                0.71851932               -0.61618310               -9.10733414               13.75072792               -1.16492759
              21.56111645                4.45554577               64.97366039                0.95228430               -0.06116662                0.37082970               -0.30059010               -0.04019530               -0.00842576               -0.76845048
              11.66075160               10.93455650               67.34188888                0.84867316               -0.01851433               -0.04333547                0.30954957                0.02429405               -0.00065043                0.61531331
              12.66056646               10.49803696               66.91691501                0.37670765                0.07932581                0.09407364               -0.26697831                0.19518246               -0.08163171               -0.28146463
              13.66233812               10.06371781               66.49021149                0.00010000                0.83992500                0.23755821               -0.67028190               -0.13438188                6.93716135               -1.17033151
              14.67736496                9.62065975               66.20573588                0.00010000                2.54820352                1.57637637               -2.09958923               -4.87345214               17.28391154               -8.44108495
              15.71330219                9.10221001               65.99739512                0.00010000                4.97995790               -0.00353642               -4.62603636               -9.53139609               21.64376612               -2.33244629
              16.77696412                8.53993263               65.81147428                0.00010000                7.28039593               -1.09664550               -6.79198043              -11.90342184               22.44760488                0.56424626
              17.85891011                7.94079741               65.63030903                0.00010000                8.65326742               -1.65275441               -8.31326032              -13.76762069               22.24288960                2.25488006
              18.95002947                7.30921224               65.45505701                0.00010000                8.62072507               -1.69892050               -8.66493476              -15.23656267               22.02449291                2.66817853
              20.03132461                6.65202768               65.28586702                0.00010000                6.28598213               -1.14814300               -6.32876941              -16.01308085               21.85071363                1.55965249
              21.07574911                5.97613950               65.12271046                0.33029347                2.19526303                0.67017578               -0.50688239               -7.99026235               10.75393098               -0.70094140
              22.07522987                5.45798947               64.74692827                0.96030192               -0.05192386                0.12655341               -0.04228264               -0.07950646                0.09845744               -0.49993670
              12.09686244               11.93413059               67.21766158                0.85417333                0.04458957               -0.03032195                0.08923607                0.03204792               -0.02834048                0.55189606
              13.09730833               11.49940105               66.78849883                0.51266246                0.11453424                0.14928156               -0.37706089                0.18373796               -0.08203313               -0.16474602
              14.09915312               11.06651724               66.35818784                0.10717068                0.30636181                0.24635923               -0.60028763                0.45404354                1.06830073               -0.73305306
              15.10343557               10.63735535               65.95171288                0.00010000                2.95732606                0.82372308                0.45697229               -5.32269580               16.77908564               -7.73859590
              16.15829964               10.10226709               65.84088946                0.00010000                6.92996302               -0.32983089               -4.47479047              -10.05948021               28.25364745               -3.01990449
              17.24203483                9.53076729               65.67690154                0.00010000                9.22819139               -1.15437874               -7.53647052              -10.87229743               24.49277968               -0.23491457
              18.34286347                8.92685812               65.50073113                0.00010000               10.30030248               -1.20600090               -9.46598060              -11.93461346               22.63504784                1.56044256
              19.44804088                8.29367457               65.31323800                0.00010000                9.98199351               -1.19706954               -9.94457536              -13.12143886               20.52210851                2.32797102
              20.54250334                7.63970344               65.11152042                0.00010000                7.39601017               -1.22261917               -7.22398389              -13.69197884               17.99913610                1.73130754
              21.59596108                6.98160953               64.89963767                0.40207989                2.66615235                0.39838838               -0.37228052               -6.81752012                8.26076101               -0.31773872
              22.59582639                6.45807683               64.52510137                0.94964493               -0.01346942               -0.01503867                0.08589708               -0.05431784                0.13705817               -0.10149864
              12.53085165               12.93395006               67.09302744                0.79013094                0.10029263                0.01411962               -0.12484058                0.00545496                0.06764642                0.42521758
              13.53185458               12.50102259               66.66160916                0.65424848                0.13065185                0.16804841               -0.47693978                0.08385834                0.09894412               -0.02253485
              14.53346469               12.06864499               66.23094241                0.28760165                0.16533055                0.19787400               -0.54248935                0.15476200                0.31574320               -0.30012740
              15.53516119               11.63713421               65.80373995                0.00010000                4.26179809                0.00372220               -0.05167388               -5.44037915               15.82872623               -1.44995260
              16.61870065               11.09561339               65.68771656                0.00010000                9.98829770               -2.17653480               -4.34228971               -7.42047986               29.35225547               -2.07663316
              17.73492714               10.51684506               65.53908745                0.00010000               11.93049542               -1.67744677               -8.29827492               -7.09364927               25.85228647               -0.36717157
              18.85731056                9.91667739               65.36493518                0.00010000               11.99141139               -0.96569901              -10.78104914               -7.38542716               22.59291459                0.90233592
              19.97475537                9.28527085               65.16708811                0.00010000               10.61197573               -0.39760989              -11.56066557               -8.64682567               18.89161036                1.54966458
              21.06955007                8.62757529               64.93753664                0.00010000                7.31349708               -0.17711961               -8.46518415               -9.33116831               14.34727600                1.56920986
              22.12102531                7.98410727               64.67983647                0.44859193                2.58294169                0.19123839               -0.32484674               -5.88709511                5.90893936               -0.21930689
              23.12120891                7.45768869               64.30685382                0.94766804                0.01835947               -0.01462394                0.01493814                0.00611913                0.11940459                0.06083938
              12.96282647               13.93441299               66.96696347                0.88812972                0.14640993                0.04629280               -0.31572798                0.03238500                0.36648481                0.32137560
              13.96429057               13.50276202               66.53573718                0.90541511                0.16551349                0.17394258               -0.65029314                0.04668566                0.45682722                0.07556096
              14.96613674               13.07047472               66.10641912                0.68053802                0.16845065                0.18297264               -0.68785957                0.00059407                0.80446482               -0.09145180
              15.96765958               12.63742980               65.68195102                0.31361706                8.20212328                0.02955812               -0.21844899               -7.33707663               15.79123754               -0.14132900
              17.13017920               12.05873640               65.55712172                0.30755109               15.57191311               -3.68769980               -4.70692255               -5.86271660               28.65806299               -1.22566815
              18.27909784               11.49721835               65.40462792                0.31114824               14.82749640               -1.96267028               -9.15980437               -3.14254265               24.87527323               -0.36231922
              19.42672913               10.90754414               65.22401165                0.32312397               14.25543112               -0.91332551              -12.28991250               -3.63294154               20.92319886                0.30004776
              20.56420647               10.28572237               65.01270249                0.34412958               11.51572128                0.04515213              -13.67541733               -4.62404499               16.18663217                0.62503622
              21.65704356                9.63616105               64.76096646                0.37269908                4.19496565                0.85857529              -10.77808761               -6.26505509                9.88910872                0.62305635
              22.64810578                8.98543430               64.46153912                0.71723832               -0.41288212                0.13270308               -0.53428555               -6.21078778                3.67472797               -0.30890369
              23.64878592                8.45778436               64.08937471                0.97447060                0.06801367                0.00956608               -0.27959212               -0.00729328               -0.08038951                0.02624178
               8.98038058                4.08286945               69.22285007                1.00000000               -0.40359116               -0.49092214                1.72385846               -0.15290024               -0.43732097                0.55694699
               9.97634467                3.63310005               68.82199201                1.00000000               -0.29389049               -0.25458013                0.94941778               -0.11935866               -0.53047829                0.07082394
              10.97450277                3.18280043               68.41859842                0.97183404               -0.07612365               -0.02539902                0.18710005               -0.11750939               -0.53803101               -0.07384131
              11.97482220                2.73156376               68.01749660                0.53746250                0.08600720                0.22752755               -0.59239111               -0.19710391               -0.41348904               -0.46141102
              12.97622292                2.27795801               67.61703804                0.41193984                0.24512913                0.51971253               -1.43399426               -0.24724310               -0.20438113               -0.27527098
              13.97972478                1.82184053               67.22088442                0.20485661                0.05407467                0.78294001               -2.32118526               -0.76546920                0.52298495               -0.60115817
              14.97730441                1.35344100               66.83644695                0.00010000              -11.51868531                1.41423621               -3.09322221              -20.93831418               13.84423987               -1.54746267
              15.74935107                0.47538332               66.71327455                0.00010000              -12.71978890                5.02877823               -4.88920068              -20.76545477               22.70329220                3.18102267
              16.72290863               -0.40466320               66.48066252                0.00010000                6.73671453                2.21995159               -4.41217151              -18.95273876               13.46605103               11.45998266
              17.88408536               -1.29080204               66.14808228                1.00000000                8.36220213                0.78200398               -1.83040371              -17.87061997                4.14638923                0.05327103
              18.89015267               -1.82684372               65.73180167                1.00000000                0.60673100                0.96786236               -2.38946534                0.17738661               -0.09749070               -0.08900536
               9.42862097                5.07796023               69.09690398                1.00000000               -0.34353823               -0.45207194                1.53124679               -0.03312059                0.02797144                0.78566433
              10.42518559                4.63055425               68.69584552                1.00000000               -0.22625736               -0.22811235                0.75680210               -0.00328039                0.09972931                0.10341812
              11.42409583                4.18254644               68.29563747                0.92438277                0.00433877               -0.00093032               -0.01106118                0.00214685                0.13106417               -0.26858514
              12.42527237                3.73383903               67.89522864                0.47620674                0.22581366                0.24957108               -0.78726050               -0.05266133                0.40111250               -0.46148659
              13.42861210                3.28315514               67.50101272                0.44402475                0.45281138                0.51056886               -1.67534603               -0.07814656                0.60515160               -0.29880229
              14.43432860                2.82966993               67.10580962                0.25567098                0.62688851                0.77551323               -2.55830424               -0.40893948                0.83277616               -0.54590399
              15.44114987                2.36758336               66.71811585                0.00010000               -0.67899847                1.14172275               -3.44594237              -19.05168661               16.19191188               -0.92440003
              16.42074863                1.52567110               66.63353829                0.00010000               -1.23379715                1.71707454               -5.48074682              -28.34372644               27.32376641                7.27026022
              17.41647393                0.61753632               66.46848896                0.00010000               -0.21396003                6.34829290               -9.46082159              -30.90004034                8.13369455               17.28315185
              18.41646942               -0.28298200               65.99521249                1.00000000                0.57471429                7.00651047               -3.45360657              -20.61915171               -2.81476671               34.13111121
              19.42796821               -0.81716509               65.57888308                1.00000000                1.14987884                2.32936133               -4.01120087                2.13144818                0.10118746               38.04244185
               9.87453012                6.07382801               68.97461765                1.00000000               -0.28372718               -0.36383718                1.32410870               -0.03484587                0.18752086                0.92386366
              10.87169285                5.62853781               68.57000859                1.00000000               -0.16345948               -0.17767423                0.55829487               -0.00546656                0.39264960                0.01978182
              11.87126093                5.18278183               68.16899770                0.00010000                0.07337128                0.05979601               -0.21109276               -0.00170829                0.86125412               -0.73275394
              12.87316027                4.73655518               67.77387310                0.00010000                0.37840803                0.49154310               -0.96294738               -0.70603592                1.50124815               -0.09997960
              13.87882909                4.28816939               67.38621091                0.00010000                0.69787471               -1.03876474               -1.88096379               -1.28001614                1.58659844                3.65024372
              14.88711777                3.83735079               66.99429363                0.00010000                1.07202052               -2.27368129               -2.75059715               -1.35700560                1.77832944                7.51023811
              15.90026950                3.37627546               66.61272409                0.00010000                2.27029113               -7.06262558               -3.60890204              -19.59286993               22.70574843               15.11264155
              16.93252359                2.50972481               66.64210444                0.00010000                0.66457168               -0.26424109               -7.02523901              -32.47305974               37.82023795               13.80499119
              17.91356093                1.72230266               66.58600597                0.00010000               -1.30599235                8.43087657               -9.71799994              -31.53243221               33.57781576               23.74121974
              18.90640374                0.84932816               66.52387559                1.00000000                4.37934409               22.25054499              -45.92755822              -25.27898028               20.82675406               62.06804467
              20.00114782                0.21974351               66.18865150                1.00000000                9.47440733               23.52588165              -46.21296081              -13.60647346                8.98746438               61.81372517
              10.31850446                7.07068348               68.85073070                1.00000000               -0.23820178               -0.26684069                1.11722733               -0.02132527                0.30154451                0.75440828
              11.31612244                6.62700077               68.44194426                0.49111621               -0.12300862               -0.14094101                0.36776925                0.05324337                0.51787303               -0.36800446
              12.31604429                6.18374236               68.03702335                0.00010000               -0.51791808                0.08091182               -0.41628548                0.28066063                2.09275426               -1.25024361
              13.30576408                5.74366989               67.65991876                0.00010000               -0.69140626               -0.55716528                0.26462490               -1.99806978                6.20795562                1.53145389
              14.30221616                5.26237984               67.35079651                0.00010000                0.66591679               -2.12069123               -2.49322333               -3.84482129                9.66936225                6.70820759
              15.31908242                4.78419630               67.04268194                0.00010000                3.73511432               -5.32182010               -3.77453822               -6.67420721               13.42743661               13.13017774
              16.37691845                4.22633085               66.81740440                0.00010000                5.30889037              -11.01103152               -5.52615796              -16.22673869               21.10732099               21.96001231
              17.42526023                3.52038628               66.68330801                0.00010000                3.46517402               -0.04209959               -7.94848699              -23.98631251               31.66566310               14.97650991
              18.44622193                2.78615385               66.68809642                0.00010000               -0.59056277                5.82935725              -12.43690079              -17.50217119               53.61631204               18.35842798
              19.41344897                2.16202889               66.98678547                0.50741700               -1.56069380               15.76464397               -1.37805046               -5.83361303               34.10072422               33.04351126
              20.41500806                1.65335254               66.60373494                1.00000000                0.15590844               21.78552326               -0.86156039               -4.76441446                0.47853386               31.15507919
              10.76146904                8.06849119               68.72463985                0.88097358               -0.17702087               -0.16901819                0.91769902                0.01106041                0.06104251                0.61677413
              11.75969884                7.62571899               68.30817740                0.29138485               -0.06320143               -0.11882478                0.19268882                0.14096954                0.51306376               -0.56137732
              12.76020502                7.18440006               67.90043483                0.00010000               -0.25687208                0.00321900               -0.54895913               -0.59323857                5.74427540               -1.76216598
              13.75456139                6.72541187               67.58925608                0.00010000                0.06006206               -1.03252687               -1.67447569               -1.88450831               11.02966067                2.37897011
              14.76140626                6.24575557               67.29459413                0.00010000                1.75606111               -1.58388606               -2.96211816               -3.72127765               13.06342613                4.49053662
              15.78968262                5.73091439               67.03758143                0.00010000                3.90692443               -4.25076248               -4.55977685               -7.61212574               16.54706071                8.17588198
              16.83954475                5.15605483               66.82826703                0.00010000                5.16458625               -5.27709342               -6.24227241              -14.59576202               21.59177753               10.01851573
              17.89297434                4.50888282               66.69509461                0.00010000                4.11650759               -1.06818751               -8.29184160              -18.96965262               30.26621221               10.65388652
              18.92187490                3.83888981               66.68242886                0.00010000                1.47792256                3.06465338               -7.84700739              -18.83413142               41.72857309                9.52685564
              19.92253279                3.16462104               66.78047047                0.25281250                0.06686703                0.44511157               -0.72416731               -8.26979618               23.91045959               -0.33533761
              20.92321224                2.65545397               66.39770217                0.94660802                0.06794454                0.42806383               -0.46282571               -0.14746911               -0.10818656                0.16948121
              11.20427009                9.06730312               68.59786324                0.85165514               -0.12371195               -0.10411867                0.71624915                0.00129185                0.02060026                0.58423219
              12.20303297                8.62462427               68.17598245                0.26058063                0.01082722               -0.07017539                0.03363293                0.14900150                0.21902810               -0.41554835
              13.20448663                8.18380674               67.75781059                0.00010000                0.18427214               -0.00098484               -0.60230079               -0.69863900                7.26297732               -1.78527735
              14.20671841                7.72301936               67.47770726                0.00010000                0.89007311                0.10981457               -2.16058388               -2.48728765               14.43422273               -0.18228993
              15.22228809                7.23070212               67.21228468                0.00010000                2.49111171               -1.00440886               -3.63073038               -5.27781041               15.79765357                2.00468583
              16.25654065                6.69918105               66.97384424                0.00010000                4.23733423               -2.42791536               -5.14523131               -8.94996852               18.03374664                4.01612390
              17.30703478                6.12078898               66.77348827                0.00010000                5.32457741               -2.72081946               -6.70173161              -13.09093312               21.33205196                5.50088049
              18.36303219                5.49902253               66.62702975                0.00010000                5.33831503               -1.04252466               -7.94923870              -16.13570529               26.52550961                5.53157714
              19.41380108                4.84744692               66.55785939                0.00010000                3.42283425                0.43159672               -7.50273585              -17.06903532               34.04475783                3.15795602
              20.43148888                4.17093113               66.56832435                0.22213863                0.82958662                0.98033898               -1.06554184               -8.44948339               19.41622974               -0.89917697
              21.43039281                3.66191382               66.18966896                0.89032112               -0.10960666                0.88777340               -0.58738172               -0.20531601                0.01752542               -0.25864464
              11.64685258               10.06640882               68.47139752                0.85221913               -0.06773330               -0.08872030                0.51676690               -0.00244604                0.00178497                0.57561720
              12.64617524                9.62431548               68.04475274                0.28412415                0.04922878                0.01571685               -0.12611337                0.16197401                0.05565257               -0.31634123
              13.64783715                9.18438036               67.61898383                0.00010000                0.58725082                0.13864712               -0.65300176               -0.55396492                7.82536546               -1.37539963
              14.65792026                8.72760816               67.34813515                0.00010000                1.59256013                1.01731372               -2.41106920               -3.09778783               16.11840359               -2.25027257
              15.67968835                8.22566739               67.09778147                0.00010000                3.13380637               -0.16278566               -3.95899934               -6.86011074               17.67821006               -0.76940973
              16.72059639                7.68235608               66.87269089                0.00010000                4.90981243               -1.28102350               -5.64324477               -9.79912724               19.18856251                1.45156765
              17.77788460                7.10163844               66.67451600                0.00010000                6.15029574               -1.58523720               -7.15277440              -12.32509173               20.73586155                2.87295469
              18.84360230                6.48803233               66.50931288                0.00010000                6.53504972               -1.06899386               -8.08957457              -14.17218844               23.44997391                3.09092892
              19.90858560                5.84752174               66.39652741                0.00010000                4.77369626               -0.12509373               -7.66088336              -15.39201170               28.17877592                1.79595969
              20.93907623                5.18422782               66.34364119                0.22633732                1.42774711                1.24476107               -1.35798585               -7.80048234               15.97941550               -0.94357760
              21.93714054                4.67320944               65.96998434                0.88113771               -0.19356874                0.81491992               -0.59476070               -0.14120324                0.09322392               -0.44514228
              12.08840785               11.06552871               68.34502839                0.85579283               -0.01069481               -0.08706111                0.32880825               -0.00570637               -0.00986274                0.55284979
              13.08830091               10.62493861               67.91424468                0.33659498                0.08533975                0.09938615               -0.28523149                0.16428808                0.00280782               -0.23577030
              14.09011465               10.18657968               67.48355223                0.00010000                0.75873621                0.25961944               -0.70109586                0.05202092                7.04284012               -1.01988620
              15.10347563                9.74336563               67.19348863                0.00010000                2.01116565                1.67117970               -1.31969332               -4.32248177               16.50826507               -7.48831115
              16.13033796                9.22744641               66.95435224                0.00010000                4.05557123               -0.00014030               -3.77951844               -8.51953751               19.84778867               -2.65664214
              17.18458705                8.67356058               66.74632428                0.00010000                6.22593688               -0.82127119               -6.09499443              -10.13090589               20.66595109               -0.11503399
              18.25485670                8.08908424               66.54938584                0.00010000                7.45590334               -1.13423901               -7.73435494              -11.46164541               20.52211957                1.59378050
              19.33370512                7.47764265               66.36962632                0.00010000                7.74543253               -1.03164434               -8.52443145              -12.54860800               21.31542370                2.44313197
              20.40976535                6.84494504               66.22292792                0.00010000                5.80432043               -0.48023431               -7.44678482              -13.45320343               24.05664059                1.94409958
              21.44979153                6.19582635               66.11761872                0.25843431                1.99200799                0.83268109               -0.80817332               -6.84732834               13.22236668               -0.40938514
              22.44960551                5.67821221               65.74611542                0.91203913               -0.01860199                0.22427460               -0.19995616               -0.16475036                0.08828723               -0.27032968
              12.52791866               12.06466760               68.21884606                0.86196848                0.04913760               -0.06758260                0.15432664               -0.01982620               -0.01762936                0.51269590
              13.52841003               11.62630320               67.78450920                0.43336804                0.12659454                0.15953998               -0.44733163                0.11447051                0.05953030               -0.12750640
              14.53045055               11.18957275               67.35162314                0.00010000                0.10969325                0.29454239               -0.75745857                0.59555392                2.49436693               -0.58266238
              15.53060390               10.76103176               66.96564399                0.00010000                2.43260527                0.73643992                3.43537271               -5.12985993               16.89972429               -8.61247851
              16.57910265               10.22566458               66.80141743                0.00010000                6.28682712               -0.60967104               -3.63227841               -9.06501575               24.95360658               -3.15221295
              17.65634044                9.66593066               66.60576308                0.00010000                8.27334840               -1.07498682               -6.50026629               -8.93748893               22.02981964               -0.79981150
              18.74456962                9.07895366               66.41061167                0.00010000                9.02144488               -0.95449092               -8.43357304               -9.64763431               20.51518554                1.06287139
              19.83676934                8.46739944               66.21996479                0.00010000                8.83841072               -0.85826576               -9.12043767              -10.54388857               19.80436363                2.27150857
              20.92133784                7.83791705               66.04611465                0.00010000                6.60465754               -0.85460796               -7.09199699              -11.44568566               20.99748595                2.24744014
              21.96886249                7.20088145               65.89688800                0.33485265                2.38679818                0.34417412               -0.36427056               -5.84192463               11.05223470               -0.04189908
              22.96907380                6.67769493               65.52564751                0.94986330                0.02113104               -0.06860420                0.02409530               -0.12947125                0.01894632               -0.01478913
              12.96474013               13.06417706               68.09232150                0.79387029                0.09450355               -0.01820011               -0.01222183               -0.04577169                0.10876181                0.40314223
              13.96568516               12.62812941               67.65616940                0.50416599                0.12785222                0.21224786               -0.64858739                0.02316039                0.33896544               -0.00948333
              14.96729717               12.19247053               67.22459003                0.00010000               -0.04492803                0.29006310               -0.81112956                0.10589816                1.16857112               -0.18914850
              15.96478660               11.75809443               66.80477698                0.00010000                3.84207879               -0.11856582                3.40953872               -5.37719765               17.00841244               -3.99968494
              17.04413875               11.21525299               66.65035853                0.00010000                9.38808014               -2.52904408               -3.41787504               -6.55481459               26.66434802               -2.57071201
              18.15254820               10.65206084               66.46143963                0.00010000               10.81482423               -1.65436455               -6.97243970               -5.62414073               22.49957019               -0.60589165
              19.26043523               10.06999442               66.26450556                0.00010000               10.56578741               -0.96714470               -9.21822730               -5.81282269               19.86331898                0.63852169
              20.36386395                9.46047734               66.06278617                0.00010000                9.34672007               -0.45446384               -9.90964658               -6.89010110               18.05585386                1.63120524
              21.44736963                8.82785288               65.86575929                0.00010000                6.46556023               -0.28891447               -7.21455504               -7.81321807               18.00464465                1.90527273
              22.49317516                8.20270983               65.67796014                0.41054779                2.30097374                0.13556949               -0.20931133               -5.01496840                9.13973610                0.03044850
              23.49338911                7.67684013               65.30705929                0.94756004                0.02139502               -0.05109016                0.02078335               -0.04133121               -0.00035554                0.05901354
              13.39909853               14.06430360               67.96442363                0.88904619                0.14812411                0.01265364               -0.17855603                0.06029638                0.37620512                0.30338066
              14.40057977               13.63054816               67.52831689                0.80081604                0.17524807                0.24187502               -0.88738064                0.04298175                0.70825718                0.08266197
              15.40260349               13.19537402               67.09874902                0.57286276               -0.01511411                0.29034835               -0.94668461               -0.06375389                1.66475785               -0.00206188
              16.40027749               12.75866044               66.68129008                0.31297010                7.57182278                0.05660120                3.43146946               -7.46542699               19.29844690               -4.28508213
              17.55403995               12.17508370               66.51577696                0.30758800               14.44193535               -4.01692873               -3.78943750               -5.30073376               25.38340425               -0.95574762
              18.68911619               11.63284337               66.31986502                0.31099639               13.29283637               -1.92174779               -7.51550373               -2.11684792               20.69548153               -0.31110391
              19.81989667               11.05961076               66.11144128                0.32233938               12.59963292               -1.03836588              -10.11321954               -2.78051594               17.27756397                0.39091955
              20.94110885               10.45831016               65.89279156                0.34205059               10.14721553               -0.21671757              -11.05410549               -3.64910977               14.81389600                0.93946588
              22.02284098                9.83213876               65.67476734                0.37042917                3.92335106                0.42858806               -8.29336326               -5.18873128               14.49993785                1.23453182
              23.01957587                9.20359284               65.45903633                0.70821049               -0.14272044                0.08830050               -0.25711671               -5.13320989                7.74809985                0.02509284
              24.01998657                8.67667313               65.08830639                0.97415523                0.04107004               -0.01669992               -0.09001884               -0.03222360               -0.00482469                0.04233573
               9.38083685                4.21525210               70.23927639                1.00000000               -0.37003624               -0.44540042                1.56162333               -0.13332955               -0.41953984                0.53884603
              10.37713648                3.76089539               69.83116402                1.00000000               -0.27501618               -0.23746647                0.88538549               -0.10256859               -0.50717975                0.06662063
              11.37533652                3.30603637               69.42062972                0.97225593               -0.08538614               -0.03588602                0.21938813               -0.10208949               -0.51750084               -0.06981089
              12.37542876                2.85030158               69.01222778                0.54203665                0.05480845                0.18124098               -0.46093535               -0.17734647               -0.42732291               -0.43910701
              13.37643269                2.39237656               68.60395695                0.40463746                0.18870702                0.43455059               -1.18415423               -0.22605109               -0.26884478               -0.28657325
              14.37920290                1.93212453               68.19952557                0.18310959               -0.15735602                0.65898771               -1.95263006               -0.87132560                0.49482083               -0.59292719
              15.37328557                1.45738615               67.80795604                0.00010000              -10.88851884                1.40593029               -2.60128014              -20.06398500               13.31883388               -1.67930293
              16.16143253                0.59128990               67.66724239                0.00010000              -11.56311324                4.25348181               -4.19354392              -20.19029255               23.13637563                3.14135414
              17.14202331               -0.27096721               67.43848876                0.00010000                7.06943100                2.01244285               -3.91756228              -16.83668484               15.82219497                7.33588966
              18.30282115               -1.12933674               67.13066988                1.00000000                8.31576924                0.78565110               -1.65905454              -16.46995978                5.67764589                0.02809512
              19.30833869               -1.66664541               66.70884653                1.00000000                0.55175464                0.96486147               -2.20261631                0.23795881               -0.09366372               -0.09237059
               9.83386026                5.21079809               70.11148845                1.00000000               -0.31415982               -0.41234892                1.38571903               -0.02748225                0.03211860                0.76015115
              10.83071867                4.75852072               69.70317597                1.00000000               -0.21238665               -0.21339436                0.70956537                0.00039256                0.10684841                0.09640702
              11.82961253                4.30567751               69.29576956                0.92757670               -0.01167331               -0.01277553                0.03793518                0.00248907                0.13819580               -0.26491956
              12.83048520                3.85211399               68.88810992                0.49633033                0.18240884                0.19851406               -0.63666283               -0.04735366                0.35392744               -0.43326068
              13.83326071                3.39672207               68.48562360                0.44039982                0.37498260                0.42708915               -1.40290445               -0.07612446                0.50801095               -0.29167598
              14.83798485                2.93871441               68.08219489                0.23438223                0.49011656                0.65478642               -2.16629543               -0.45122609                0.73106347               -0.51969410
              15.84306304                2.47144546               67.68612322                0.00010000               -0.71392854                1.07873490               -2.95372170              -18.54676217               15.39100677               -0.93874814
              16.82370628                1.63382472               67.57934417                0.00010000               -0.45466297                1.61184165               -5.23910929              -27.76092727               25.06378244                6.56308972
              17.83396978                0.74915722               67.37044507                0.00010000                0.61271853                4.74451077               -9.23153805              -28.55318527               10.36654584               13.90267579
              18.83596065               -0.12148023               66.95962835                1.00000000                0.70285869               12.62957688               -3.65927135              -18.73517607                0.57710627               18.28410058
              19.84802695               -0.65699680               66.53779352                1.00000000                1.20663019               12.13446631               -4.19833563               -0.99402835                0.09732941               20.65886449
              10.28484195                6.20700512               69.98722190                1.00000000               -0.25770221               -0.33791318                1.19721223               -0.02909321                0.18631064                0.89024329
              11.28226492                5.75662750               69.57544784                1.00000000               -0.15244565               -0.16724467                0.52936242               -0.00213195                0.38955463                0.01316751
              12.28179303                5.30578086               69.16722232                0.00010000                0.05861007                0.04142206               -0.14279854               -0.00729021                0.86267856               -0.72890179
              13.28343713                4.85427186               68.76500821                0.00010000                0.32583766               -0.52140022               -0.80328957               -0.84064818                1.43852231                0.90570856
              14.28830979                4.40091835               68.36886522                0.00010000                0.60089334               -0.96347328               -1.58903305               -1.47786869                1.46925496                3.41852924
              15.29545499                3.94522026               67.96879430                0.00010000                0.94651165               -2.22602085               -2.34939093               -1.82996519                1.67678387                7.13066014
              16.30724002                3.47896085               67.57905401                0.00010000                1.65236108               -6.66471854               -3.12068186              -19.74677324               21.30327359               14.23066653
              17.32850221                2.62352673               67.57416111                0.00010000                0.95122644                0.24644583               -7.03454137              -33.63408177               33.91029372               12.10111598
              18.32626455                1.82392301               67.45463950                0.00010000                0.28847145                8.37872129              -12.22035918              -25.89699163               20.35477708               20.13091885
              19.33427164                1.12325480               67.15336837                0.00010000                1.66133568               23.97573475              -39.92957029              -14.42077105                9.70735987               62.68481368
              20.35949126                0.57604391               66.78153542                0.42699660                2.52196191               25.66392037              -46.78993270               -6.95426350                3.15585351               68.86508312
              10.73403364                7.20403983               69.86136254                1.00000000               -0.21333495               -0.25621225                1.01026269               -0.02271136                0.29801346                0.72277896
              11.73190029                6.75517583               69.44555955                0.46474248               -0.11056398               -0.12966935                0.35409594                0.03552415                0.50203025               -0.36557403
              12.73182236                6.30650595               69.03335474                0.00010000               -0.66827729                0.08226071               -0.31415864               -0.73050385                3.05444725               -1.21620884
              13.71853475                5.84168599               68.66873659                0.00010000               -0.95337120               -0.70143346                0.17948462               -2.08952222                6.35017358                1.33962283
              14.71275494                5.37745260               68.32637580                0.00010000                0.24041479               -2.04965053               -2.12921052               -3.25206941                8.42955682                6.35608163
              15.72334304                4.89419399               68.00680828                0.00010000                2.85330821               -4.90734596               -3.34498925               -7.18485704               12.73597138               12.31549785
              16.76982110                4.33815109               67.76299013                0.00010000                4.13597229              -10.09978706               -5.17995534              -16.76228241               19.44059696               20.49949086
              17.80606249                3.63875364               67.59856193                0.00010000                2.32403901                0.89295556               -8.24989948              -24.37754814               27.46965036               13.22376340
              18.81630188                2.91673165               67.54336924                0.00010000               -0.53190814                8.52039208              -15.91668864              -15.78676419               54.11467592               18.40740709
              19.79542432                2.35803447               67.96344688                0.00010000               -0.64692158               12.29454839              -12.27431367               -4.61271766               39.42785030               44.14718500
              20.80336345                1.85628161               67.58901601                0.55768909                0.79391257               14.36204672               -7.32638672               -2.96716299                2.47202332               46.33351876
              11.18211572                8.20188088               69.73339283                0.87595832               -0.16064321               -0.17597913                0.83377693               -0.00050792                0.05185360                0.58742207
              12.18050929                7.75403411               69.31008190                0.26861473               -0.07214636               -0.10245477                0.18708740                0.11308568                0.50388735               -0.54581155
              13.18067280                7.30742607               68.89548313                0.00010000               -0.49046330                0.05655929               -0.45209051               -0.79766047                5.48248117               -1.66644399
              14.17070003                6.84024320               68.57237376                0.00010000               -0.49562007               -0.01471193               -1.52294257               -1.94428118               10.57708034                1.16453585
              15.17076039                6.35992533               68.26685063                0.00010000                1.01796720               -1.45699919               -2.60451440               -3.53598293               12.50441160                4.07259719
              16.19105937                5.84707334               67.99351244                0.00010000                2.83371672               -3.66600400               -4.13592660               -7.40523786               15.63158280                7.45001823
              17.22743473                5.27696511               67.76639063                0.00010000                3.56556597               -4.32249555               -5.98900095              -14.11586370               19.92976764                9.16187506
              18.26237069                4.64138584               67.60554682                0.00010000                3.19068522                0.32743536               -8.76589876              -17.90561718               28.27599238               10.08670248
              19.29124843                3.99433085               67.58569024                0.00010000                2.00483195                5.19120875              -12.75229017              -15.77134473               43.55215864               10.82740010
              20.30246733                3.36914577               67.77149722                0.00010000                0.62026406                1.12901965               -4.37233091               -5.95900205               26.96459721               -1.99298030
              21.30365371                2.86328485               67.39274823                0.66710950                0.11863870                0.84180985               -1.81179456               -0.33553607               -0.39467014               -1.55030770
              11.62971701                9.20052025               69.60475012                0.85313783               -0.11001969               -0.12681855                0.66242909               -0.01200014                0.01462835                0.55912290
              12.62861681                8.75312673               69.17631092                0.23563252               -0.00284695               -0.05517939                0.02979168                0.13501635                0.24381533               -0.39856705
              13.62966007                8.30763713               68.75218154                0.00010000               -0.07334769                0.05451865               -0.54074908               -0.74096690                6.90033647               -1.69536566
              14.62714986                7.84139175               68.45760816                0.00010000                0.27725319                0.23989061               -1.83459880               -2.35286463               13.69000035               -0.41954450
              15.63520513                7.34831262               68.17803182                0.00010000                1.55243260               -0.75216342               -3.16528001               -4.70346635               15.04885151                1.43519644
              16.65819851                6.82087391               67.92442472                0.00010000                2.89930962               -1.89109134               -4.65107127               -8.09717131               17.10021476                3.34679390
              17.69319132                6.25170117               67.70709167                0.00010000                3.61929471               -1.77451854               -6.40696126              -11.87077819               20.02562623                4.77607074
              18.73058440                5.64530234               67.54291249                0.00010000                3.99618705                0.27445722               -8.47591535              -14.12627857               24.99297207                5.32243440
              19.77311507                5.02055582               67.46603960                0.00010000                3.83529411                1.95930578              -10.78420496              -14.84982447               35.54667042                2.71046179
              20.80729028                4.38061486               67.55360613                0.03736947                1.76297485                1.54471646               -7.64592925               -7.10229246               21.98153063               -0.75637090
              21.80837456                3.87311781               67.18243130                0.69621350                0.10842775                1.34558057               -3.53698892               -0.41765953                1.48713860               -0.98595832
              12.07666275               10.19934450               69.47649277                0.85960857               -0.05700165               -0.11776464                0.49886016               -0.02115994               -0.00505831                0.56992595
              13.07609273                9.75293052               69.04344277                0.24991762                0.04628453                0.02191786               -0.13767600                0.13269508                0.11327375               -0.31344626
              14.07758844                9.30851644               68.61255081                0.00010000                0.34372562                0.15218160               -0.65070825               -0.67993077                7.47169104               -1.33164137
              15.08296725                8.84504101               68.32699429                0.00010000                0.98102322                0.59964720               -1.91165244               -2.70269933               15.26888541               -2.18606106
              16.09720891                8.34488207               68.06098515                0.00010000                2.13800706               -0.14357045               -3.35162469               -5.67861554               16.74415036               -0.98707389
              17.12572739                7.80925152               67.81927943                0.00010000                3.41909151               -0.81570743               -4.98542123               -8.31781450               18.09445608                0.78561534
              18.16559074                7.24147474               67.60466945                0.00010000                4.26315404               -0.75619133               -6.67028602              -10.47586968               19.52725772                2.14487974
              19.21099047                6.64687499               67.42668272                0.00010000                4.66743456                0.10603175               -8.29662564              -11.78731604               21.92937464                2.59539274
              20.25893943                6.03351697               67.30411594                0.00010000                4.84345128                1.03833001               -9.78743966              -12.77424692               29.39664449                1.72061324
              21.30785949                5.40004010               67.32399343                0.05309702                2.56776007                1.70450655              -10.32627971               -6.68009254               18.23158640                0.00444169
              22.31029463                4.89019646               66.96176517                0.70260399                0.24351341                1.19009492               -6.33092089               -0.40298136                3.58710515               -0.29758992
              12.52212177               11.19816496               69.34846504                0.86455520               -0.00229937               -0.11265511                0.34680084               -0.03394578               -0.01214786                0.58001933
              13.52209877               10.75356509               68.91121038                0.28224648                0.09146012                0.09978389               -0.31976511                0.10724632                0.10722905               -0.25450198
              14.52395097               10.31068076               68.47618958                0.00010000                0.73157363                0.26548698               -0.78986715               -0.49315841                7.12840350               -1.01786274
              15.53673025                9.85338469               68.17934202                0.00010000                1.67356721                0.43882089               -1.19117338               -2.82855166               15.82918211               -4.25006149
              16.55742231                9.34544121               67.92180475                0.00010000                2.92596497               -0.08327581               -2.96658698               -6.43905750               18.43354690               -2.87260686
              17.59524955                8.80455976               67.68957439                0.00010000                4.43140716               -0.47979061               -5.18386009               -8.05771361               19.07842799               -0.69450638
              18.64605046                8.23657735               67.47562193                0.00010000                5.37731548               -0.42394602               -6.95250436               -9.18810243               19.11859093                0.86814478
              19.70279585                7.64742298               67.28456839                0.00010000                5.92072821               -0.04650498               -8.33279087               -9.88101097               20.02834486                1.81623086
              20.76446502                7.04132242               67.13693132                0.00010000                5.71065426                0.41519555               -9.42852918              -10.30637821               25.61181031                2.63517824
              21.81700894                6.41470499               67.10654699                0.08870232                2.77685919                1.01950140               -6.60895410               -5.73946473               15.26658707                0.38132790
              22.82000220                5.89691971               66.74292915                0.73368938                0.29932648                0.33203613               -3.13613221               -0.35894562                1.68931502               -0.09467186
              12.96518356               12.19709140               69.22074811                0.87220190                0.05382862               -0.08648100                0.20396875               -0.05605388               -0.00445376                0.57594109
              13.96572185               11.75492620               68.77955219                0.34504837                0.13610520                0.17300702               -0.53033690                0.05006766                0.23401305               -0.19123908
              14.96790567               11.31382618               68.34303867                0.00010000                1.29569584                0.35276884               -0.97821659               -0.84156130                6.17109201               -0.60232790
              15.99163577               10.85381743               68.02042034                0.00010000                2.46735085               -0.59451316                3.01294894               -2.88894666               16.45822558               -5.12709888
              17.01725269               10.34321655               67.76824390                0.00010000                4.09006049               -0.78007911               -2.55279996               -5.81295378               20.36788472               -3.34559644
              18.07343698                9.79965570               67.54689621                0.00010000                6.08563941               -0.69672422               -5.31228210               -6.73493851               20.08970854               -1.21332933
              19.13896547                9.23299582               67.33205967                0.00010000                6.75940979               -0.39795629               -7.27792619               -7.32654361               18.73835831                0.44947040
              20.20862517                8.64594489               67.13082924                0.00010000                7.32821878               -0.11773977               -8.53094548               -7.96760357               18.88739505                1.81454238
              21.28552985                8.04182088               66.96968048                0.00010000                6.44238717               -0.21471834               -9.07589783               -8.77553982               22.96359822                3.21091244
              22.33747292                7.42043012               66.89235226                0.14373409                2.65782180                0.39314584               -2.39971866               -4.97363040               13.46886283                0.47069234
              23.33868629                6.89683718               66.52558328                0.79382319                0.12133684               -0.03548119               -0.53729060               -0.20922934               -0.00957809                0.00115525
              13.40533109               13.19643534               69.09278301                0.80030478                0.10342582               -0.04075302                0.06884003               -0.07198707                0.10288837                0.48690452
              14.40636535               12.75702523               68.64863741                0.35872184                0.14487161                0.25970281               -0.80901398               -0.01453657                0.62297842               -0.12497569
              15.40822852               12.31773614               68.21471982                0.00010000                2.15977992                0.41446600               -1.15234196               -1.84888771                5.69360724               -0.21777405
              16.44956094               11.84149443               67.87193072                0.00010000                4.35482203               -2.75577275                4.11107433               -2.14658484               16.86552569               -3.45583436
              17.49532496               11.32983963               67.61935906                0.00010000                6.06052807               -1.72159839               -2.21140274               -3.44247475               21.32670449               -2.50168706
              18.57077151               10.79062528               67.39963865                0.00010000                7.89527187               -1.27551038               -5.44892927               -3.86576170               20.01449787               -0.83661813
              19.65323040               10.22861822               67.18057063                0.00010000                8.19236094               -0.57523601               -7.61602446               -4.25843489               17.71076921                0.26137072
              20.73461873                9.64506818               66.96889517                0.00010000                8.06192964               -0.07219889               -8.80936545               -5.15285083               17.33223896                1.43566233
              21.81446899                9.03702806               66.79324554                0.00010000                6.39506507                0.05073455               -8.72317465               -6.36162881               20.37621695                2.66135773
              22.86252003                8.42256791               66.67565024                0.20737577                2.42672539                0.16768342               -0.79761377               -4.43810832               12.04400608                0.43824694
              23.86300350                7.89621008               66.30726949                0.85804581                0.04834723               -0.03501578               -0.05122235               -0.06263251               -0.25142282                0.02366648
              13.84256403               14.19627634               68.96339235                0.89091723                0.15662810               -0.01589940               -0.06738456                0.10768620                0.35786346                0.40021149
              14.84413031               13.76012026               68.51798957                0.70455747                0.19473407                0.30950280               -1.10048267                0.06845478                1.11068187               -0.07598978
              15.84645871               13.32211550               68.08748543                0.47353012                4.62351356                0.43793606               -1.28130415               -4.24789501                6.47771503               -0.01385806
              16.93660058               12.79870197               67.75058041                0.31209019                7.64068141               -4.27924606                3.62988962               -1.96258197               18.63963727               -3.22826462
              17.99927234               12.30878458               67.48133297                0.30763830                8.03712825               -2.10550456               -2.32185120               -0.83308561               19.71215913               -0.79715351
              19.09734315               11.77414550               67.25431785                0.31079324               10.00407657               -1.64797843               -5.64836881               -1.70750980               17.98051363               -0.23564426
              20.19935387               11.22149110               67.02174726                0.32138230                9.99075863               -0.71271231               -7.85959512               -1.86988162               14.70337630                0.34749842
              21.29715832               10.64450091               66.79162038                0.33996737                9.07218372               -0.05672702               -9.11913098               -2.67881677               13.68201520                1.09484145
              22.38079755               10.04283557               66.59509919                0.36724760                4.61852014                0.58075119               -9.19923418               -4.40300029               17.17587170                2.18135133
              23.38952873                9.42378379               66.45639678                0.61588334                0.46758689                0.12158843               -0.76921364               -4.63406516               11.36393906                0.54703905
              24.39014929                8.89613687               66.08757433                0.93706373                0.06205607               -0.00732146               -0.20858403               -0.05011370                0.02533196                0.03701823
               9.78821453                4.34922225               71.25408254                1.00000000               -0.33667802               -0.40045152                1.40069416               -0.11399143               -0.40573887                0.52356708
              10.78484775                3.89040856               70.83969972                1.00000000               -0.25627683               -0.22099936                0.82231882               -0.08551524               -0.48910630                0.06305535
              11.78308899                3.43112453               70.42298619                0.97353509               -0.09496182               -0.04690897                0.25163483               -0.08588036               -0.50104567               -0.06697851
              12.78294851                2.97101734               70.00827790                0.54904905                0.02296220                0.13760467               -0.33016159               -0.15672894               -0.43446675               -0.41813139
              13.78354823                2.50889323               69.59335496                0.40055964                0.13367974                0.35201095               -0.94068185               -0.20478870               -0.31537289               -0.29464397
              14.78562210                2.04464334               69.18183182                0.16445104               -0.37919839                0.53639774               -1.59285697               -0.98581828                0.49294324               -0.58315563
              15.77596427                1.56352058               68.78442134                0.00010000              -10.20381186                1.41898511               -2.10402026              -18.94617810               12.94308707               -1.81397692
              16.58154587                0.71400685               68.62940367                0.00010000              -10.00196094                3.60073308               -3.34782490              -18.65327530               23.51631568                2.93461308
              17.57592505               -0.12185803               68.40231127                0.00010000                7.28673209                0.12971218               -3.30964876              -16.34863541               17.93382761                4.07284001
              18.72728051               -0.94815709               68.11490119                1.00000000                7.80005219                0.81586056               -1.50427075              -14.89809369                6.93294241                0.04334694
              19.73192609               -1.48658510               67.68774934                1.00000000                0.46455815                0.99084107               -1.99801951                0.32303646               -0.05135748               -0.05501253
              10.24588830                5.34521773               71.12461836                1.00000000               -0.28468500               -0.37317343                1.24105181               -0.02242042                0.03396163                0.73864995
              11.24304145                4.88819856               70.71003683                1.00000000               -0.19812534               -0.19954886                0.66280411                0.00367430                0.11033179                0.09036653
              12.24192579                4.43065544               70.29639617                0.93206620               -0.02722906               -0.02529617                0.08757705                0.00299842                0.14369271               -0.26144564
              13.24249687                3.97239339               69.88249538                0.52308500                0.13807769                0.15126685               -0.48715424               -0.04513942                0.31886648               -0.40657446
              14.24468735                3.51241334               69.47295463                0.44460067                0.29766895                0.34472711               -1.13399195               -0.07531003                0.43248790               -0.28207014
              15.24845025                3.05000732               69.06248371                0.22028357                0.35666908                0.53536316               -1.78146201               -0.49301785                0.64356344               -0.49512626
              16.25182073                2.57771043               68.65904142                0.00010000               -0.53739136                1.02506484               -2.46724889              -17.74946198               14.48898612               -0.95998130
              17.23770242                1.75001418               68.52875610                0.00010000               -0.41500330                0.92612619               -4.78739622              -27.23366216               23.00299413                5.79723470
              18.24352066                0.87943909               68.28385820                0.00010000                1.14803423                3.69274522               -7.20188845              -26.22442477               11.65394424               11.40762840
              19.26066311                0.06000152               67.92202706                1.00000000                1.50319020                2.36814970               -3.80590942              -15.48706303                3.33010756               -0.22623583
              20.27358447               -0.47667669               67.49491637                1.00000000                1.29213612                1.62038876               -4.33232896                0.13241403                0.05125685               -2.61293996
              10.70180445                6.34175878               70.99856190                1.00000000               -0.23209316               -0.31247958                1.07154645               -0.02499842                0.18321214                0.86448076
              11.69948352                5.88641758               70.58059584                1.00000000               -0.14251594               -0.15716677                0.50030883               -0.00053817                0.38394859                0.00615591
              12.69895413                5.43061861               70.16614173                0.00010000                0.04021500                0.02509675               -0.07439147               -0.01722520                0.86034241               -0.71674565
              13.70028782                4.97404268               69.75780731                0.00010000                0.27369854               -0.46482922               -0.63582779               -0.87906072                1.38383756                1.11713197
              14.70442810                4.51578778               69.35443025                0.00010000                0.50884196               -1.04486357               -1.30072605               -1.53219076                1.37059648                3.34623790
              15.71046466                4.05535060               68.94730582                0.00010000                0.82700287               -2.21096017               -1.95133070               -2.15143136                1.58020637                6.78171850
              16.72096816                3.58402188               68.55031045                0.00010000                1.23396539               -6.43631950               -2.63768882              -20.03326052               19.37273412               13.36024013
              17.73514397                2.73252937               68.50141361                0.00010000                1.02405278                0.17308293               -6.57547063              -33.77266524               31.05745352               11.09212539
              18.74144922                1.95199687               68.34159879                0.00010000                1.92555297                7.19060821              -12.90157808              -35.66068208                4.30898727               16.67823070
              19.77365503                1.09920590               67.72528418                0.00010000                3.32407838               18.34211105              -26.15418921              -25.52390502               -9.45892553               47.86405868
              20.80793078                0.54582267               67.25285285                0.19428193                3.42757580               22.27433962              -29.42456832               -8.35203348               -3.45860369               55.49106224
              11.15607073                7.33896814               70.87093596                1.00000000               -0.18998710               -0.24533575                0.90446346               -0.02511546                0.29217602                0.70578013
              12.15417086                6.88505523               70.44902618                0.43236208               -0.10572679               -0.11831000                0.34027599                0.01959978                0.49566320               -0.36838170
              13.15395619                6.43115738               70.03074017                0.00010000               -0.72121841                0.08128835               -0.21944528               -0.66748872                3.21823712               -1.19068768
              14.13974649                5.96309680               69.66350846                0.00010000               -1.06102915               -0.71058316               -0.63154980               -2.25968110                6.30002592                2.16392031
              15.13273561                5.49151607               69.30821230                0.00010000               -0.12794836               -2.01181394               -1.69507838               -3.56904942                7.95714414                5.94590127
              16.13718752                5.00578811               68.97578216                0.00010000                2.06205693               -4.65261443               -2.87070691               -7.51112126               12.25745161               11.60850993
              17.17397675                4.44898404               68.71380529                0.00010000                2.85433011               -9.44155450               -4.64576690              -17.35873565               18.49476760               19.08068775
              18.19427412                3.75347584               68.51831002                0.00010000               -0.51731275                1.68684637               -7.91961739              -26.08410885               23.42737740               12.42702765
              19.16363049                3.02325125               68.36976265                0.00010000               -1.89574605                9.03852885              -14.90284054              -22.05568282               49.02356589               15.52696976
              20.15635920                2.42684374               68.74129920                0.00010000                2.48398836               21.76981423              -47.80015628               -8.66647129               44.82106179               52.44395945
              21.21331026                1.96881010               68.45720721                0.41046270                5.69510569               24.26049315              -50.05113216               -2.55906158               22.67388449               56.67532234
              11.60912796                8.33685206               70.74131539                0.87401834               -0.14416867               -0.17912521                0.74980090               -0.01155220                0.04170287                0.58466695
              12.60768628                7.88405138               70.31191915                0.24028976               -0.07825907               -0.08815806                0.18046154                0.08496532                0.50155604               -0.54458815
              13.60756278                7.43224438               69.89139302                0.00010000               -0.64753871                0.08371864               -0.37043027               -0.84902182                5.31863777               -1.63462945
              14.59473550                6.95983102               69.55879723                0.00010000               -0.86034888               -0.15444329               -1.21281466               -2.08856114               10.32439734                0.89620138
              15.59035581                6.47555150               69.24250385                0.00010000                0.40193806               -1.31222711               -2.27003467               -3.69098717               12.26151758                3.65641007
              16.60277427                5.96229831               68.95486290                0.00010000                1.78749581               -3.27190889               -3.65636118               -7.40315710               15.20428581                6.76670310
              17.62610572                5.39519079               68.70848701                0.00010000                1.82101573               -3.54762313               -5.54282397              -14.04746136               19.28264270                8.28880845
              18.63919458                4.76626630               68.51977663                0.00010000                0.04309710                1.54297398               -8.62697342              -17.63768794               25.60358110                9.25920693
              19.62696766                4.13276745               68.42738306                0.00010000                0.77860855                7.99896036              -15.49911853              -14.06268778               46.07183520               11.16214663
              20.65476675                3.53460219               68.69302386                0.00010000                2.29245800                8.82318839              -29.36390920               -5.16831595               36.22140767               -0.85471880
              21.67281682                3.03103254               68.36146628                0.46756043                1.80500731                5.21838016              -26.17211081               -0.89821556               13.90995570               -1.49833463
              12.06144105                9.33538564               70.61111182                0.85804141               -0.09631989               -0.13798245                0.60404394               -0.02318431                0.00776868                0.57478694
              13.06047785                8.88329207               70.17657828                0.20599889               -0.01224643               -0.04521431                0.02603649                0.10712566                0.26850116               -0.40569847
              14.06119612                8.43283175               69.74699561                0.00010000               -0.29048527                0.07475644               -0.50007698               -0.85637308                6.66854984               -1.70107494
              15.05466814                7.96000794               69.44101529                0.00010000               -0.23737767                0.11610361               -1.51111827               -2.37160493               13.22538104               -0.52644328
              16.05644857                7.46527153               69.14897908                0.00010000                0.74084726               -0.66992587               -2.69409231               -4.38637977               14.63072534                1.10674869
              17.06948509                6.94034994               68.88082281                0.00010000                1.63054828               -1.46897979               -4.13748786               -7.56065062               16.69574182                2.75701330
              18.08905953                6.37803158               68.64534905                0.00010000                1.72293074               -0.95925092               -5.97761836              -11.05469322               19.57731789                4.02146400
              19.10394370                5.78433532               68.45751144                0.00010000                1.24906588                1.60089942               -8.68904581              -12.56261944               24.07823470                4.51403043
              20.11404085                5.18323046               68.34217530                0.00010000                2.53920448                3.91374189              -12.92021528              -10.43938512               35.03450056                3.80178881
              21.15472779                4.60330750               68.41540577                0.00010000                4.42222013                4.83868032              -24.45278780               -5.93803932               26.86291818               -7.83953135
              22.20248525                4.07317770               68.11892918                0.51659531                4.77574586                3.78636297              -22.15756953                0.01313627               14.82702378               -5.72309976
              12.51285141               10.33409241               70.48137472                0.86806866               -0.04687383               -0.12559402                0.46559663               -0.03287313               -0.00940198                0.61253018
              13.51238268                9.88314709               70.04199922                0.21439652                0.04340183                0.02235366               -0.14431558                0.09450983                0.16723918               -0.34354501
              14.51371945                9.43373950               69.60596966                0.00010000                0.12404749                0.14514106               -0.66410459               -0.88195225                7.31674388               -1.39957418
              15.51486363                8.96215309               69.30990211                0.00010000                0.42833807                0.24652069               -1.56069741               -2.59052856               14.78102104               -1.79032045
              16.52228621                8.46215298               69.03074898                0.00010000                1.19687892               -0.12680012               -2.80962290               -4.84532052               16.11432608               -0.97390686
              17.53880120                7.93291872               68.77298247                0.00010000                1.93701305               -0.41481298               -4.36707800               -7.16469342               17.49964842                0.30545580
              18.56102647                7.37600577               68.54111028                0.00010000                2.19710530                0.05126689               -6.15520152               -9.07297176               19.10654602                1.35209587
              19.58274331                6.79828429               68.34338037                0.00010000                1.90906516                1.27427125               -8.32692429               -9.79722785               21.78703673                1.76340657
              20.59920778                6.21104228               68.20077861                0.00010000                3.16577039                2.44268048              -11.50452852               -9.04631988               26.76862016                1.40265118
              21.64605872                5.63137580               68.13711560                0.00010000                6.70656861                1.58932866              -22.01532897               -5.49424184               19.52293759               -0.19249995
              22.73333915                5.10675980               67.84336592                0.53059377                8.72804306                1.96614844              -20.42728057               -2.05448714               13.01109176               -0.33665979
              12.96267422               11.33287375               70.35196440                0.87556644                0.00467300               -0.11119775                0.33307842               -0.04496126               -0.01068358                0.65441131
              13.96272095               10.88373914               69.90784937                0.23368648                0.09384280                0.09521476               -0.33545302                0.06389396                0.19598086               -0.31891220
              14.96455108               10.43573457               69.46775489                0.00010000                0.58615715                0.26282248               -0.87941954               -0.97579968                7.49214476               -1.15610134
              15.97444410                9.96493835               69.16966516                0.00010000                1.21127221                0.18739935               -1.10238025               -2.66497451               15.41318368               -2.72273731
              16.98877652                9.46273553               68.89502050                0.00010000                1.89471671               -0.04773170               -2.53957116               -4.75932087               17.10201129               -2.25608821
              18.01233843                8.93205368               68.64264707                0.00010000                2.67289997               -0.06594541               -4.38541762               -6.40804907               18.00023920               -1.08426569
              19.04223452                8.37905692               68.41033575                0.00010000                3.03120990                0.34942990               -6.21928218               -7.39278254               18.50894331                0.04688005
              20.07296263                7.80982074               68.20297050                0.00010000                2.88942112                1.05396042               -8.12213264               -7.64098621               19.59080719                0.86600092
              21.10002295                7.23208407               68.03435734                0.00010000                3.80814077                1.73894009              -10.67883447               -7.74238274               25.23622777                1.16037183
              22.14912545                6.63509408               67.98543964                0.00010000                5.53022801                0.49081244              -18.96710382               -4.16525839               18.73007297                7.54549568
              23.21062751                6.11250067               67.68339278                0.55938250                6.15020618                0.33089517              -17.27894232               -3.80528819               11.30463940                5.84250074
              13.41022142               12.33186846               70.22292543                0.88376065                0.05783206               -0.08014212                0.20194473               -0.06096393               -0.00076059                0.67917835
              14.41079974               11.88505139               69.77390246                0.27079428                0.13914140                0.17266879               -0.56021303                0.03072299                0.36025337               -0.31713990
              15.41300425               11.43899595               69.33205881                0.00010000                1.18817206                0.39668588               -1.17794102               -1.29126962                7.50552978               -0.77855108
              16.43456318               10.96590107               69.02590297                0.00010000                2.34901123               -0.30603429               -0.18793550               -2.73919169               15.46079670               -2.57387983
              17.45998447               10.46119835               68.75036143                0.00010000                2.98778271               -0.53026771               -1.90798637               -4.00564423               17.85297769               -2.50158610
              18.49431883                9.93159981               68.49951744                0.00010000                3.77096417               -0.20734153               -4.31281501               -4.94579103               18.20068161               -1.46776869
              19.53540375                9.38299437               68.26505315                0.00010000                4.12887999                0.32386671               -6.25471874               -5.45383712               17.82953351               -0.32805315
              20.57689643                8.81936350               68.04934588                0.00010000                4.18415174                0.92893514               -8.04096513               -5.61510425               17.89919975                0.84592340
              21.61908679                8.24582109               67.86459669                0.00010000                5.27202556                1.17886267              -10.21627847               -6.50277492               24.93348335                2.18803106
              22.68233695                7.64119204               67.84889362                0.00010000                4.16667022                0.61680816              -15.87661813               -3.07687520               17.65974215                7.14469916
              23.70242019                7.11337770               67.51490170                0.58639994                2.00832481                0.14108659              -13.80281838               -2.05670160                7.37797887                4.90958693
              13.85508909               13.33127091               70.09369830                0.80702609                0.11188337               -0.03896602                0.07348442               -0.06584279                0.07057317                0.61411429
              14.85620792               12.88719252               69.63998912                0.24146834                0.13934587                0.26363251               -0.83855743                0.01489833                0.83609048               -0.31399710
              15.85787600               12.44366829               69.20154320                0.00010000                2.06249768                0.52848383               -1.42973533               -2.09060727                7.79410770               -0.37707829
              16.89745787               11.95881767               68.88699847                0.00010000                4.25444513               -1.45526516                0.30130288               -2.34393032               15.20641826               -1.48814090
              17.94296491               11.45213017               68.60613047                0.00010000                4.70843590               -1.30027693               -1.52821432               -2.31748001               17.72098435               -1.61437814
              18.99162659               10.92790685               68.35246105                0.00010000                5.12145941               -0.64138594               -4.18537567               -2.63012882               17.64077704               -1.04808259
              20.04539409               10.38553425               68.11218508                0.00010000                5.31036169                0.06065536               -6.21216244               -2.91247441               16.50642746               -0.26665352
              21.09783382                9.82839945               67.88659886                0.00010000                5.13724050                0.76965383               -7.91727043               -3.26860708               16.08951020                0.68934743
              22.14813890                9.25566132               67.69129579                0.00010000                6.10987521                1.31186940               -9.87444694               -4.92369892               23.05916283                2.36774835
              23.22003133                8.64743024               67.66200787                0.00010000                3.84916303                0.59242447              -13.15020634               -3.41481720               15.24735722                4.93680485
              24.22512216                8.11532241               67.30603485                0.63317343                0.50908353                0.17130517              -10.39191520               -0.42488735                3.95662026                4.11422929
              14.29706136               14.33108914               69.96307593                0.89288271                0.16389737               -0.01817742               -0.05153364                0.12071709                0.33177125                0.55330514
              15.29870033               13.89032404               69.50630724                0.62790688                0.12527979                0.31315232               -1.11378070                0.17306561                1.51143770               -0.32448132
              16.29956695               13.44956563               69.07312294                0.39703583                4.02611805                0.58973418               -1.57540279               -3.50731855                8.29777172               -0.17651786
              17.37922269               12.93679577               68.75388787                0.31179065                7.24893699               -2.20218944               -0.32787541               -2.54215947               14.58408056                0.16902237
              18.44454569               12.43519281               68.46933993                0.30763029                6.45447455               -1.69373661               -1.45236185               -0.74310544               16.78359380               -0.63558584
              19.50831218               11.91877209               68.20689765                0.31050519                6.60579866               -0.91347545               -4.00854708               -0.88070766               15.70524006               -0.30081537
              20.57666166               11.38420747               67.95424938                0.32058832                6.65425201               -0.13267768               -5.83887273               -1.07401874               13.55731144                0.09922369
              21.64139722               10.83475658               67.71040894                0.33795275                6.24601765                0.63571276               -7.35640595               -1.25111028               12.00124755                0.84226529
              22.70158202               10.27205847               67.49078266                0.36369369                5.64911483                1.63971530               -9.23793949               -3.74149071               18.73261237                2.04352520
              23.75437952                9.65304053               67.44365205                0.52292365                2.82780501                0.56102923              -12.63969795               -4.32791471               13.73047419                6.40262472
              24.75813812                9.11680380               67.08413471                0.83954388                0.37585999                0.14813972              -10.09510241               -0.32207770                2.53141774                6.41216906
              10.20148770                4.48465181               72.26729027                1.00000000               -0.30369917               -0.35600683                1.24247417               -0.09546611               -0.39631373                0.51209645
              11.19845071                4.02148229               71.84761039                1.00000000               -0.23751324               -0.20503549                0.76033873               -0.06907112               -0.47700474                0.06022667
              12.19673744                3.55787683               71.42566241                0.97559136               -0.10400272               -0.05837775                0.28319733               -0.06987688               -0.49009079               -0.06477351
              13.19637066                3.09350398               71.00562455                0.55915913               -0.00830656                0.09491153               -0.20213811               -0.13628450               -0.43883015               -0.39930626
              14.19657131                2.62728433               70.58514331                0.39968290                0.08123616                0.27210490               -0.70549569               -0.18223390               -0.34949060               -0.29889680
              15.19799538                2.15915764               70.16766843                0.14794077               -0.59979223                0.41802506               -1.24675806               -1.09349807                0.52219144               -0.57231530
              16.18457546                1.67186646               69.76587563                0.00010000               -9.20632361                1.44902586               -1.61820677              -17.19452629               12.75838369               -1.95938669
              17.01386891                0.85127730               69.60028589                0.00010000               -8.46865585                2.64821732               -2.68679764              -16.71548859               23.96292459                2.67885732
              18.01520235                0.04739574               69.37229578                0.00010000                7.10865074               -0.93734638               -2.86852347              -13.84240608               19.33210050                3.12864458
              19.15604192               -0.74272155               69.10058446                1.00000000                7.32064389                0.63336066               -1.71721415              -12.92750098                7.90168124               -0.27717808
              20.16161522               -1.28207970               68.66888614                1.00000000                0.55733008                0.77206084               -2.12108985                0.23000895                0.04049354               -0.42266094
              10.66370256                5.48109174               72.13630948                1.00000000               -0.25550709               -0.33373349                1.09833531               -0.01845061                0.03408472                0.72255436
              11.66114749                5.01943193               71.71643205                1.00000000               -0.18373666               -0.18605130                0.61633523                0.00573344                0.11130032                0.08606758
              12.66002783                4.55729305               71.29752110                0.93824646               -0.04217123               -0.03874462                0.13663194                0.00360682                0.14748316               -0.25853823
              13.66030406                4.09445309               70.87836683                0.55671406                0.09471556                0.10487274               -0.34014685               -0.04164877                0.29315820               -0.38235420
              14.66192214                3.63000538               70.46294376                0.45631577                0.22326348                0.26505532               -0.87281515               -0.07316513                0.37584632               -0.27196719
              15.66476933                3.16333789               70.04656565                0.21206857                0.23241162                0.41992733               -1.41017743               -0.52325636                0.56926702               -0.47247166
              16.66657037                2.68635672               69.63677824                0.00010000               -0.29099756                0.97676604               -1.99836964              -16.47834861               13.58389511               -0.99961873
              17.65894938                1.87775947               69.48359624                0.00010000                0.36036694                0.22690137               -4.19259658              -25.19201995               21.93377593                5.59503161
              18.67377771                1.03802228               69.22640730                0.00010000                1.62776269                1.20937184               -4.87734720              -22.03880168               13.29151250                8.26798079
              19.69150464                0.26361206               68.88351016                1.00000000                1.47478823                0.19926890               -3.24664098              -11.72921109                4.66991484               -2.11959197
              20.70327347               -0.27435910               68.45114694                1.00000000                1.17688369                0.28270102               -3.69250117               -0.11878413               -0.17930509               -2.52012164
              11.12443830                6.47797714               72.00865283                1.00000000               -0.20742327               -0.28448972                0.94728814               -0.02187962                0.17981547                0.84696018
              12.12236407                6.01776126               71.58545402                0.96904882               -0.13249405               -0.14735220                0.47060448               -0.00066745                0.37819326                0.00160151
              13.12178842                5.55710194               71.16573449                0.00010000                0.02306466                0.00739243               -0.00873942               -0.02414151                0.86186704               -0.70561807
              14.12282536                5.09560143               70.75229166                0.00010000                0.22173951               -0.52393098               -0.46940720               -0.88787170                1.34627519                1.12233419
              15.12622321                4.63258543               70.34285070                0.00010000                0.41767763               -1.08541748               -1.02034350               -1.51716316                1.29048100                3.24169239
              16.13117891                4.16755619               69.92976768                0.00010000                0.71818501               -2.22653905               -1.56383971               -2.15269515                1.48303589                6.45395438
              17.14058691                3.69140178               69.52630023                0.00010000                1.35920202               -6.23842169               -2.17291026              -19.05613171               17.85125372               12.51614300
              18.15836295                2.85581533               69.44265170                0.00010000                2.39934090               -0.44141549               -5.78598578              -33.00576522               26.87427823               10.89368705
              19.18857373                2.07158318               69.19660794                0.00010000                3.77380616                5.17322460              -12.80864300              -34.72725931                4.25936600               15.20473666
              20.23383907                1.26126383               68.63028458                0.01578385                2.33040657                8.77809585               -4.62789660              -21.75562511               -5.29019836               25.90410329
              21.23518186                0.72357432               68.19304405                0.67484078                0.13427822                7.77668614               -2.89357002                2.31863030               -0.58983369               27.27483661
              11.58369671                7.47540194               71.87945181                1.00000000               -0.16873756               -0.22893950                0.79863307               -0.02650718                0.28838083                0.70097029
              12.58200934                7.01648489               71.45236507                0.40063867               -0.09959431               -0.10855078                0.32614759                0.00688364                0.49363537               -0.37472048
              13.58170483                6.55744090               71.02896583                0.00010000               -0.74731018                0.06880532               -0.13974379               -0.70656827                3.19660385               -1.18144568
              14.56706313                6.08397447               70.65610559                0.00010000               -1.10403538               -0.74705194               -0.70584488               -2.29460447                6.19679848                1.97206559
              15.55962412                5.60829703               70.29247424                0.00010000               -0.20820252               -2.01493388               -1.49531306               -3.57327465                7.73076807                5.68982396
              16.56289908                5.11880711               69.94939414                0.00010000                1.87822372               -4.50947206               -2.53594309               -7.43628650               12.01174757               10.94020436
              17.59718859                4.56158829               69.67007479                0.00010000                2.78767991               -9.01021291               -4.30584494              -17.11445031               17.84427884               17.85739874
              18.61865268                3.86893116               69.44016958                0.00010000               -1.17022881                1.57766140               -7.82628060              -26.14591048               22.88972187               11.57408509
              19.57378402                3.14148677               69.24531243                0.00010000               -0.71258429                8.67889781              -12.85359702              -28.94464981               25.52462466               17.14378435
              20.60440100                2.43917398               69.00744376                0.00010000               12.56205479               20.83404941              -65.97979576              -20.06694752               19.81633382               31.10511607
              21.82502511                1.88117463               68.58799337                0.46790551               22.06241177               22.40109330              -73.70630811               -5.31062856                7.86308095               33.17245365
              12.04174226                8.47339835               71.74838884                0.87538310               -0.12794808               -0.17226468                0.66240460               -0.01867229                0.03075500                0.59879090
              13.04046278                8.01559025               71.31369113                0.21417704               -0.07873958               -0.07760979                0.17557456                0.05867044                0.50060780               -0.55412433
              14.04016747                7.55847804               70.88807453                0.00010000               -0.71928179                0.07990438               -0.29342538               -0.90203103                5.22588321               -1.65362405
              15.02607714                7.08066039               70.54811746                0.00010000               -1.01211958               -0.21082328               -1.01695221               -2.17902091               10.13197138                0.69543451
              16.01992508                6.59228676               70.22144993                0.00010000                0.15423895               -1.30472827               -2.02277104               -3.74528286               12.04613281                3.31353247
              17.02916192                6.07736675               69.92038522                0.00010000                1.41243844               -3.04562505               -3.37280403               -7.41224694               15.08426765                6.15631847
              18.04817385                5.51119752               69.65553416                0.00010000                1.31921677               -3.10405506               -5.36996846              -13.95688645               19.06921949                7.50191987
              19.05554626                4.88736856               69.43300735                0.00010000               -0.43679656                2.15240256               -8.73454041              -18.46831105               25.01792684                8.45946573
              20.03943792                4.24516113               69.27570787                0.00010000                1.86330041                9.08546397              -17.38165185              -13.36484999               33.83812209                9.05778287
              21.09281227                3.67794482               69.18421904                0.00010000               10.27650372               17.02792576              -43.79316277               -5.50855944               26.38192326               12.29199817
              22.24496799                3.17159618               68.86930601                0.43643069               15.21557230               19.77907692              -46.67141737               -6.99270959               17.22853902               16.37294691
              12.49893946                9.47195665               71.61683100                0.86525217               -0.08364168               -0.13279086                0.53341829               -0.02822222                0.00253363                0.60963856
              13.49810305                9.01493269               71.17683165                0.18097090               -0.01727021               -0.04008576                0.02887142                0.07310689                0.28194218               -0.42662362
              14.49859406                8.55903899               70.74218000                0.00010000               -0.42145222                0.06438193               -0.45714863               -0.96608641                6.52364605               -1.77538850
              15.48967400                8.07975801               70.42738580                0.00010000               -0.52909753               -0.00378343               -1.28153751               -2.45526595               12.94926502               -0.58573525
              16.48801211                7.58220246               70.12414997                0.00010000                0.30346873               -0.64621240               -2.39081106               -4.26867053               14.38362409                0.88786955
              17.49574338                7.05789461               69.84167496                0.00010000                1.00184721               -1.19151872               -3.85281893               -7.32490731               16.59239974                2.29078262
              18.50804905                6.49950718               69.58753930                0.00010000                0.97897358               -0.38337834               -5.86750779              -10.83827426               19.58543395                3.28488409
              19.51532285                5.91197922               69.36913158                0.00010000                0.39308495                2.46577528               -9.15978148              -12.23972623               24.32651931                3.66383917
              20.51591075                5.32319605               69.20763529                0.00010000                2.62359547                6.21134068              -15.19768016               -8.55540166               28.70397963                2.64367055
              21.56779476                4.77973249               69.06455038                0.00010000                9.09787236                7.41057023              -32.21498250               -4.17606074               20.84267366               -1.39328045
              22.69786820                4.27675616               68.73927991                0.43395953               13.00734413                7.37017442              -35.50062448               -4.64524198               12.60939228               -0.68189828
              12.95522573               10.47074253               71.48580470                0.87933974               -0.03831485               -0.11270889                0.40886919               -0.03546528               -0.01180660                0.66800574
              13.95484258               10.01478853               71.04055645                0.18683666                0.03973508                0.01754524               -0.13438720                0.05740070                0.19392955               -0.38819110
              14.95602043                9.55976568               70.59926872                0.00010000               -0.05171126                0.12152992               -0.65671504               -1.04098950                7.26561518               -1.54567397
              15.95380835                9.08058472               70.29578034                0.00010000                0.01973188                0.15855384               -1.37116197               -2.61744386               14.51678975               -1.57535197
              16.95641507                8.57936251               70.00479269                0.00010000                0.57753508               -0.07477351               -2.51508717               -4.42899193               15.71363196               -0.91812919
              17.96535905                8.05353637               69.73193787                0.00010000                1.04543443               -0.07775640               -4.03673171               -6.58184236               17.26566834               -0.04024832
              18.97732375                7.50352996               69.48156542                0.00010000                1.08519078                0.70324465               -6.00170169               -8.44977337               19.28594471                0.63707784
              19.98706287                6.93668406               69.26014423                0.00010000                1.16264250                2.33991365               -8.75611658               -8.94372244               22.08110431                0.87426960
              21.00057660                6.36938795               69.07402537                0.00010000                3.43340327                3.87578645              -13.83446521               -6.98590744               23.98229503                0.32235771
              22.05573094                5.82615623               68.88368685                0.00010000                7.87196017                3.70521915              -24.31611298               -3.78040393               16.80211769               -0.26186989
              23.15801581                5.31899967               68.55321956                0.43167166               10.22848724                3.27388904              -28.00033947               -3.09963019                9.02325615                0.84723259
              13.41013815               11.46970247               71.35512661                0.88875641                0.00897553               -0.09007272                0.28344731               -0.04245882               -0.00959700                0.72501176
              14.41022791               11.01528360               70.90450132                0.19941292                0.09199628                0.08275652               -0.31471852                0.03590383                0.22970670               -0.39373458
              15.41197808               10.56146959               70.45860118                0.00010000                0.37501967                0.23505833               -0.90897509               -1.11795933                7.68342030               -1.39545334
              16.41772830               10.08292908               70.15729441                0.00010000                0.72512733                0.22108968               -1.29695587               -2.60109329               15.27599085               -2.05727971
              17.42648062                9.58070699               69.87101333                0.00010000                1.11053910                0.13561758               -2.39079715               -4.11534484               16.41317133               -1.90915079
              18.43993908                9.05633948               69.60186604                0.00010000                1.47126357                0.34749929               -3.99063706               -5.48675390               17.45715878               -1.30091246
              19.45590590                8.51357208               69.35123629                0.00010000                1.53256633                1.05277366               -5.90167952               -6.45790208               18.53001344               -0.68157115
              20.47059041                7.95877749               69.12212573                0.00010000                1.54072723                2.12754676               -8.34627683               -6.64287727               20.25462064               -0.30729091
              21.48672044                7.40071178               68.92335463                0.00010000                3.59922741                2.96275479              -12.43421332               -6.04327230               21.76152483                0.43588842
              22.54257496                6.85383688               68.72720492                0.00010000                8.17341334                3.02998243              -24.02180771               -3.69230049               15.22421753                3.84172876
              23.65018871                6.34223395               68.39735030                0.43726568               10.76137497                2.66935926              -27.19858805               -1.34959785                9.05365515                5.22383158
              13.86321429               12.46894107               71.22478701                0.89629663                0.05792437               -0.05676762                0.15354055               -0.04860313               -0.00178746                0.75935395
              14.86379354               12.01644366               70.76834793                0.22186986                0.14007309                0.15284550               -0.51811730                0.02700620                0.37475975               -0.43438362
              15.86601576               11.56446685               70.31947985                0.00010000                0.93777723                0.38304301               -1.25266704               -1.31569520                8.05169010               -1.07621583
              16.88254908               11.08500652               70.01666163                0.00010000                1.73410078                0.04088152               -1.13887726               -2.55091283               15.61980804               -1.95872473
              17.90069777               10.58207486               69.73008417                0.00010000                2.01049038               -0.10667141               -2.12138917               -3.33593572               16.61888478               -2.02084599
              18.92275889               10.06048636               69.46063991                0.00010000                2.25149661                0.29719689               -3.78467792               -3.99480359               17.25779740               -1.61941057
              19.94572770                9.52458543               69.20696530                0.00010000                2.21533667                1.02584232               -5.69985826               -4.39680620               17.56636195               -1.07031970
              20.96706562                8.97923500               68.97000994                0.00010000                1.94620328                1.95072890               -7.95493740               -4.46172922               18.69951329               -0.43188546
              21.98465177                8.42864304               68.76535491                0.00010000                3.66485664                2.87426405              -11.44949542               -3.94781618               20.16253440                0.85614809
              23.04036276                7.88675587               68.57481989                0.00010000                8.47889710                3.63543485              -24.74010968               -2.30515139               13.45218316                5.68019277
              24.15422971                7.37238686               68.24952691                0.44972538               11.38669553                3.35138534              -26.06115330               -1.24223974                9.17335417                7.83972409
              14.31416091               13.46856712               71.09425269                0.81392581                0.10813429               -0.01769528                0.02105936               -0.04653353                0.05191959                0.70637705
              15.31524226               13.01834051               70.63186626                0.16434575                0.14702024                0.22753594               -0.74371480                0.05409259                0.87690861               -0.46543569
              16.31710132               12.56913045               70.18612511                0.00010000                1.69298888                0.54794029               -1.54059588               -1.78880152                8.62284971               -0.67484062
              17.34910203               12.08374671               69.87795678                0.00010000                3.35903765               -0.83514474               -1.13817589               -2.05203823               15.62315072               -1.21918183
              18.38428207               11.57857356               69.58879477                0.00010000                3.42152040               -0.62104592               -1.87945134               -2.01133139               16.35439222               -1.29934406
              19.41753244               11.06228342               69.31593114                0.00010000                3.24695304               -0.06151837               -3.49706537               -2.03525126               16.50358650               -1.14434526
              20.44922113               10.53408892               69.05632738                0.00010000                2.98828846                0.73807689               -5.33324683               -2.16151241               16.15756027               -0.81787424
              21.47729821                9.99779207               68.81054977                0.00010000                2.55110539                1.72455318               -7.42213135               -2.11537487               16.67034233               -0.30501947
              22.50024324                9.45819706               68.59575660                0.00010000                3.77149534                2.80446476              -10.68437112               -1.68457906               18.50769314                0.92144303
              23.55272812                8.92654557               68.41264612                0.00010000                7.69193553                5.08960215              -23.39419468               -0.92560035               12.29765422                5.12367041
              24.65408195                8.40926165               68.09943118                0.47870110               10.13538325                4.78968289              -23.30150820               -1.44926165                8.81188266                7.30805990
              14.76273684               14.46858717               70.96236168                0.89450779                0.15752175                0.00200495               -0.10777307                0.09831429                0.33492099                0.66073458
              15.76431206               14.02099438               70.49571396                0.57769381                0.10483385                0.26538720               -0.95865012                0.24890482                1.66887514               -0.50179682
              16.76483352               13.57542566               70.05597737                0.34779849                3.38765707                0.62952075               -1.78816657               -2.86131765                9.50210104               -0.57941448
              17.83206520               13.06830362               69.74402290                0.31162971                5.85504596               -1.54430911               -1.11406969               -1.99226881               15.41784977               -0.33444054
              18.88193444               12.56965394               69.45228573                0.30769731                4.72366511               -0.89196217               -1.72534972               -0.68714482               15.67382959               -0.38969490
              19.92653851               12.05925599               69.17414691                0.31036386                4.25271839               -0.30274289               -3.04299484               -0.61474243               15.10936943               -0.41739914
              20.96698881               11.53934697               68.90496980                0.31975565                3.70557433                0.52580435               -4.53127522               -0.49972887               13.79775864               -0.24661842
              22.00064999               11.01372606               68.64449226                0.33603336                2.76089369                1.59339939               -6.11787970               -0.39555339               13.21825213                0.08799089
              23.02220668               10.48473234               68.41034040                0.36004828                3.50680819                2.65352801               -8.67480299                0.93743700               13.89880596                1.01638375
              24.07078616                9.98854792               68.20360282                0.44025903                6.88028195                6.20023435              -20.87133854                0.97821247                8.95627580                4.90950905
              25.15981232                9.46818051               67.88567228                0.75651159                8.90261654                5.89188605              -20.69855181               -1.46370337                5.85125522                7.07588298
              10.61964801                4.62142575               73.27893202                1.00000000               -0.27124978               -0.31194928                1.08780914               -0.07791249               -0.39084906                0.50429252
              11.61693551                4.15396977               72.85490650                1.00000000               -0.21874951               -0.18934840                0.69929160               -0.05366935               -0.47026573                0.05818825
              12.61527302                3.68611169               72.42865013                0.97841436               -0.11222488               -0.06990953                0.31357576               -0.05439024               -0.48436290               -0.06280679
              13.61469101                3.21754665               72.00423513                0.57146678               -0.03792369                0.05325504               -0.07807653               -0.11522965               -0.44188151               -0.38194227
              14.61451454                2.74731439               71.57924504                0.40158526                0.03212993                0.19522205               -0.47993209               -0.15811121               -0.37519788               -0.30132985
              15.61533361                2.27540259               71.15689666                0.13358094               -0.80000327                0.30560387               -0.91590162               -1.17258758                0.57380447               -0.56413907
              16.59851448                1.78252763               70.75205721                0.00010000               -8.04746996                1.47658299               -1.15732373              -14.92660855               12.56222743               -2.11616467
              17.45438421                1.00096330               70.57566772                0.00010000               -6.81229934                1.85857152               -2.41650278              -14.26532387               23.86649454                2.14715446
              18.46226849                0.23249181               70.34494080                0.00010000                6.71697829               -1.20052717               -2.71889120              -11.30891679               20.05121588                2.81219610
              19.58872378               -0.51955205               70.08055690                1.00000000                6.69320566                0.74616068               -2.29695005              -10.54278717                8.46806571               -0.26113083
              20.59613260               -1.05955991               69.64532755                1.00000000                0.74088269                0.83228805               -2.59209507               -0.14156530                0.05768486               -0.38650975
              11.08632486                5.61830625               73.14658506                1.00000000               -0.22690148               -0.29350481                0.95824698               -0.01547774                0.03310272                0.71155493
              12.08405584                5.15207629               72.72236353                1.00000000               -0.16920914               -0.17265871                0.56993347                0.00682791                0.11068412                0.08318960
              13.08294067                4.68541260               72.29912881                0.94585756               -0.05592379               -0.05250890                0.18346841                0.00418674                0.15076338               -0.25616651
              14.08293737                4.21807920               71.87569245                0.59595549                0.05323915                0.06019777               -0.19780523               -0.03699415                0.27576908               -0.35920215
              15.08400546                3.74926661               71.45549833                0.47526282                0.15318725                0.18883831               -0.62332956               -0.06867061                0.33315942               -0.26247476
              16.08600111                3.27845863               71.03428016                0.20938892                0.12312904                0.30993027               -1.05622672               -0.53154543                0.50069448               -0.45434749
              17.08646804                2.79729346               70.61907403                0.00010000                0.03738832                0.92602791               -1.55340156              -14.61574356               12.73171684               -1.06402284
              18.08674888                2.01954901               70.44490417                0.00010000                1.14844786               -0.35667574               -3.49772717              -21.44346525               21.28808248                5.04685806
              19.10943700                1.22048654               70.18631126                0.00010000                2.12864452                0.23473315               -3.66034865              -17.74521479               14.11947473                5.57007166
              20.12932177                0.48790956               69.85709424                1.00000000                1.26439085                0.64532126               -2.06668695               -9.45162007                5.51613429               -0.32469811
              21.13472481               -0.05123703               69.42106634                1.00000000                0.54030439                0.70164432               -2.33866116               -0.19053034               -0.20059469               -0.53960679
              11.55179839                6.61555565               73.01750766                1.00000000               -0.18326618               -0.25273603                0.82417252               -0.01955640                0.17628945                0.83619274
              12.54996572                6.15051660               72.59000793                0.96060281               -0.12222738               -0.13762901                0.43949460               -0.00102177                0.37301834               -0.00136797
              13.54935384                5.68506151               72.16596694                0.00010000                0.00656963               -0.01120818                0.05333156               -0.02794635                0.86732094               -0.69710099
              14.55009712                5.21875060               71.74841916                0.00010000                0.17039292               -0.56834458               -0.30904052               -0.83668375                1.32034938                1.07052434
              15.55276170                4.75109115               71.33402338                0.00010000                0.32893655               -1.12766443               -0.75321263               -1.35462222                1.22560693                3.06619796
              16.55667585                4.28160120               70.91602902                0.00010000                0.61737634               -2.22419823               -1.19268731               -1.81110798                1.38486307                6.02393934
              17.56510922                3.80104819               70.50685225                0.00010000                2.28229860               -6.01976838               -1.72509448              -16.70762820               16.12846738               11.49871335
              18.60232182                2.99382978               70.38569390                0.00010000                3.69472132               -1.24735620               -5.50839087              -28.68898324               23.32653342                9.99947341
              19.63900365                2.23718648               70.08542593                0.00010000                3.45465655                3.32702323               -8.77399632              -25.15317995                7.28699422               13.69757860
              20.67141495                1.49335437               69.63272625                0.97730741                1.58057620                0.35510227                0.04246180              -10.10151693               -0.79476862                0.51189700
              21.67061517                0.95447297               69.19498144                1.00000000               -0.07997772                0.36171228               -0.00878053               -0.15074828               -0.06114553                0.29687434
              12.01601184                7.61325153               72.88690862                1.00000000               -0.14822935               -0.20534768                0.69214517               -0.02577765                0.28507376                0.70244424
              13.01452954                7.14932371               72.45554913                0.37449364               -0.09320488               -0.10071441                0.30992362               -0.00080365                0.49273091               -0.38136640
              14.01414774                6.68518843               72.02794530                0.00010000               -0.71777459                0.04481048               -0.06694792               -0.71555614                3.12559664               -1.18126784
              15.00017405                6.20671231               71.64939156                0.00010000               -1.00426608               -0.81455510               -0.63248497               -2.22863545                6.06445384                1.85607842
              15.99406242                5.72671332               71.27830604                0.00010000               -0.01760679               -2.04723704               -1.36857033               -3.32443141                7.51999722                5.33375913
              16.99982192                5.23397467               70.92506329                0.00010000                2.30122353               -4.42286673               -2.39586595               -6.80578387               11.54227824               10.19171573
              18.04008689                4.67689809               70.62768839                0.00010000                3.85045026               -8.66417568               -4.30800433              -15.48070110               16.57501323               16.40704278
              19.07683092                3.99460189               70.36178440                0.00010000                3.33809575                0.63319176               -7.62635213              -23.64067523               20.56461834               11.00582458
              20.10684880                3.28702701               70.11269071                0.00010000                6.65870067                5.72068805              -14.49799798              -29.30377612                4.71218670               14.53946926
              21.21000494                2.49501160               69.42170328                0.00010000                5.13119227               11.49905801              -29.21630991              -20.68188359               -4.26590749               22.57899625
              22.20947265                1.95599721               68.98308105                0.45622869               -0.05322856               12.63659834              -30.17352582               -5.07151474               -2.71648445               25.94893215
              12.47913849                8.61144870               72.75456348                0.88020470               -0.11257350               -0.15444918                0.57049336               -0.02071023                0.02064475                0.61698082
              13.47801275                8.14850231               72.31543064                0.19397534               -0.07421861               -0.07147163                0.17367639                0.03735830                0.49702756               -0.56663280
              14.47765412                7.68595772               71.88552451                0.00010000               -0.70066151                0.04706779               -0.21623909               -0.95378271                5.09887244               -1.70024590
              15.46399952                7.20245950               71.53845818                0.00010000               -0.93217031               -0.30409736               -0.94211739               -2.21509439                9.88516085                0.55509578
              16.45901071                6.71014641               71.20204843                0.00010000                0.31879374               -1.35135776               -1.92667029               -3.67730883               11.71820015                3.00717200
              17.47037540                6.19314386               70.88740682                0.00010000                1.79286353               -2.96808675               -3.33952207               -7.21299510               14.57307035                5.59446531
              18.49486798                5.62776467               70.60108764                0.00010000                2.45020008               -2.96000498               -5.52990701              -13.67127689               18.21158971                6.80101234
              19.51937940                5.00649362               70.34508583                0.00010000                2.88252175                1.79366664               -9.28354459              -19.13086299               21.06933908                7.74675013
              20.55251842                4.35160024               70.07975002                0.00010000                3.47138382                7.53796838              -17.62257868              -19.86526225               23.82546495                8.05890472
              21.58880708                3.72333553               69.81716060                0.00010000                4.73476210               19.04812435              -31.75167785              -15.72317910               16.40151970               25.01420159
              22.64721366                3.20720494               69.42803793                0.40682882                5.84065815               20.98144893              -37.06339359               -6.82599027                2.85461416               27.98244280
              12.94149041                9.61016255               72.62178019                0.87524961               -0.07227263               -0.11458928                0.45189577               -0.02816325               -0.00125015                0.64264336
              13.94076769                9.14789427               72.17715571                0.16594274               -0.01877592               -0.03943527                0.03969710                0.03758675                0.27568706               -0.44994668
              14.94111489                8.68612979               71.73785264                0.00010000               -0.45421044                0.02235605               -0.39711968               -1.05550797                6.37285236               -1.88273059
              15.93168348                8.20063036               71.41538454                0.00010000               -0.56415062               -0.08610341               -1.18135007               -2.53838513               12.65151300               -0.64340756
              16.92983188                7.69968616               71.10116286                0.00010000                0.31301382               -0.66096855               -2.29853380               -4.23134113               14.00346437                0.72700100
              17.93794375                7.17461293               70.80376644                0.00010000                1.17398584               -1.06105930               -3.84993573               -7.25108643               16.13634784                1.94627944
              18.95331160                6.61769799               70.52799889                0.00010000                1.62171720               -0.13571674               -6.12557193              -11.02333400               18.83886487                2.80511202
              19.97037810                6.03047522               70.27431581                0.00010000                1.96950225                2.81409551               -9.81024693              -13.36927812               21.91394292                3.07096619
              20.99270164                5.43778638               70.03822169                0.00010000                3.47792783                7.50849322              -16.72906783              -12.58542437               22.82051776                3.68376327
              22.03993665                4.87597409               69.77110612                0.00010000                5.62561959               12.00741609              -26.11795224               -7.40301915               15.51913408                1.71153010
              23.10521403                4.37562619               69.40891670                0.39899223                6.52773811               12.92145586              -29.75811906               -3.65853040                6.07711471                2.60789982
              13.40311178               10.60915691               72.48955211                0.89259067               -0.03145256               -0.08854334                0.33446357               -0.03220796               -0.01268461                0.70960151
              14.40279725               10.14771360               72.03931147                0.17256022                0.03480473                0.00893477               -0.10719186                0.01603813                0.18175795               -0.42870170
              15.40380787                9.68640484               71.59283536                0.00010000               -0.15609022                0.07422936               -0.60081100               -1.13323347                7.15665977               -1.71523194
              16.39967545                9.20073743               71.28247887                0.00010000               -0.17032775                0.11405554               -1.32095155               -2.68047537               14.25864078               -1.50279459
              17.40040132                8.69692704               70.98044723                0.00010000                0.38331971               -0.02125637               -2.44998307               -4.30891564               15.30095663               -0.90314993
              18.40734184                8.17192268               70.69224783                0.00010000                0.90688475                0.13602295               -4.03125222               -6.42809044               16.83780137               -0.24555685
              19.41853901                7.62505034               70.42107625                0.00010000                1.22818065                1.11638138               -6.22889587               -8.49418235               18.77839493                0.23443057
              20.43190545                7.06277553               70.16825804                0.00010000                1.83860253                3.16669980               -9.56676404               -9.38608162               20.67946096                0.42211713
              21.45531106                6.50177010               69.92408931                0.00010000                3.55007123                5.58429607              -15.00711634               -8.09095282               20.34037392                0.04111780
              22.50290688                5.96348386               69.65079334                0.00010000                5.97138911                7.24107605              -21.91793108               -4.82292868               13.28372280               -0.44764834
              23.57473884                5.46563406               69.28335913                0.39813857                7.18319658                7.25218841              -25.20852978               -2.47518937                5.86083257               -0.09537256
              13.86373287               11.60839168               72.35763335                0.90265834                0.01076456               -0.06137283                0.21257500               -0.03426941               -0.00720000                0.76734388
              14.86384052               11.14807297               71.90155500                0.18337130                0.08467616                0.06425858               -0.26351598                0.00137679                0.19868095               -0.45162913
              15.86542639               10.68761438               71.44957538                0.00010000                0.18556283                0.17714341               -0.84301381               -1.16225065                7.68638413               -1.65342500
              16.86755177               10.20291147               71.14372604                0.00010000                0.35209654                0.26633896               -1.37236487               -2.58368837               15.15477778               -1.91086052
              17.87246832                9.69926104               70.84720456                0.00010000                0.68534365                0.30364698               -2.42213729               -3.87977578               15.96339652               -1.76404971
              18.88125865                9.17733339               70.56283433                0.00010000                1.00533879                0.66119107               -3.96381478               -5.19918014               16.99999911               -1.42932706
              19.89257510                8.64002562               70.29230216                0.00010000                1.23390272                1.57232707               -6.04186533               -6.23511107               18.23234978               -1.12429466
              20.90593670                8.09380922               70.03604496                0.00010000                1.87995788                2.97631143               -8.99347064               -6.49808427               19.37841610               -0.90124409
              21.93017426                7.54947230               69.78567307                0.00010000                3.68387135                4.43859895              -13.88599389               -5.53985713               18.66319791               -0.48081579
              22.97961413                7.02079561               69.50500348                0.00010000                6.06177944                5.29354230              -20.56532581               -3.22503043               12.07175916                0.29890939
              24.05140985                6.52066996               69.13942102                0.39993475                7.17957196                5.12286216              -23.86555791               -1.92584500                5.09271555                1.48541565
              14.32306382               12.60792946               72.22599624                0.91008508                0.05382780               -0.02839506                0.08517244               -0.03469445               -0.00215743                0.79816916
              15.32360209               12.14899877               71.76354012                0.20092395                0.13302701                0.12224041               -0.43012835                0.00257080                0.28885190               -0.50976135
              16.32572436               11.68994771               71.30700547                0.00010000                0.63764623                0.30297874               -1.15006635               -1.20592387                8.19359870               -1.38319243
              17.33635502               11.20606421               71.00312542                0.00010000                1.13297619                0.20806404               -1.38472567               -2.36241402               15.72414144               -1.85311462
              18.34838388               10.70299998               70.70793365                0.00010000                1.31193173                0.23403455               -2.28349690               -3.06538243               16.20581428               -1.88414931
              19.36259365               10.18514650               70.42382388                0.00010000                1.44885412                0.70897776               -3.73310754               -3.67980166               16.76476104               -1.73431479
              20.37736096                9.65649688               70.15105599                0.00010000                1.49517183                1.55733206               -5.67543288               -4.07465852               17.42831277               -1.54663436
              21.39249709                9.12230176               69.89024713                0.00010000                2.00832819                2.70037600               -8.33345078               -4.00400218               18.11703165               -1.28130060
              22.41752753                8.59054208               69.63560679                0.00010000                3.73557585                3.98161950              -13.06448100               -3.34624477               17.49632267               -0.49251536
              23.46720861                8.06935470               69.35409143                0.00010000                5.94728584                5.01625547              -20.10605539               -1.98775406               11.38706793                0.84736996
              24.53647324                7.56809130               68.99367863                0.40397419                6.92646363                5.23341358              -23.57589351               -1.30734832                4.44552769                2.42807494
              14.78090034               13.60782378               72.09411948                0.82203804                0.09733323                0.00782041               -0.04710009               -0.03103052                0.04692538                0.74504495
              15.78187368               13.15051778               71.62511482                0.13414151                0.16710676                0.17969680               -0.59862412                0.03551054                0.76632577               -0.54636593
              16.78424248               12.69367395               71.17073128                0.00010000                1.26887747                0.41625521               -1.41562176               -1.39346778                8.92895173               -1.04073539
              17.80725122               12.20707275               70.86423495                0.00010000                2.39179559               -0.40447487               -1.39484048               -1.74079595               16.01500276               -1.27527544
              18.83207839               11.70394173               70.56854144                0.00010000                2.34572439               -0.12914975               -2.09146969               -1.80227036               16.12857030               -1.24207201
              19.85416571               11.19151295               70.28251974                0.00010000                2.09241412                0.44230380               -3.37504466               -1.87738091               16.19101547               -1.23080185
              20.87392667               10.67117226               70.00552014                0.00010000                1.88228709                1.27466900               -5.11224087               -1.93928459               16.30094175               -1.17094196
              21.89181145               10.14781674               69.73815623                0.00010000                2.11348720                2.31648204               -7.48455212               -1.70865005               16.57992798               -0.99815622
              22.91619642                9.62910469               69.47760837                0.00010000                3.52491871                3.63382271              -11.87256258               -1.18879843               15.86076356               -0.45408988
              23.96230983                9.12112072               69.19412398                0.00010000                5.57966344                4.99812973              -19.38211030               -0.64009547               10.40287581                0.53372583
              25.02778969                8.62533823               68.84000468                0.40913445                6.54798566                5.88739794              -23.43819701               -0.85069578                4.33374912                2.10087824
              15.23705521               14.60808586               71.96092047                0.89700482                0.14069217                0.02620814               -0.17473779                0.06617186                0.33929490                0.70085933
              16.23846214               14.15259271               71.48713424                0.55727038                0.21224059                0.20749330               -0.75827157                0.16819374                1.52194983               -0.57945402
              17.24130003               13.69827282               71.03735961                0.32657378                2.64045935                0.45988660               -1.73700542               -2.02514493               10.11382149               -1.09161729
              18.29127132               13.19797472               70.73160647                0.31131476                4.32991261               -0.90980363               -1.26915325               -1.49078169               16.14615333               -0.41851630
              19.32789828               12.70041698               70.43483294                0.30777317                3.32720886               -0.35247412               -1.80902134               -0.61711816               15.82905160               -0.48641681
              20.35781550               12.19399257               70.14603775                0.31019630                2.71866003                0.24796290               -2.84718446               -0.55635744               15.39492575               -0.51536154
              21.38227148               11.68199026               69.86362387                0.31890440                2.12880809                1.08179996               -4.19204320               -0.43357818               14.90971134               -0.53423039
              22.40039166               11.16863140               69.58805135                0.33413483                1.90880483                2.08146601               -5.96967937               -0.08056537               14.59359601               -0.50414349
              23.42044758               10.66321854               69.31728660                0.35649884                2.88907457                3.41138496               -9.51609088                0.45941094               13.72727999               -0.17869492
              24.45817315               10.16931730               69.02622528                0.38742036                4.52883636                4.81965784              -15.87737442                0.71736861                8.53262083               -0.73996294
              25.51102430                9.68583926               68.67016368                0.70643818                5.28511495                6.05010280              -19.70104178               -0.02434204                2.97686566                0.95435775
              11.04172177                4.75943158               74.28904645                1.00000000               -0.23944866               -0.26843757                0.93730522               -0.06136807               -0.38835725                0.49914280
              12.03932729                4.28773199               73.86159622                1.00000000               -0.20001138               -0.17376968                0.63897567               -0.03939773               -0.46754910                0.05674181
              13.03772155                3.81566335               73.43193393                0.98164258               -0.11945847               -0.08104273                0.34193571               -0.03981133               -0.48261797               -0.06084498
              14.03693812                3.34295050               73.00406302                0.58605468               -0.06578621                0.01345170                0.04046160               -0.09442911               -0.44474833               -0.36517360
              15.03640582                2.86875115               72.57554467                0.40569997               -0.01394064                0.12263949               -0.26607268               -0.13295373               -0.39551231               -0.30234382
              16.03665931                2.39310785               72.14935040                0.12104285               -0.96784347                0.20107266               -0.60315014               -1.20725918                0.64398651               -0.55949795
              17.01704895                1.89550953               71.74272916                0.00010000               -6.91720514                1.47716936               -0.72421538              -12.51484371               12.16688568               -2.30583558
              17.89831520                1.15574749               71.55195584                0.00010000               -5.28557360                1.29229728               -2.29251120              -11.81467839               23.20277462                1.58244999
              18.91133748                0.42089876               71.31791796                0.00010000                6.33506459               -1.19601714               -2.69779388               -9.57435048               20.00925140                2.11273929
              20.02501649               -0.30101883               71.05464546                1.00000000                6.09450751                0.59675877               -2.56874885               -8.90373826                8.70522175               -0.05478910
              21.03322763               -0.84128749               70.61704424                1.00000000                0.82111366                0.64823606               -2.75157323               -0.21789169                0.00902932               -0.08576931
              11.51280768                5.75674720               74.15547442                1.00000000               -0.19902544               -0.25270701                0.82147043               -0.01320239                0.03138635                0.70389973
              12.51081743                5.28599429               73.72783072                0.94647756               -0.15467518               -0.15918441                0.52348215                0.00717910                0.10900043                0.08122781
              13.50971418                4.81485292               73.30119047                0.95447754               -0.06837516               -0.06599582                0.22696161                0.00463924                0.15372107               -0.25386499
              14.50944992                4.34308502               72.87441073                0.63992935                0.01417164                0.01811523               -0.06258663               -0.03187890                0.26401707               -0.33615634
              15.50999761                3.86997755               72.45047717                0.50032804                0.08788021                0.11752642               -0.38906854               -0.06233877                0.30085284               -0.25371146
              16.51120753                3.39511858               72.02544112                0.21202396                0.02915445                0.20719944               -0.72333013               -0.51541671                0.43545549               -0.44066496
              17.51058070                2.91028122               71.60571021                0.00010000                0.31331381                0.86260770               -1.12873565              -12.50028457               11.98483316               -1.16326225
              18.51747380                2.16867046               71.41364170                0.00010000                1.66982187               -0.84114616               -2.79465978              -17.66689472               20.50492145                3.89892769
              19.54397714                1.40893859               71.15320033                0.00010000                2.47992165               -0.08717292               -2.98432713              -14.38889642               14.94156619                3.71683527
              20.56707224                0.70494875               70.84217642                1.00000000                1.36701171                0.39557812               -1.43605568               -8.01860129                6.36598688               -0.07808261
              21.57131737                0.16519487               70.40437371                1.00000000                0.42451344                0.43922935               -1.57882584               -0.16434230               -0.01955993               -0.15077279
              11.98296354                6.75437744               74.02513628                1.00000000               -0.15983897               -0.21760961                0.70253724               -0.01743952                0.17260746                0.82888696
              12.98136515                6.28454830               73.59424391                0.95360470               -0.11199688               -0.12797186                0.40723100               -0.00120791                0.36809366               -0.00304619
              13.98072360                5.81434343               73.16680113                0.00010000               -0.00946216               -0.02974728                0.11128252               -0.02876691                0.87550419               -0.69089610
              14.98117591                5.34331281               72.74611085                0.00010000                0.12009410               -0.60140001               -0.15768999               -0.73501013                1.30270927                0.97121941
              15.98312549                4.87110168               72.32778645                0.00010000                0.24356949               -1.15151948               -0.50388838               -1.08531236                1.17407192                2.79808728
              16.98604730                4.39725184               71.90591394                0.00010000                0.51829473               -2.19274754               -0.84271905               -1.25926158                1.28805389                5.43582269
              17.99349138                3.91276168               71.49179834                0.00010000                3.01363212               -5.73937357               -1.28964233              -13.84701137               14.30937839               10.16978564
              19.04631994                3.13892456               71.33248388                0.00010000                4.68949381               -1.95073673               -4.76598731              -23.30687236               20.56196652                8.24037664
              20.08728126                2.41915530               71.02112802                0.00010000                3.10341215                1.45067346               -5.11831968              -18.39500486                9.23940225                8.07873886
              21.10838818                1.70689273               70.63113382                0.96615058                1.10836470                0.06853977               -0.25619593               -8.50189675                2.35650186               -0.01074140
              22.10944855                1.16749710               70.19286844                1.00000000                0.10603668                0.09509572               -0.31597213               -0.10843705                0.05767456               -0.09106608
              12.45211716                7.75239501               73.89329472                0.96367944               -0.12898842               -0.17555233                0.58523418               -0.02315058                0.28181528                0.70472784
              13.45082728                7.28343486               73.45856354                0.35679537               -0.08714133               -0.09486445                0.29243763               -0.00299455                0.49024866               -0.38591795
              14.45037433                6.81425797               73.02762687                0.00010000               -0.64179045                0.01111792                0.00092428               -0.69920353                3.01147428               -1.18631612
              15.43799147                6.33105702               72.64345589                0.00010000               -0.80110027               -0.87717380               -0.56108934               -2.06151382                5.81989600                1.66741977
              16.43435233                5.84694716               72.26510283                0.00010000                0.31854148               -2.07641529               -1.27681475               -2.87892146                7.10096715                4.86349697
              17.44436230                5.35126363               71.90147682                0.00010000                2.88077108               -4.33494659               -2.31537027               -5.79582967               10.53242365                9.20787669
              18.49196775                4.79549375               71.58391470                0.00010000                5.02902203               -8.29272055               -4.22711170              -13.01863269               14.44897728               14.67702168
              19.54494274                4.12965573               71.28764253                0.00010000                5.80705620               -0.45762072               -7.10819285              -20.27954896               14.73590534                9.44333951
              20.60810887                3.43795206               70.95535247                0.00010000                5.18748836                3.08264704              -11.61953796              -23.33724968                3.86139214               10.92420560
              21.64869250                2.70631955               70.42311756                0.00010000                1.99155097                6.09666446                0.28560902              -15.33443498               -4.64783618               16.74738109
              22.64793989                2.16709679               69.98452285                0.42755869               -0.07526111                6.89561463                0.26620382               -5.37942314               -0.01146191               17.57828747
              12.92042084                8.75086639               73.75979871                0.88829816               -0.09785385               -0.12870606                0.47596061               -0.01922469                0.01202219                0.62997027
              13.91944230                8.28265101               73.31716466                0.18389584               -0.06517328               -0.06909646                0.17386501                0.02082320                0.48754140               -0.57651299
              14.91911737                7.81456579               72.88374974                0.00010000               -0.60929259               -0.00922232               -0.13889241               -0.97168663                4.90702264               -1.76252816
              15.90725645                7.32576933               72.52927512                0.00010000               -0.68884614               -0.40939227               -0.90557681               -2.17949192                9.46376061                0.42587758
              16.90534045                6.82957338               72.18291653                0.00010000                0.71638347               -1.43017431               -1.91527281               -3.49346259               11.04615720                2.68726664
              17.92158412                6.31055291               71.85359478                0.00010000                2.46930917               -2.96422239               -3.38202683               -6.76970495               13.39506272                5.01497440
              18.95472663                5.74690727               71.54493602                0.00010000                3.83432700               -2.99364654               -5.59710883              -12.92357677               15.70143204                6.13608753
              19.99827066                5.12977215               71.24733646                0.00010000                4.45729039                1.02853014               -9.17504851              -18.38314284               16.13220527                7.03207339
              21.04387244                4.48080824               70.92325630                0.00010000                3.71420505                5.72899865              -13.59027562              -21.67620996               12.95988651                9.63443655
              22.07255476                3.82882602               70.54918548                0.00010000                1.82165892               13.70054055              -20.11138016              -15.83044587                7.25279859               20.02558256
              23.08030562                3.30540939               70.12803814                0.39171876                0.77508611               15.32480853              -22.02654923               -7.54919067                1.56537560               21.95894639
              13.38816342                9.74982089               73.62586891                0.88817954               -0.06190783               -0.08924950                0.36450262               -0.02517263               -0.00322442                0.66178791
              14.38754434                9.28205293               73.17762559                0.16161350               -0.01705693               -0.04179040                0.05618476                0.00024110                0.24960897               -0.46733606
              15.38782228                8.81407353               72.73423761                0.00010000               -0.40751518               -0.04137450               -0.31578213               -1.11574479                6.13566741               -1.99560585
              16.37939404                8.32286917               72.40375880                0.00010000               -0.40613925               -0.17910027               -1.15750611               -2.58085015               12.15794143               -0.68941270
              17.37969950                7.81834367               72.07817930                0.00010000                0.61201323               -0.71577829               -2.32150498               -4.17826046               13.26166064                0.59603442
              18.39163430                7.29197918               71.76467625                0.00010000                1.72887389               -1.04977868               -3.94833046               -7.14104498               14.95626227                1.71208859
              19.41427697                6.73562082               71.46502786                0.00010000                2.58723028               -0.14959843               -6.30458881              -10.97990184               16.66573433                2.54212359
              20.44337891                6.15022633               71.17292664                0.00010000                3.06269153                2.68125515               -9.83094607              -14.18602094               17.53587135                3.31169830
              21.47553081                5.55253203               70.87305394                0.00010000                3.20517645                7.09753414              -15.00555709              -14.44598108               16.10379099                4.80557601
              22.50748244                4.98033036               70.54219133                0.00010000                3.41292656               12.72399369              -20.27466306               -9.46791322               10.02940619                6.66365740
              23.54378934                4.47359296               70.14411753                0.39043911                3.63068986               14.05892528              -23.03937796               -4.18397825                4.36331630                7.61893384
              13.85545331               10.74908140               73.49249397                0.90797488               -0.02588239               -0.06078377                0.25305629               -0.02724844               -0.01228012                0.72915224
              14.85519448               10.28181521               73.03841262                0.17543583                0.02664613               -0.00152775               -0.06955928               -0.03139766                0.13902106               -0.45532966
              15.85598623                9.81373830               72.58725250                0.00010000               -0.19125928                0.00787258               -0.48672796               -1.19577198                6.92276809               -1.84229059
              16.85136930                9.32218733               72.26936131                0.00010000               -0.16604983                0.05980709               -1.31073709               -2.73399227               13.79591771               -1.47342526
              17.85266523                8.81525781               71.95579303                0.00010000                0.50583870               -0.02020450               -2.50340167               -4.28446110               14.58666806               -0.88083306
              18.86148607                8.28955734               71.65131283                0.00010000                1.21081082                0.20988564               -4.15471832               -6.40676728               15.79209783               -0.29533353
              19.87688145                7.74391530               71.35698751                0.00010000                1.80764779                1.27428124               -6.46614848               -8.65473991               17.03015738                0.18369926
              20.89763903                7.18339725               71.06880895                0.00010000                2.39836684                3.42685942               -9.79999138               -9.98737338               17.57597198                0.58012857
              21.92484878                6.62275892               70.77388304                0.00010000                3.22482699                6.35229768              -14.26583297               -9.22981422               15.76084538                0.84998064
              22.96213557                6.08330589               70.44532823                0.00010000                4.26260389                8.80933049              -18.81783191               -5.66956361                9.77372308                0.88040220
              24.01010086                5.58658790               70.04904897                0.39057016                4.79652966                9.40149023              -21.20977635               -2.70086912                4.38262501                1.03862670
              14.32215084               11.74860521               73.35937811                0.91897201                0.01086493               -0.03315389                0.13751154               -0.02677924               -0.00491034                0.78083867
              15.32225949               11.28202237               72.89923100                0.19123617                0.06919394                0.04367074               -0.19790613               -0.05036841                0.12769549               -0.48381957
              16.32353472               10.81423098               72.44174091                0.00010000                0.04675939                0.09544044               -0.66423301               -1.18204310                7.50056967               -1.80484921
              17.32319468               10.32406532               72.12984712                0.00010000                0.15527714                0.26239948               -1.38601860               -2.57784775               14.81874607               -1.84181099
              18.32664026                9.81793958               71.82257058                0.00010000                0.58233936                0.38985892               -2.51439915               -3.82190247               15.34844969               -1.66637826
              19.33484147                9.29617689               71.52258974                0.00010000                1.03509982                0.82786593               -4.10106905               -5.16937178               16.13809354               -1.40399219
              20.34734226                8.76110644               71.23039898                0.00010000                1.49731761                1.82597299               -6.28073795               -6.32120580               16.91841613               -1.16881358
              21.36478782                8.21876352               70.94225632                0.00010000                2.18418103                3.40502311               -9.34391522               -6.71560152               17.03915704               -0.98833035
              22.39102588                7.67957798               70.64563475                0.00010000                3.27371876                5.20492563              -13.42423939               -5.81807038               15.03019718               -0.85079710
              23.43026219                7.15651697               70.31589840                0.00010000                4.60910330                6.56384441              -17.57951546               -3.50292592                9.20100604               -0.63184180
              24.48320795                6.66162276               69.92003914                0.39151117                5.29457528                6.68883975              -20.08812609               -1.79617111                4.24560729               -0.24379839
              14.78808340               12.74841832               73.22649046                0.92577433                0.04779464               -0.00307115                0.01730000               -0.02507492               -0.00190969                0.80272573
              15.78856135               12.28268862               72.75974537                0.21225140                0.11095102                0.08983480               -0.32756376               -0.05368652                0.16568196               -0.54272757
              16.79030242               11.81564711               72.29647852                0.00010000                0.37711937                0.18653128               -0.86333497               -1.11139029                8.07564977               -1.53690375
              17.79610374               11.32743532               71.98896711                0.00010000                0.69065908                0.28474199               -1.41081239               -2.20974367               15.59805301               -1.80774591
              18.80411560               10.82305499               71.68441423                0.00010000                0.94140192                0.44466247               -2.41255702               -2.96961167               15.75266849               -1.78605044
              19.81493177               10.30611466               71.38597776                0.00010000                1.18775531                0.96383082               -3.87212247               -3.65438189               16.14422834               -1.70774323
              20.82787071                9.78043476               71.09345664                0.00010000                1.49618411                1.84978759               -5.87200428               -4.11778645               16.51180075               -1.64593576
              21.84485546                9.25149771               70.80334093                0.00010000                2.14316063                3.06306041               -8.69878433               -4.07783023               16.34269435               -1.57207446
              22.87073392                8.72685744               70.50406529                0.00010000                3.25884069                4.39287319              -12.59430777               -3.32250225               14.28005324               -1.42424005
              23.91003227                8.21458278               70.17269879                0.00010000                4.66159688                5.42846329              -16.74975812               -1.91828085                8.69030605               -1.08342707
              24.96396586                7.72036469               69.77800904                0.39320993                5.39335902                5.65857058              -19.58071977               -1.13243028                4.12932739               -0.61825071
              15.25310875               13.74854379               73.09331069                0.83157056                0.08482279                0.02920277               -0.10768886               -0.02188169                0.04819592                0.74556010
              16.25395698               13.28381907               72.61989378                0.14176339                0.17257349                0.13389216               -0.45200196               -0.04158060                0.60245448               -0.57307784
              17.25656022               12.81796160               72.15781268                0.00010000                0.88174726                0.23447711               -1.06129655               -1.08618096                8.86543447               -1.22536895
              18.27159192               12.32976016               71.85005997                0.00010000                1.60042357               -0.11225303               -1.40579018               -1.48587833               16.11899398               -1.23245648
              19.28856869               11.82683283               71.54696538                0.00010000                1.63910669                0.21438138               -2.23215349               -1.71690258               15.94674426               -1.19678179
              20.30437406               11.31545351               71.24843025                0.00010000                1.55173905                0.78990421               -3.51959395               -1.90081631               15.92775774               -1.21582678
              21.31960347               10.79810220               70.95408256                0.00010000                1.62172413                1.60100636               -5.28931909               -2.00650292               15.92810591               -1.24793071
              22.33680854               10.28002472               70.66085872                0.00010000                2.09436493                2.61776264               -7.81295245               -1.83315095               15.51420070               -1.26180736
              23.36149077                9.76743545               70.35830535                0.00010000                3.07903920                3.74722720              -11.45268860               -1.35470326               13.48690568               -1.23893829
              24.39838932                9.26508624               70.02500391                0.00010000                4.37523752                4.74816316              -15.55110540               -0.70560247                8.21397940               -1.10011010
              25.44899552                8.77479417               69.63066724                0.39570861                5.06061975                5.32924931              -18.80062575               -0.65385716                3.92406223               -0.89672182
              15.71709521               14.74900238               72.95886692                0.90038690                0.12167116                0.04585884               -0.22650345                0.03505457                0.33509746                0.69929286
              16.71831192               14.28536646               72.48054853                0.55509784                0.27712523                0.15473949               -0.57360334                0.00220795                1.26696191               -0.59681446
              17.72263772               13.82033665               72.02123726                0.32142374                1.96015088                0.23750450               -1.33276538               -1.40106084               10.08323242               -1.29323023
              18.75751494               13.32519026               71.71863984                0.31108684                3.07232411               -0.45699007               -1.32255245               -1.05739991               16.64127807               -0.48147978
              19.78408420               12.82734262               71.41610531                0.30777012                2.40655725                0.05097845               -1.99429163               -0.61232515               16.00544949               -0.52737242
              20.80564608               12.32191274               71.11720322                0.31002876                1.95426203                0.64592289               -3.07075268               -0.61718363               15.70669160               -0.57356297
              21.82316944               11.81245489               70.82112894                0.31815458                1.66065506                1.43526934               -4.53192215               -0.54639201               15.41748527               -0.65140578
              22.83885919               11.30385297               70.52509868                0.33226988                1.77044537                2.38282434               -6.61795095               -0.32758078               14.86016675               -0.73068963
              23.85857835               10.80180198               70.22001859                0.35304890                2.48511548                3.43665337               -9.69753422               -0.00658875               12.94673034               -0.91055115
              24.88856150               10.30954604               69.88605534                0.37820093                3.64472502                4.44598070              -13.31698604                0.27460199                7.97396020               -1.06400245
              25.93147285                9.82694968               69.49165145                0.69859151                4.29113502                5.21555046              -16.46668159               -0.01190422                4.15246435               -1.30666049
              11.46678132                4.89855266               75.29767813                1.00000000               -0.20842663               -0.22582444                0.79157294               -0.04583791               -0.38771742                0.49543841
              12.46469705                4.42263561               74.86768601                0.97586295               -0.18137282               -0.15824580                0.57928477               -0.02627157               -0.46740305                0.05569385
              13.46315386                3.94638172               74.43548885                0.98525783               -0.12558729               -0.09136166                0.36738151               -0.02627012               -0.48350819               -0.05874462
              14.46218530                3.46954776               74.00504436                0.60225448               -0.09184715               -0.02395102                0.15186524               -0.07439132               -0.44732102               -0.34831145
              15.46131692                2.99140250               73.57392359                0.41172959               -0.05782284                0.05480986               -0.06494899               -0.10830700               -0.41227136               -0.30296201
              16.46102885                2.51203120               73.14483366                0.11013473               -1.10350839                0.10505968               -0.31000022               -1.20285053                0.72754261               -0.55804017
              17.43924675                2.01044881               72.73757290                0.00010000               -5.88889727                1.45102180               -0.32811682              -10.26779439               11.61320950               -2.52912669
              18.34325090                1.30924057               72.52981750                0.00010000               -3.97414272                0.77589539               -2.06820130               -9.70271935               22.16125014                1.06103757
              19.35976390                0.60418186               72.29098493                0.00010000                6.02255137               -1.25686656               -2.60500466               -8.25054623               19.78555823                1.49320278
              20.46370193               -0.09570976               72.02918193                1.00000000                5.58758679                0.55693025               -2.49985343               -7.82918611                8.87884977               -0.07113278
              21.47151563               -0.63593425               71.59029608                1.00000000                0.78137013                0.58575602               -2.59547819               -0.18010952               -0.00797724               -0.05756656
              11.94223999                5.89629442               75.16301447                1.00000000               -0.17201790               -0.21197827                0.68881180               -0.01142827                0.02922407                0.69777219
              12.94051981                5.42105315               74.73283317                0.93717508               -0.14024498               -0.14563783                0.47705100                0.00696934                0.10656665                0.07980389
              13.93943509                4.94546810               74.30366804                0.96353425               -0.07944036               -0.07872657                0.26632329                0.00491102                0.15638324               -0.25121280
              14.93893100                4.46930825               73.87444071                0.68748134               -0.02214800               -0.02089642                0.06377134               -0.02684145                0.25556383               -0.31283744
              15.93899213                3.99195060               73.44771696                0.53123280                0.02730918                0.05123724               -0.17119833               -0.05516632                0.27486614               -0.24625395
              16.93947718                3.51308179               73.01981356                0.21923508               -0.05140049                0.11253737               -0.41337338               -0.47976893                0.37565856               -0.43074676
              17.93796412                3.02495903               72.59649931                0.00010000                0.49400014                0.78952965               -0.72586004              -10.53010829               11.31743128               -1.29023639
              18.94935719                2.31699953               72.38901098                0.00010000                2.08847400               -1.23020459               -2.18157499              -14.61826334               19.74716801                2.68459176
              19.97973360                1.59161319               72.12662471                0.00010000                2.80554675               -0.37863699               -2.41715789              -12.08810606               15.56961705                2.45739898
              21.00546812                0.90985954               71.82837312                1.00000000                1.51027158                0.39540831               -1.40278341               -6.92936233                7.02963051               -0.08498249
              22.00993903                0.36992331               71.38948983                1.00000000                0.44709071                0.42183805               -1.48551850               -0.15443406                0.00608642               -0.09352528
              12.41703528                6.89431310               75.03155840                1.00000000               -0.13725215               -0.18053775                0.58356356               -0.01549840                0.16872756                0.82231645
              13.41566276                6.41972286               74.59815255                0.94773400               -0.10191440               -0.11842775                0.37423829               -0.00116797                0.36317915               -0.00365922
              14.41499699                5.94480718               74.16819259                0.00010000               -0.02483884               -0.04773035                0.16457509               -0.02716227                0.88489760               -0.68610665
              15.41516598                5.46912983               73.74526536                0.00010000                0.07215274               -0.62059074               -0.01732431               -0.61074633                1.28910559                0.82396929
              16.41644004                4.99242724               73.32394561                0.00010000                0.16295272               -1.15487090               -0.27340523               -0.78895903                1.13178647                2.44311592
              17.41842503                4.51428194               72.89917464                0.00010000                0.41434032               -2.13152159               -0.51736335               -0.70032524                1.20174521                4.70941803
              18.42472685                4.02623941               72.48105940                0.00010000                3.29032211               -5.38290901               -0.86765646              -11.23544276               12.78651533                8.75131406
              19.48423148                3.28463648               72.29037415                0.00010000                5.02074521               -2.41917136               -3.63080050              -18.94381062               18.73812682                6.02856491
              20.52514175                2.59660912               71.98305953                0.00010000                3.12865442                0.58848230               -3.19854394              -15.17850230               10.55841713                5.06504488
              21.54680456                1.91219841               71.62760233                0.96972531                1.15788333                0.10240064               -0.40079530               -7.08484510                4.16206068               -0.02078095
              22.54829942                1.37250251               71.18866200                1.00000000                0.14948570                0.12349752               -0.45766792               -0.14490032                0.01267961               -0.04420324
              12.89111050                7.89268366               74.89861330                0.95982814               -0.11081393               -0.14195944                0.47965401               -0.01931850                0.27811039                0.70425381
              13.89000236                7.41868460               74.46139788                0.35261598               -0.08128150               -0.09064309                0.27392980               -0.00101891                0.48495591               -0.38675005
              14.88948487                6.94451349               74.02796378                0.00010000               -0.54531722               -0.03553805                0.06395650               -0.65505230                2.84996986               -1.19338475
              15.87909602                6.45689643               73.63816977                0.00010000               -0.57120196               -0.92278382               -0.49126898               -1.83591718                5.44454899                1.40427600
              16.87806083                5.96885318               73.25276975                0.00010000                0.62812493               -2.08059815               -1.17218830               -2.36354599                6.46219284                4.25275744
              17.89165852                5.47045136               72.87875589                0.00010000                3.24199470               -4.20190085               -2.14760540               -4.68600974                9.22086381                8.02814639
              18.94290073                4.91730085               72.54314616                0.00010000                5.42263746               -7.84330703               -3.80777150              -10.57035868               11.88986493               12.69617272
              20.00011126                4.26861610               72.21962055                0.00010000                5.28504490               -1.13927493               -5.81586461              -16.72231351               11.71419811                7.54891363
              21.04860162                3.60338284               71.88029995                0.00010000                4.38832810                1.49891925               -6.14335285              -18.59915879                4.39155533                7.71729127
              22.08787783                2.91190756               71.42741546                0.00010000                1.89155986                4.62875024                0.46100208              -12.43564683               -0.66917054                9.41689844
              23.08643282                2.37239326               70.98840512                0.39556408               -0.14450060                5.71433429                0.42010567               -5.32560833               -0.01061425                9.97257851
              13.36464703                8.89147391               74.76408269                0.89992781               -0.08344848               -0.09903070                0.38161933               -0.01628830                0.00502473                0.63341599
              14.36381255                8.41790999               74.31890794                0.19007609               -0.04814608               -0.06925013                0.17452396                0.00056603                0.46997748               -0.58022744
              15.36368411                7.94409642               73.88274666                0.00010000               -0.48522994               -0.08992869               -0.05917419               -0.95128377                4.62612206               -1.81042661
              16.35410795                7.45067415               73.52034665                0.00010000               -0.40349588               -0.50702575               -0.87034604               -2.07382705                8.82267390                0.27271681
              17.35561419                6.95081528               73.16374297                0.00010000                1.10746077               -1.50614144               -1.88308497               -3.21717080               10.04861862                2.31267149
              18.37625717                6.43024393               72.81976628                0.00010000                2.97703724               -2.96573558               -3.29280910               -6.14400489               11.68330347                4.38462710
              19.41515494                5.86937327               72.48914546                0.00010000                4.37230273               -3.04059393               -5.27380175              -11.64588871               12.83758083                5.35403586
              20.46370322                5.26185098               72.16158486                0.00010000                4.73560903                0.33102973               -7.73805636              -16.49137895               11.87897654                6.33557704
              21.50986712                4.62658750               71.80794451                0.00010000                3.26889924                3.99441589               -9.74390088              -18.00832106                8.41340525                7.91512699
              22.52908120                4.00477341               71.41493300                0.00010000                0.54743657               10.05984671              -10.82648075              -12.91074713                4.08036623               14.41526571
              23.52081585                3.48678920               70.98750694                0.38776949               -0.82653535               11.73003912              -11.03768907               -6.68866425                1.41838861               16.02938614
              13.83791256                9.89070305               74.62907024                0.90319708               -0.05213950               -0.06215758                0.27710943               -0.02125268               -0.00341938                0.66446433
              14.83739117                9.41729960               74.17827941                0.17538323               -0.01087617               -0.04541959                0.07456851               -0.04907670                0.20859667               -0.47537186
              15.83769504                8.94271492               73.73153699                0.00010000               -0.32452732               -0.10203448               -0.20497573               -1.14566257                5.77617981               -2.03000533
              16.83090062                8.44675592               73.39223441                0.00010000               -0.17736990               -0.27467709               -1.13767478               -2.55196265               11.40383610               -0.73206432
              17.83414764                7.93873035               73.05473276                0.00010000                0.96599052               -0.79480926               -2.33169730               -4.05251539               12.14364639                0.46928610
              18.85022043                7.41113665               72.72479983                0.00010000                2.21141277               -1.10707068               -3.92445618               -6.82546103               13.20918250                1.50772029
              19.87837590                6.85648897               72.40190712                0.00010000                3.14245094               -0.30100299               -6.07510166              -10.47044291               13.87279199                2.38629718
              20.91306945                6.27523669               72.07769689                0.00010000                3.35684373                2.15987181               -8.83380682              -13.51958399               13.33748639                3.32950492
              21.94551277                5.68327115               71.73811055                0.00010000                2.81958700                5.98007001              -12.01634354              -13.89953140               10.83316885                5.11436445
              22.96946119                5.11310449               71.36561285                0.00010000                2.15576004               10.13057080              -15.00733333               -9.10714522                6.25311735                7.16523038
              23.98862797                4.60699404               70.94812914                0.38829897                1.91667815               11.18478898              -16.34022439               -3.90434446                2.68390528                7.93232690
              14.31102888               10.89023076               74.49461323                0.92499383               -0.02097379               -0.03455379                0.17316177               -0.02209901               -0.01085845                0.72924526
              15.31081915               10.41700160               74.03792029                0.19342569                0.01428291               -0.01178844               -0.02922205               -0.07672797                0.08768180               -0.46623764
              16.31131454                9.94205573               73.58310080                0.00010000               -0.18829398               -0.02117744               -0.31697109               -1.23471797                6.54980163               -1.83620628
              17.30705327                9.44518061               73.25626412                0.00010000               -0.05656942               -0.01432349               -1.29689437               -2.74701190               13.04503771               -1.42772810
              18.31018315                8.93491909               72.93037920                0.00010000                0.74680276               -0.07090390               -2.54625881               -4.22655236               13.50517430               -0.83233148
              19.32198932                8.40810251               72.60915347                0.00010000                1.57314419                0.17259834               -4.18843729               -6.27971012               14.18996245               -0.24547113
              20.34164604                7.86335321               72.29175328                0.00010000                2.22700184                1.18456209               -6.36180329               -8.50765714               14.59760227                0.30553257
              21.36652936                7.30504842               71.97225821                0.00010000                2.61813280                3.21369706               -9.16207949               -9.93748417               14.05237320                0.92113006
              22.39400869                6.74618890               71.63877265                0.00010000                2.83430273                5.95014768              -12.41989409               -9.30201194               11.73264389                1.61191493
              23.42321541                6.20738483               71.27443670                0.00010000                3.04705845                8.38418612              -15.36513854               -5.79676278                6.93941050                2.24103451
              24.45494986                5.71048498               70.85916361                0.38929614                3.17344496                8.99199384              -16.81810432               -2.71935827                3.09614574                2.30111750
              14.78392889               11.89001197               74.36038358                0.93675579                0.01027412               -0.00896834                0.06769578               -0.02046860               -0.00261717                0.77388712
              15.78403163               11.41706383               73.89759688                0.21210456                0.04463917                0.02399206               -0.13067386               -0.08060401                0.07078283               -0.49277809
              16.78482167               10.94229137               73.43629072                0.00010000               -0.04673038                0.05410686               -0.41783223               -1.19466589                7.15054144               -1.77530251
              17.78309702               10.44646945               73.11600567                0.00010000                0.09365089                0.22579148               -1.36734270               -2.58259984               14.15606075               -1.74661972
              18.78669469                9.93731227               72.79691658                0.00010000                0.65475469                0.39825399               -2.58743650               -3.78186913               14.40040685               -1.52519970
              19.79619212                9.41458862               72.48081295                0.00010000                1.22910788                0.85243093               -4.18678168               -5.13427839               14.78067291               -1.24099555
              20.81127685                8.88018021               72.16668740                0.00010000                1.76459770                1.82706889               -6.28363766               -6.32451034               14.92287366               -0.96172547
              21.83148407                8.33951063               71.84916666                0.00010000                2.29296360                3.36047225               -8.95865391               -6.78465674               14.21552204               -0.70159979
              22.85713612                7.80227411               71.51718828                0.00010000                2.88728949                5.15988936              -12.03416311               -5.94801902               11.79832995               -0.47810820
              23.88922986                7.28078821               71.15341317                0.00010000                3.54521971                6.55979117              -14.86614214               -3.57923126                6.97337396               -0.37722948
              24.92804051                6.78683392               70.73765850                0.38977480                3.88106540                6.73066051              -16.43219378               -1.72095857                3.19018098               -0.48523013
              15.25651580               12.89005139               74.22634224                0.94297733                0.04118684                0.01732724               -0.04055365               -0.01853452               -0.00034087                0.78658460
              16.25692767               12.41748144               73.75698884                0.23524251                0.07499026                0.05946161               -0.22881317               -0.07621828                0.09821247               -0.54607123
              17.25801561               11.94313787               73.28973877                0.00010000                0.17263492                0.10582287               -0.51521177               -1.06108502                7.76623304               -1.50492427
              18.26038037               11.44969644               72.97490918                0.00010000                0.42054974                0.31407248               -1.38478846               -2.14361593               15.07869370               -1.69680787
              19.26642660               10.94288417               72.65968251                0.00010000                0.80277213                0.55013714               -2.51407678               -2.92984990               15.00569903               -1.62540858
              20.27643581               10.42515113               72.34638143                0.00010000                1.19036054                1.06911687               -4.00884165               -3.67890114               15.09202448               -1.52691989
              21.29023381                9.89989458               72.03361590                0.00010000                1.61532594                1.91805669               -5.96628458               -4.20549009               14.97652602               -1.45046518
              22.30874233                9.37225786               71.71627144                0.00010000                2.17684605                3.06561025               -8.46682467               -4.20596390               14.09632303               -1.40587069
              23.33377073                8.84938669               71.38372063                0.00010000                2.91643236                4.30492575              -11.37268951               -3.45119924               11.62875963               -1.39403640
              24.36707098                8.33858065               71.01909627                0.00010000                3.73342746                5.24868755              -14.14647508               -1.96454208                6.86484984               -1.44739756
              25.40843928                7.84509819               70.60206424                0.39073742                4.13683056                5.34637335              -15.89630675               -1.00305911                3.19582361               -1.69196875
              15.72869809               13.89035852               74.09196571                0.84292952                0.07226938                0.04539367               -0.15255004               -0.01663800                0.05118946                0.72526254
              16.72942078               13.41825306               73.61607478                0.16059814                0.13434436                0.09327416               -0.32260543               -0.07236640                0.50508520               -0.56975062
              17.73138498               12.94440783               73.14950535                0.00010000                0.55288089                0.12105814               -0.65077774               -0.93222035                8.56643049               -1.20778794
              18.74047840               12.45275090               72.83611915                0.00010000                1.06290116                0.07444731               -1.37680186               -1.36221695               15.77256152               -1.13401549
              19.75264300               11.94831501               72.52389837                0.00010000                1.25626412                0.43527529               -2.37891722               -1.68813271               15.46024214               -1.08742898
              20.76560368               11.43597095               72.21212786                0.00010000                1.37086571                0.99121210               -3.73522008               -1.96418875               15.24869316               -1.08611843
              21.78006031               10.91854135               71.89973376                0.00010000                1.61345017                1.74874047               -5.51058664               -2.13280998               14.91216369               -1.10836748
              22.79787269               10.40082284               71.58189719                0.00010000                2.08645154                2.66399176               -7.79588867               -2.01028518               13.91723966               -1.16052187
              23.82178934                9.88837262               71.24855460                0.00010000                2.81774173                3.60971714              -10.49979054               -1.52030416               11.46351347               -1.23715184
              24.85422752                9.38576197               70.88310187                0.00010000                3.65774610                4.36768706              -13.18401494               -0.78313584                6.77852011               -1.32815450
              25.89494427                8.89376139               70.46399217                0.39223727                4.07167454                4.63197247              -15.09661115               -0.47795372                3.26219364               -1.71889711
              16.20039396               14.89095926               73.95639040                0.90422178                0.10370772                0.06007450               -0.26005143                0.00835303                0.32365952                0.67711832
              17.20143103               14.41934693               73.47566217                0.55942388                0.22397043                0.10938665               -0.41893412               -0.06898652                1.09531382               -0.58610486
              18.20487336               13.94555903               73.01070430                0.32054795                1.38989046                0.11512068               -0.83517650               -1.05923836                9.76054433               -1.23518249
              19.22922884               13.45118538               72.70515543                0.31079676                2.22852626               -0.15655106               -1.36510451               -0.82342363               16.58815159               -0.48922862
              20.24944389               12.95158968               72.39494711                0.30766621                1.88484298                0.32746655               -2.24790866               -0.63041165               15.81905202               -0.51838108
              21.26692570               12.44497537               72.08462270                0.30991709                1.66409184                0.90044197               -3.46191805               -0.70381250               15.44712648               -0.55080822
              22.28272573               11.93486939               71.77298543                0.31745291                1.58898245                1.63280451               -5.04845215               -0.70534253               15.00191054               -0.61998393
              23.29870535               11.42553770               71.45569233                0.33041371                1.78498989                2.47148586               -7.09255749               -0.58115166               14.01476364               -0.73411375
              24.31842552               10.92158103               71.12333592                0.34969418                2.36570730                3.32084088               -9.55378158               -0.31654727               11.71598810               -0.90779554
              25.34601950               10.42593439               70.75988556                0.37414432                3.22279215                4.01724289              -12.06615653               -0.01297230                7.17033367               -1.11504170
              26.38288137                9.93773763               70.34083005                0.69655505                3.68618703                4.39762491              -13.97571508               -0.02596592                3.86616533               -1.72166076
              11.89395166                5.03866766               76.30487791                1.00000000               -0.17831525               -0.18452879                0.65117906               -0.03130137               -0.38797249                0.49227627
              12.89216851                4.55855154               75.87318192                0.97083829               -0.16293147               -0.14277124                0.52021559               -0.01421110               -0.46858424                0.05494100
              13.89069303                4.07813007               75.43928156                0.98867792               -0.13057750               -0.10051467                0.38915663               -0.01387145               -0.48584286               -0.05644459
              14.88955696                3.59719157               75.00710032                0.62006088               -0.11609640               -0.05843009                0.25479485               -0.05571252               -0.44932915               -0.33112024
              15.88837110                3.11510517               74.57424569                0.41999650               -0.09980550               -0.00747203                0.12173456               -0.08511804               -0.42563902               -0.30290723
              16.88756085                2.63198724               74.14315039                0.10107483               -1.20208984                0.01754180               -0.03598358               -1.16380061                0.81663801               -0.55756793
              17.86432930                2.12707417               73.73616682                0.00010000               -4.97163341                1.39158261                0.00535030               -8.33003783               11.01220807               -2.75390645
              18.78812818                1.45858128               73.51059181                0.00010000               -2.83225448                0.32243632               -1.75578264               -7.96318768               20.94625246                0.65384345
              19.80768422                0.77948324               73.26581786                0.00010000                5.75770775               -1.34712801               -2.40070849               -7.13794698               19.45298453                1.03769694
              20.90328233                0.09917611               73.00464839                1.00000000                5.15777779                0.56525884               -2.45296255               -6.86373729                8.93871332               -0.04705812
              21.91083977               -0.44082631               72.56513468                1.00000000                0.75574376                0.57847527               -2.48758968               -0.16364947                0.00266026               -0.01827468
              12.37375476                6.03682237               76.16925066                1.00000000               -0.14595690               -0.17213605                0.56103107               -0.00994689                0.02686211                0.69195448
              13.37229519                5.55712383               75.73737174                0.92964449               -0.12602296               -0.13205688                0.43077249                0.00642976                0.10364756                0.07874144
              14.37123430                5.07712492               75.30651693                0.97264358               -0.08914554               -0.09022574                0.30105051                0.00495785                0.15866562               -0.24786149
              15.37051228                4.59660727               74.87568616                0.73653728               -0.05561070               -0.05642189                0.17996298               -0.02232122                0.24906251               -0.28940246
              16.37012209                4.11503045               74.44705321                0.56721952               -0.02869678               -0.00969788                0.03000356               -0.04818873                0.25338838               -0.23967342
              17.36993834                3.63216266               74.01717365                0.23146243               -0.11950885                0.02553151               -0.12528499               -0.43164491                0.32186593               -0.42285817
              18.36773191                3.14098999               73.59119301                0.00010000                0.61767099                0.70334762               -0.34426695               -8.83320727               10.69587438               -1.42733610
              19.38229176                2.46180564               73.37001020                0.00010000                2.41377094               -1.48474937               -1.67812167              -12.20119310               19.02297404                1.75531826
              20.41600733                1.76601196               73.10485717                0.00010000                3.12539851               -0.63511375               -2.01432755              -10.17198674               15.85464956                1.61548673
              21.44479973                1.10482870               72.81412075                1.00000000                1.65991840                0.41293296               -1.43393082               -5.91544589                7.43985678               -0.05469020
              22.44920570                0.56495845               72.37466334                1.00000000                0.44059620                0.42620204               -1.46786165               -0.14987423                0.00032430               -0.04178405
              12.85314980                7.03522494               76.03680755                0.96555226               -0.11552482               -0.14332855                0.46856122               -0.01368096                0.16478211                0.81495586
              13.85199455                6.55591041               75.60172868                0.94330263               -0.09205265               -0.10896811                0.34091267               -0.00093311                0.35825822               -0.00335467
              14.85130875                6.07632555               75.17009263                0.00010000               -0.03947740               -0.06443587                0.21279094               -0.02398637                0.89398643               -0.68188374
              15.85120500                5.59606314               74.74576436                0.00010000                0.02715964               -0.62730096                0.11081818               -0.49250680                1.27704130                0.63993944
              16.85185194                5.11491121               74.32231834                0.00010000                0.08817034               -1.14127524               -0.06086056               -0.53386406                1.09626980                2.02960905
              17.85296841                4.63249787               73.89556667                0.00010000                0.30851208               -2.04638724               -0.21585195               -0.26526407                1.12960576                3.94024644
              18.85802218                4.14114112               73.47444521                0.00010000                3.30569690               -4.98294240               -0.46488454               -9.12215509               11.61019234                7.37699993
              19.91908235                3.42888629               73.25986787                0.00010000                5.15996204               -2.61911753               -2.66714098              -15.72895015               17.56962243                4.34435257
              20.96122142                2.76678097               72.95715714                0.00010000                3.34722915                0.07004715               -2.30896393              -12.46568910               11.76269772                3.05723180
              21.98602693                2.10743477               72.62311791                0.97419942                1.31806882                0.12490739               -0.45072398               -5.83395247                5.27433061               -0.05669629
              22.98758280                1.56769773               72.18371508                1.00000000                0.15558670                0.13724838               -0.48188173               -0.14657439               -0.00277283               -0.05656976
              13.33211020                8.03395580               75.90288780                0.95748007               -0.09342896               -0.10735839                0.37726282               -0.01508109                0.27379852                0.69952732
              14.33117591                7.55494447               75.46404213                0.36192358               -0.07541790               -0.08727316                0.25452995                0.00318650                0.47634581               -0.38334557
              15.33060184                7.07583620               75.02890600                0.00010000               -0.45497144               -0.07707543                0.12226084               -0.59954297                2.64940135               -1.19598711
              16.32207648                6.58406125               74.63363051                0.00010000               -0.37958881               -0.94520553               -0.40647407               -1.60613213                4.97108645                1.07793453
              17.32301007                6.09220495               74.24165906                0.00010000                0.81633384               -2.05237113               -1.01993295               -1.88925433                5.73105063                3.54057066
              18.33840316                5.59123492               73.85852472                0.00010000                3.29451619               -4.01481798               -1.85313835               -3.69972608                7.88539602                6.74906991
              19.38890039                5.04133114               73.50775927                0.00010000                5.18348765               -7.29570434               -3.15432426               -8.50870667               10.00397238               10.71119449
              20.44207291                4.40942329               73.17132524                0.00010000                4.96223369               -1.52394728               -4.29008655              -13.79747245               10.16375276                5.68690063
              21.48814506                3.76741290               72.83248541                0.00010000                4.25655016                0.72596058               -4.19310792              -15.22627300                6.85822543                4.74645158
              22.52720392                3.10732685               72.43233760                0.00010000                1.88016100                3.57495837                0.45108112              -10.55683850                1.95317605                4.51597720
              23.52574828                2.56770341               71.99292497                0.38673374               -0.14556313                4.92876832                0.42392063               -5.16520851                0.01984774                5.20715729
              13.81087084                9.03307777               75.76743110                0.91506414               -0.06929611               -0.06880835                0.29014592               -0.01295730               -0.00042048                0.62707696
              14.81017788                8.55416494               75.32065514                0.20481886               -0.03348674               -0.07056638                0.17369388               -0.01100558                0.44794476               -0.57663521
              15.81020110                8.07478405               74.88256626                0.00010000               -0.37321290               -0.13584624                0.02096934               -0.91084454                4.25584540               -1.80435974
              16.80271362                7.57715903               74.51186820                0.00010000               -0.16539565               -0.58754214               -0.80548925               -1.93608714                8.01528726                0.08454837
              17.80689319                7.07386379               74.14525483                0.00010000                1.35670370               -1.55558914               -1.76786710               -2.89802830                8.88106926                1.87844856
              18.82984769                6.55220151               73.78773859                0.00010000                3.13832421               -2.92442582               -3.01761345               -5.41981612                9.91694550                3.67388225
              19.86965967                5.99522703               73.43945998                0.00010000                4.36017233               -3.02960965               -4.57484982              -10.19294049               10.38675218                4.47834184
              20.91705114                5.39840735               73.09257533                0.00010000                4.45663648               -0.16401095               -6.16906620              -14.10372814                9.33602989                5.00523365
              21.95879240                4.78130018               72.72837828                0.00010000                2.87742559                2.82891392               -6.96392914              -15.16701255                6.45444352                5.49824848
              22.97459965                4.17893394               72.33265587                0.00010000                0.23665477                7.84022097               -7.05917576              -10.98523962                3.19882042                7.71632649
              23.96352550                3.66627310               71.90728436                0.38257164               -1.10741518                9.64397086               -6.70207251               -5.93175413                1.65323051                8.96856208
              14.28967671               10.03257963               75.63141110                0.92126794               -0.04271828               -0.03624004                0.19377578               -0.01708931               -0.00251470                0.65338868
              15.28924952                9.55353314               75.17911696                0.19445704               -0.01429185               -0.04959833                0.09170449               -0.05888403                0.17289257               -0.47406587
              16.28939087                9.07311928               74.73013810                0.00010000               -0.24872656               -0.12618010               -0.07517211               -1.13927051                5.31435361               -1.97525386
              17.28427499                8.57231041               74.38100530                0.00010000                0.03080709               -0.36487593               -1.08337121               -2.48740400               10.43236507               -0.78690207
              18.29000701                8.06109316               74.03154535                0.00010000                1.21843027               -0.87182128               -2.25071430               -3.82889117               10.81122774                0.31312937
              19.30864360                7.53274640               73.68618713                0.00010000                2.44143692               -1.17833631               -3.69836933               -6.31453304               11.30854002                1.26715645
              20.33883575                6.98073895               73.34352583                0.00010000                3.26408025               -0.49906799               -5.46975465               -9.52671256               11.27527834                2.08455168
              21.37392520                6.40614307               72.99625050                0.00010000                3.27212344                1.59713697               -7.43537849              -12.10658945               10.13203165                2.92682327
              22.40427822                5.82399118               72.63272707                0.00010000                2.43004982                4.73096563               -9.34091213              -12.17405151                7.68503295                4.15709546
              23.42252620                5.26413127               72.24204466                0.00010000                1.40783306                8.06961619              -10.73101771               -7.87375910                4.15129134                5.57682661
              24.43243488                4.76058283               71.81731304                0.38383501                0.99086804                8.84038921              -11.18845998               -3.40262074                1.79347624                5.79242060
              14.76862203               11.03235297               75.49595721                0.94475292               -0.01614831               -0.01128442                0.09887703               -0.01823970               -0.00888262                0.71465824
              15.76846055               10.55317298               75.03782818                0.21557845                0.00081956               -0.02174433                0.00895166               -0.07870223                0.05687265               -0.46362001
              16.76863842               10.07226044               74.58091308                0.00010000               -0.17344475               -0.05161606               -0.13473075               -1.22827896                6.06017083               -1.75501160
              17.76499165                9.56986151               74.24342342                0.00010000                0.06204769               -0.09112708               -1.24434874               -2.72090144               12.03005537               -1.36926257
              18.76987938                9.05642737               73.90486786                0.00010000                0.94597958               -0.14804408               -2.50224563               -4.06963053               12.17223295               -0.78314005
              19.78391124                8.52863479               73.56754408                0.00010000                1.79246872                0.06913101               -4.03539828               -5.95705957               12.35988439               -0.19460424
              20.80572875                7.98524567               73.22975144                0.00010000                2.38779365                0.96351802               -5.89943437               -7.98372137               12.12784922                0.39353002
              21.83166712                7.43035009               72.88556736                0.00010000                2.57972126                2.72876083               -8.05357600               -9.23270041               11.01062095                1.05963487
              22.85732318                6.87591949               72.52548516                0.00010000                2.44328506                5.05383276              -10.27127731               -8.57780364                8.62311891                1.83070667
              23.88053282                6.34032626               72.13802546                0.00010000                2.26233916                7.00907713              -12.08850657               -5.30526717                4.84518152                2.42382071
              24.90256996                5.84308089               71.71268688                0.38498939                2.20371403                7.42173485              -12.81698825               -2.42023585                2.18098195                2.23625872
              15.24767190               12.03235394               75.36073203                0.95645533                0.00961086                0.01074595                0.00701356               -0.01750084               -0.00060645                0.75266383
              16.24776801               11.55309826               74.89661752                0.23610703                0.02324320                0.00581596               -0.06916508               -0.07992321                0.04315988               -0.48424260
              17.24813676               11.07208696               74.43338426                0.00010000               -0.10389822                0.00367771               -0.19001560               -1.17710301                6.66787458               -1.69691536
              18.24569004               10.57048787               74.10250026                0.00010000                0.08521796                0.17620863               -1.31250522               -2.56062270               13.18450869               -1.61734884
              19.24984112               10.05813228               73.77082185                0.00010000                0.74970309                0.35688272               -2.58371439               -3.67404461               13.16857589               -1.35719588
              20.26068410                9.53412902               73.43885411                0.00010000                1.38024533                0.78132806               -4.11795205               -4.95976721               13.13863518               -1.02931998
              21.27744603                9.00000931               73.10472623                0.00010000                1.89566368                1.65667149               -5.97531380               -6.08141322               12.75459976               -0.68458173
              22.29859738                8.46071829               72.76308324                0.00010000                2.26499705                3.01498454               -8.12467149               -6.49657024               11.57643485               -0.32765593
              23.32274597                7.92506784               72.40495149                0.00010000                2.53310423                4.58454520              -10.35855885               -5.66221810                9.15963949               -0.01416442
              24.34925946                7.40431281               72.01857556                0.00010000                2.78874768                5.78099355              -12.21700270               -3.37987327                5.21688577                0.08929489
              25.37852092                6.90901753               71.59139527                0.38617871                2.92614599                5.85553802              -13.07748810               -1.56070660                2.38778522               -0.31634924
              15.72678339               13.03256789               75.22567938                0.95911050                0.03456782                0.03234683               -0.08536069               -0.01573439                0.00152452                0.75873846
              16.72712907               12.55328930               74.75516910                0.26096123                0.04616782                0.03262347               -0.14261957               -0.07414269                0.07148377               -0.53109618
              17.72770675               12.07233400               74.28617428                0.00010000                0.03024027                0.03766790               -0.24247514               -1.00979581                7.30821682               -1.44708812
              18.72773387               11.57338568               73.96127134                0.00010000                0.25252926                0.31728638               -1.33034862               -2.09044455               14.19995286               -1.54594878
              19.73275733               11.06356502               73.63413270                0.00010000                0.75524986                0.58436862               -2.55768980               -2.86003133               13.93687775               -1.42060872
              20.74283887               10.54426135               73.30580093                0.00010000                1.23769427                1.06804273               -4.03537386               -3.61787427               13.70664728               -1.26732256
              21.75751122               10.01837910               72.97413095                0.00010000                1.69191571                1.82780022               -5.81714260               -4.14900899               13.16886459               -1.12139542
              22.77667719                9.49064978               72.63400443                0.00010000                2.14865364                2.83375564               -7.87647751               -4.15167957               11.90226400               -1.00147866
              23.80048429                8.96761039               72.27661150                0.00010000                2.61542379                3.90046442              -10.02955725               -3.39466248                9.42284258               -0.95492379
              24.82898566                8.45594613               71.88976928                0.00010000                3.07310513                4.67105199              -11.86941951               -1.90780256                5.37915852               -1.10044021
              25.86194639                7.96019165               71.46008290                0.38719221                3.29607315                4.63164467              -12.82579508               -0.87855516                2.51710967               -1.65241123
              16.20591439               14.03300088               75.09025969                0.85529415                0.06046497                0.05637314               -0.18112629               -0.01294185                0.05218705                0.69520518
              17.20651904               13.55375072               74.61344167                0.18288620                0.09650343                0.05901436               -0.21595879               -0.06926659                0.45003258               -0.55134714
              18.20784446               13.07284032               74.14479712                0.00010000                0.30655422                0.04505468               -0.34263074               -0.81342630                8.12120290               -1.16831573
              19.21265013               12.57683360               73.82252393                0.00010000                0.69601811                0.19737256               -1.33726430               -1.28596844               15.02375622               -1.01670092
              20.22176482               12.06981965               73.49938703                0.00010000                1.04312056                0.56562559               -2.49209311               -1.65515432               14.58891617               -0.94039271
              21.23351254               11.55548988               73.17372584                0.00010000                1.31562989                1.08227776               -3.88539629               -1.97714610               14.14747917               -0.89350974
              22.24807742               11.03656532               72.84387083                0.00010000                1.64099771                1.75863811               -5.56044497               -2.17348372               13.48440934               -0.86215354
              23.26633249               10.51739340               72.50494095                0.00010000                2.07394689                2.54653171               -7.49732750               -2.06807006               12.16236552               -0.85871792
              24.28955636               10.00307713               72.14830953                0.00010000                2.60948332                3.32365207               -9.54180651               -1.57194840                9.66847538               -0.90545918
              25.31852216                9.49773385               71.76132361                0.00010000                3.14512189                3.88658429              -11.33706679               -0.79691627                5.54633246               -1.06700791
              26.35245880                9.00165042               71.32873502                0.38833600                3.39366382                3.93245293              -12.34174289               -0.36030332                2.67040604               -1.64212418
              16.68502487               15.03369535               74.95366589                0.90987600                0.08794360                0.06944698               -0.27990897               -0.01152939                0.30983582                0.64656466
              17.68590430               14.55446958               74.47216984                0.56540184                0.16652416                0.07188585               -0.29282085               -0.08448703                0.98786804               -0.56375737
              18.68835535               14.07323509               74.00453373                0.31976560                0.95654328                0.03947745               -0.46443314               -0.80573385                9.31471765               -1.17986359
              19.70503517               13.57733313               73.69133775                0.31062861                1.63213096                0.04995335               -1.38156896               -0.67937384               16.00717928               -0.46190182
              20.72099797               13.07487753               73.37114713                0.30783713                1.57575613                0.50578778               -2.47286058               -0.64799680               15.13392696               -0.47121099
              21.73655029               12.56590691               73.04796486                0.30983998                1.55700247                1.04170296               -3.79632770               -0.76250830               14.58772534               -0.47673974
              22.75213802               12.05355186               72.72015990                0.31649254                1.61268423                1.69865479               -5.38651897               -0.81026512               13.88109543               -0.51367293
              23.76880397               11.54158041               72.38324753                0.32872358                1.82834278                2.41870082               -7.23072225               -0.72627315               12.60208820               -0.58689696
              24.78870487               11.03408344               72.02894295                0.34638315                2.28350330                3.10063100               -9.19687028               -0.48027803               10.22752422               -0.71075848
              25.81447404               10.53367782               71.64473221                0.37021231                2.91011567                3.59439694              -10.95966944               -0.16694839                6.12521361               -0.90437800
              26.84690719               10.03884070               71.21213715                0.69457077                3.24331462                3.71902825              -11.97129164               -0.03887268                3.29063382               -1.53452113
              12.32241385                5.17965269               77.31070171                0.97531011               -0.14921310               -0.14488286                0.51651556               -0.01766889               -0.38848286                0.48916223
              13.32092172                4.69535479               76.87809032                0.96692882               -0.14476258               -0.12735643                0.46180346               -0.00305405               -0.47025925                0.05446229
              14.31951860                4.21078208               76.44327198                0.99189416               -0.13435632               -0.10822761                0.40667244               -0.00251642               -0.48886722               -0.05384868
              15.31823459                3.72575369               76.01014026                0.63803178               -0.13822651               -0.08975254                0.34835754               -0.03849977               -0.45092323               -0.31394865
              16.31675407                3.23972931               75.57635828                0.43016334               -0.13970595               -0.06448433                0.29300561               -0.06418457               -0.43517494               -0.30227970
              17.31544047                2.75283333               75.14411399                0.09551277               -1.23522877               -0.06249734                0.21860813               -1.08712755                0.88307671               -0.55834853
              18.29204949                2.24531831               74.73767991                0.00010000               -4.14577824                1.28156102                0.24498391               -6.76807702               10.41772225               -2.89657025
              19.23252491                1.60348066               74.49470184                0.00010000               -1.86412431               -0.06508285               -1.42863380               -6.56029679               19.66108300                0.36191524
              20.25476701                0.94685718               74.24297076                0.00010000                5.53172387               -1.42735269               -2.17659285               -6.15891249               18.90978580                0.70098425
              21.34315939                0.28440435               73.98012267                1.00000000                4.79146311                0.58918650               -2.45712010               -5.98074310                8.85341700               -0.01631069
              22.35059627               -0.25535708               73.54054429                1.00000000                0.74368827                0.58643043               -2.43233908               -0.14973720                0.00513503                0.00492754
              12.80653506                6.17820386               77.17423509                0.95666947               -0.12085777               -0.13388081                0.43863341               -0.00852274                0.02444246                0.68593027
              13.80532649                5.69408122               76.74144862                0.92390063               -0.11205396               -0.11847096                0.38477372                0.00585329                0.10043464                0.07802111
              14.80429398                5.20969980               76.30968905                0.98106094               -0.09752551               -0.10008192                0.33088492                0.00486879                0.16040891               -0.24365152
              15.80337598                4.72485616               75.87803997                0.78535841               -0.08607910               -0.08847143                0.28538085               -0.01844172                0.24378795               -0.26651164
              16.80257240                4.23908447               75.44831703                0.60779243               -0.08006380               -0.06578736                0.21460389               -0.04193736                0.23645522               -0.23379895
              17.80177470                3.75220835               75.01730786                0.24987085               -0.17636745               -0.05487611                0.14188559               -0.37503716                0.27899119               -0.41671506
              18.79904505                3.25813392               74.58961398                0.00010000                0.71889025                0.59474155                0.02117235               -7.43992554               10.07536114               -1.53576950
              19.81615250                2.60282983               74.35544854                0.00010000                2.68354909               -1.66360871               -1.28477499              -10.25815875               18.24399797                1.04433564
              20.85271604                1.93258365               74.08633816                0.00010000                3.41532906               -0.83658336               -1.74114609               -8.50774782               15.89415962                0.98507802
              21.88445909                1.29029622               73.79969451                1.00000000                1.80721495                0.42216403               -1.47317948               -4.97512927                7.65140818               -0.02898535
              22.88886033                0.75050722               73.36013259                1.00000000                0.44012484                0.42332867               -1.45443535               -0.15623201               -0.00002081               -0.02620683
              13.29048867                7.17697508               77.04092963                0.96318964               -0.09458243               -0.10765989                0.35848958               -0.01183400                0.16084455                0.80650804
              14.28954285                6.69298537               76.60497080                0.93957046               -0.08238179               -0.09949990                0.30756050               -0.00050267                0.35324679               -0.00226288
              15.28884104                6.20878044               76.17244841                0.00010000               -0.05308801               -0.07898416                0.25568565               -0.02052893                0.90155876               -0.67755308
              16.28848109                5.72398426               75.74748173                0.00010000               -0.01389535               -0.62524385                0.22666465               -0.39890812                1.26571333                0.43529280
              17.28856313                5.23841357               75.32272840                0.00010000                0.02045966               -1.11781821                0.13487349               -0.35166079                1.06734762                1.59722675
              18.28889028                4.75173580               74.89485760                0.00010000                0.20331848               -1.94737591                0.06388461                0.01455492                1.07490787                3.18719768
              19.29262950                4.25721314               74.47176171                0.00010000                3.20108591               -4.58119732               -0.07947775               -7.51963608               10.59855721                6.17778685
              20.35291200                3.57020849               74.23703133                0.00010000                5.22580827               -2.65915932               -2.01529555              -13.22899750               16.56619160                2.87787331
              21.39714566                2.93012551               73.93688025                0.00010000                3.64106164               -0.27464649               -1.94590068              -10.26615578               12.55506521                1.51411032
              22.42573323                2.29284764               73.61858785                0.97484944                1.49519804                0.11964629               -0.42385594               -4.74866583                6.08314300               -0.06210106
              23.42704963                1.75310949               73.17902437                1.00000000                0.13163937                0.12299526               -0.42123378               -0.13407923               -0.01030431               -0.06960104
              13.77427780                8.17605067               76.90615856                0.95658130               -0.07667250               -0.07414662                0.27956314               -0.01085050                0.26912999                0.69110208
              14.77351107                7.69209123               76.46648848                0.37496224               -0.06966393               -0.08414542                0.23464126                0.00814425                0.46519259               -0.37643206
              15.77288452                7.20812012               76.03040900                0.00010000               -0.38731927               -0.10016507                0.17631366               -0.54965074                2.42536918               -1.19380776
              16.76576469                6.71235128               75.63004029                0.00010000               -0.25484379               -0.94969630               -0.30100330               -1.40739865                4.46097655                0.71054052
              17.76778764                6.21672811               75.23237109                0.00010000                0.87507695               -1.99578008               -0.82038381               -1.51441991                5.01485886                2.78066303
              18.78326622                5.71326083               74.84169312                0.00010000                3.11960027               -3.78383211               -1.48390773               -2.93587448                6.76580856                5.47341086
              19.83017965                5.16650997               74.48005967                0.00010000                4.76969787               -6.70197966               -2.45847645               -6.90952193                8.57492082                8.83140169
              20.87866018                4.54964665               74.13381882                0.00010000                4.72870634               -1.65890471               -3.28685177              -11.54128662                9.25047745                3.98174445
              21.92475377                3.92709072               73.79643779                0.00010000                4.39208048                0.30926517               -3.66115854              -12.76138576                8.18634751                2.38711333
              22.96650179                3.29268915               73.43643708                0.00010000                2.04506334                2.82726220                0.31152297               -9.28526470                3.97214331                0.92632832
              23.96565504                2.75296713               72.99688354                0.38005215               -0.08467511                4.43314385                0.29881936               -5.09350938                0.01515957                1.88754591
              14.25819054                9.17549214               76.76988561                0.93481789               -0.05542583               -0.04029760                0.20299161               -0.01033086               -0.00477988                0.61245847
              15.25763628                8.69130246               76.32238182                0.22230243               -0.03012884               -0.07229913                0.17052480               -0.00520275                0.42333807               -0.56599531
              16.25758796                8.20677714               75.88316605                0.00010000               -0.29555782               -0.16285457                0.09576379               -0.85514367                3.84358247               -1.77395442
              17.25172513                7.70499033               75.50423686                0.00010000               -0.01113910               -0.64443168               -0.70166275               -1.79515949                7.13851570               -0.13567292
              18.25736518                7.19849796               75.12838563                0.00010000                1.43328994               -1.56740976               -1.56972360               -2.57642212                7.72332984                1.39335398
              19.28039092                6.67605916               74.75941401                0.00010000                3.03440326               -2.82932733               -2.61080982               -4.70899461                8.35636775                2.90792682
              20.31805325                6.12317355               74.39764847                0.00010000                4.05572956               -2.93107136               -3.79206330               -8.76951634                8.53122380                3.46626959
              21.36150552                5.53703039               74.03820353                0.00010000                4.04111028               -0.44327605               -4.89848110              -11.95070335                7.64323959                3.63923524
              22.39887545                4.93631082               73.66866593                0.00010000                2.63230093                2.11077315               -5.34149584              -12.94860113                5.37772958                3.18278627
              23.41415153                4.34939288               73.27374948                0.00010000                0.28740121                6.32911453               -5.58349118               -9.65695975                2.63293742                2.97444529
              24.40462348                3.84177237               72.85346549                0.37648212               -0.95280580                8.22364036               -4.95722433               -5.34676582                1.67286003                4.02446284
              14.74245054               10.17524471               76.63294576                0.94230942               -0.03285196               -0.01445751                0.11650712               -0.01400927               -0.00079510                0.63077302
              15.74212202                9.69064524               76.18011350                0.21514698               -0.01783850               -0.05369095                0.10556586               -0.05086203                0.14639305               -0.46322890
              16.74209377                9.20486302               75.73003355                0.00010000               -0.19906777               -0.15339018                0.04696346               -1.09239212                4.79905103               -1.91692936
              17.73814067                8.69946265               75.37056699                0.00010000                0.15482985               -0.43449675               -0.97991278               -2.37543232                9.34397305               -0.85972674
              18.74519037                8.18537991               75.00971848                0.00010000                1.31350412               -0.92590868               -2.07131986               -3.53231986                9.44449912                0.10794991
              19.76441075                7.65667429               74.65083244                0.00010000                2.43138585               -1.22578591               -3.31952217               -5.67894333                9.54901224                0.93523251
              20.79381809                7.10788854               74.29251202                0.00010000                3.10490476               -0.65750694               -4.71370217               -8.38833313                9.14523654                1.61709220
              21.82650885                6.54078113               73.92898932                0.00010000                2.98005900                1.11889904               -6.10059623              -10.45399080                7.85812769                2.20304212
              22.85341927                5.96930619               73.55129231                0.00010000                2.06960998                3.71338978               -7.28168819              -10.31860834                5.63042307                2.86535825
              23.86790104                5.41927144               73.15099250                0.00010000                1.02707407                6.49687350               -7.96959605               -6.65502328                2.90077396                3.52421413
              24.87396075                4.91743993               72.72435994                0.37756772                0.60597032                6.96777775               -8.08267436               -2.95199154                1.36492056                3.15915202
              15.22710929               11.17520299               76.49659077                0.95508466               -0.01085641                0.00491802                0.03360258               -0.01267370               -0.00515548                0.69210156
              16.22700073               10.69022864               76.03809932                0.23874859               -0.00932900               -0.03035976                0.04214801               -0.06865460                0.03956279               -0.45038892
              17.22692271               10.20370933               75.58040619                0.00010000               -0.16505679               -0.08855859                0.01860671               -1.18627961                5.49074852               -1.68741703
              18.22369959                9.69630040               75.23137715                0.00010000                0.12922168               -0.15940524               -1.14248852               -2.62603003               10.84382753               -1.31778165
              19.22950715                9.17997979               74.88033429                0.00010000                1.03019146               -0.22381988               -2.35879660               -3.81174824               10.74394442               -0.77225232
              20.24430342                8.65154344               74.52844550                0.00010000                1.83362985               -0.04644575               -3.72504406               -5.46533456               10.56968794               -0.21807662
              21.26617974                8.11002341               74.17376459                0.00010000                2.33523177                0.71102631               -5.24918240               -7.19067214                9.96310988                0.33358831
              22.29100806                7.55940838               73.81118669                0.00010000                2.39166161                2.18696583               -6.84595610               -8.15830683                8.62808498                0.92642470
              23.31401298                7.01057861               73.43334710                0.00010000                2.09546313                4.07791472               -8.31634189               -7.43303505                6.44840804                1.54099534
              24.33291732                6.47933035               73.03266657                0.00010000                1.76168373                5.57794240               -9.36866439               -4.51139667                3.48312495                1.91873345
              25.34924665                5.98112792               72.60282384                0.37896605                1.63293299                5.78354882               -9.66700582               -2.01043988                1.59358170                1.46393476
              15.71214577               12.17534307               76.36052385                0.95789515                0.00968214                0.02477506               -0.04366582               -0.00762467                0.00158410                0.73114649
              16.71224259               11.69003805               75.89621358                0.26142960                0.00753276               -0.00966352               -0.01745166               -0.06947537                0.03098286               -0.46626102
              17.71229643               11.20309185               75.43249041                0.00010000               -0.14464912               -0.04630405               -0.00994749               -1.13042568                6.08254663               -1.62763765
              18.70934961               10.69627455               75.08975557                0.00010000                0.07079666                0.12266966               -1.21942630               -2.47334603               11.98591349               -1.49035053
              19.71371236               10.18090351               74.74524229                0.00010000                0.78554164                0.29635123               -2.48887856               -3.47008753               11.77353398               -1.20991758
              20.72506044                9.65574537               74.39845391                0.00010000                1.42136764                0.66947508               -3.90099445               -4.62636812               11.43620312               -0.86017603
              21.74213971                9.12210907               74.04718112                0.00010000                1.88635314                1.41493326               -5.47399404               -5.59985375               10.72215242               -0.48419931
              22.76278750                8.58452044               73.68667323                0.00010000                2.13484402                2.54811024               -7.13886041               -5.89727946                9.35339470               -0.09833576
              23.78483659                8.05086448               73.31001711                0.00010000                2.21681478                3.81757787               -8.71144089               -5.06202012                7.11178201                0.22048812
              24.80712380                7.53083028               72.90907312                0.00010000                2.26601064                4.72467237               -9.88810581               -2.97440758                3.92685447                0.25140032
              25.83015680                7.03311091               72.47610873                0.38015919                2.30330044                4.67911430              -10.30017555               -1.32655834                1.81314095               -0.33198020
              16.19756685               13.17569849               76.22463503                0.95957058                0.02955925                0.04665183               -0.12227389               -0.00470708                0.00259732                0.73482317
              17.19786244               12.69003537               75.75413645                0.28814740                0.02554262                0.00936638               -0.07281444               -0.06369139                0.06087658               -0.50964781
              18.19807770               12.20278325               75.28488927                0.00010000               -0.07207146               -0.02048958               -0.04009684               -0.94256175                6.72387565               -1.39391987
              19.19642101               11.69875379               74.94830220                0.00010000                0.12784339                0.30379629               -1.25246971               -1.99312172               13.03862041               -1.39690246
              20.20063457               11.18590681               74.60852871                0.00010000                0.70747443                0.57946036               -2.52297214               -2.71568962               12.63342308               -1.22369959
              21.21057050               10.66493294               74.26567395                0.00010000                1.23865138                1.00957284               -3.92962759               -3.42878568               12.15759439               -1.02110636
              22.22540760               10.13832207               73.91727305                0.00010000                1.68682789                1.65801291               -5.48968158               -3.90843403               11.34799838               -0.81252643
              23.24430706                9.61037058               73.55874189                0.00010000                2.05275678                2.49424717               -7.14210843               -3.87490580                9.92101723               -0.62490853
              24.26646273                9.08693017               73.18312949                0.00010000                2.34378400                3.35337509               -8.71513801               -3.13035918                7.59872488               -0.53364606
              25.29118274                8.57382380               72.78170788                0.00010000                2.58457497                3.93143005               -9.91489919               -1.73075367                4.22829007               -0.69722733
              26.31815423                8.07471021               72.34554833                0.38157148                2.69714931                3.78768752              -10.37545473               -0.74272046                1.97974487               -1.35564327
              16.68337787               14.17627611               76.08834318                0.86968317                0.05061332                0.06898295               -0.20155919               -0.00427738                0.04801664                0.66432424
              17.68388401               13.69022538               75.61175560                0.20743081                0.06744493                0.02900305               -0.13059571               -0.05679695                0.41333960               -0.52748596
              18.68472677               13.20268206               75.14265273                0.00010000                0.12398024               -0.01473590               -0.11494188               -0.69763970                7.53367578               -1.13088562
              19.68636361               12.70235047               74.80937386                0.00010000                0.42463200                0.27829647               -1.28336927               -1.19256642               13.93273840               -0.90832125
              20.69321941               12.19249272               74.47405651                0.00010000                0.88529297                0.63692219               -2.53187223               -1.57764467               13.39676435               -0.79453096
              21.70406947               11.67593683               74.13441993                0.00010000                1.26569918                1.10148049               -3.90908562               -1.90632232               12.76399081               -0.70313908
              22.71853340               11.15526933               73.78852486                0.00010000                1.63059110                1.68478649               -5.43035382               -2.09370380               11.87735023               -0.61594744
              23.73668129               10.63440539               73.43195064                0.00010000                2.01213983                2.34080126               -7.04103776               -1.98401756               10.41543678               -0.55058650
              24.75877619               10.11793198               73.05771847                0.00010000                2.40236973                2.95844265               -8.58427421               -1.49589531                8.04333405               -0.55202626
              25.78472869                9.60945889               72.65636053                0.00010000                2.73766904                3.36029238               -9.77820452               -0.74602424                4.50651874               -0.71468197
              26.81352957                9.10886466               72.21715731                0.38257191                2.88008854                3.27663736              -10.24034565               -0.27292610                2.15710021               -1.30461287
              17.16958277               15.17707815               75.95079222                0.91548956                0.07377819                0.08020429               -0.29133865               -0.02578227                0.29939844                0.60951571
              18.17032055               14.69061543               75.46980575                0.57395019                0.12085213                0.03900565               -0.18798417               -0.08582636                0.91567363               -0.53523473
              19.17199981               14.20248853               75.00141564                0.31917649                0.62192373               -0.01935280               -0.19688610               -0.58748149                8.69914689               -1.13359542
              20.18275903               13.70431972               74.67752405                0.31045208                1.17477531                0.19692480               -1.36532774               -0.55262214               14.96793071               -0.42478128
              21.19549532               13.19864526               74.34548989                0.30773054                1.34542097                0.61525391               -2.60064650               -0.64026747               14.01492377               -0.41030329
              22.20966745               12.68696255               74.00869614                0.30954941                1.47848224                1.10257252               -3.96386698               -0.77157523               13.29748052               -0.38907884
              23.22506496               12.17201780               73.66525505                0.31582704                1.61483047                1.67484733               -5.47002644               -0.83564054               12.38194582               -0.38929417
              24.24196406               11.65718661               73.31107788                0.32701595                1.82131826                2.27812184               -7.07013682               -0.76766272               10.95720811               -0.41488308
              25.26149133               11.14609902               72.93939851                0.34343124                2.16827606                2.81670393               -8.61622777               -0.53633428                8.66474126               -0.49045741
              26.28532958               10.64102964               72.54069217                0.36556159                2.61964158                3.15707592               -9.83890724               -0.23271430                5.08371426               -0.65665140
              27.31388416               10.14024296               72.10140421                0.69171015                2.85545841                3.13782951              -10.30860010               -0.04321004                2.68787290               -1.20749035
              12.75140477                5.32138414               78.31520822                0.97455958               -0.12117238               -0.10710778                0.38779243               -0.00481694               -0.38899801                0.48594160
              13.75019305                4.83292419               77.88241799                0.96418296               -0.12695134               -0.11204180                0.40409513                0.00742854               -0.47216031                0.05428999
              14.74886575                4.34421895               77.44741501                0.99458227               -0.13704291               -0.11434903                0.41954499                0.00798728               -0.49235130               -0.05089429
              15.74745219                3.85511318               77.01406748                0.65618896               -0.15859345               -0.11776001                0.43193989               -0.02305735               -0.45232844               -0.29741247
              16.74569388                3.36514208               76.58010580                0.44259695               -0.17757185               -0.11577195                0.44781747               -0.04508998               -0.44077173               -0.30125695
              17.74390076                2.87443252               76.14752256                0.09446422               -1.17989925               -0.13477788                0.45190560               -0.96132588                0.88815317               -0.55958895
              18.72209589                2.36527462               75.74106650                0.00010000               -3.39208838                1.09181746                0.39056829               -5.60506126                9.80052937               -2.88008618
              19.67605899                1.74432618               75.48201914                0.00010000               -1.08183969               -0.39633164               -1.11980532               -5.48647052               18.33813427                0.13717906
              20.70045910                1.10676811               75.22228601                0.00010000                5.33590768               -1.49640907               -1.96984223               -5.31245208               18.13860897                0.41920366
              21.78277714                0.45970623               74.95550599                1.00000000                4.48200712                0.60775878               -2.45653231               -5.20799116                8.62548637               -0.04311765
              22.79009924               -0.07990436               74.51648789                1.00000000                0.73221007                0.58585943               -2.36137319               -0.13807263                0.00036555               -0.03906270
              13.23981655                6.32031306               78.17802333                0.95547118               -0.09666233               -0.09762506                0.32185282               -0.00695038                0.02200719                0.67963744
              14.23884993                5.83180377               77.74506722                0.91972016               -0.09827108               -0.10494508                0.33915435                0.00550316                0.09697886                0.07769539
              15.23785113                5.34307546               77.31313463                0.98849962               -0.10449340               -0.10822060                0.35576750                0.00475274                0.16145827               -0.23857203
              16.23676006                4.85393558               76.88139377                0.83262735               -0.11339117               -0.11722498                0.38009341               -0.01520100                0.23951239               -0.24488529
              17.23558330                4.36398436               76.45134528                0.65194851               -0.12694171               -0.11701915                0.38334467               -0.03608464                0.22461282               -0.22849104
              18.23422122                3.87308475               76.02001136                0.27540499               -0.22424268               -0.12879789                0.38927374               -0.31295320                0.25340175               -0.41170925
              19.23109845                3.37619280               75.59161646                0.00010000                0.81131561                0.44882669                0.37039604               -6.34990872                9.42026251               -1.57089808
              20.25044754                2.74036287               75.34431470                0.00010000                2.92730520               -1.81263503               -0.97443276               -8.75800623               17.33522231                0.48006952
              21.28964455                2.09180402               75.07003425                0.00010000                3.67929659               -0.99022836               -1.54735279               -7.21359711               15.67806960                0.37368320
              22.32403347                1.46578382               74.78465716                1.00000000                1.93422779                0.48719711               -1.51058396               -4.15406276                7.68939822               -0.00114470
              23.32832911                0.92595423               74.34557464                1.00000000                0.42956426                0.47295662               -1.42696288               -0.16273724               -0.00042752               -0.03390656
              13.72828434                7.31943163               78.04397735                0.96255699               -0.07436294               -0.07455982                0.25376383               -0.00981447                0.15690378                0.79742945
              14.72754071                6.83082529               77.60787989                0.93685372               -0.07276683               -0.08994771                0.27436252                0.00011520                0.34802649               -0.00035155
              15.72682900                6.34205454               77.17520634                0.00010000               -0.06507132               -0.09165284                0.29338324               -0.01751600                0.90698766               -0.67253775
              16.72623928                5.85276868               76.75029765                0.00010000               -0.05029919               -0.62093240                0.33112935               -0.33394908                1.25541131                0.22621969
              17.72582302                5.36280169               76.32501581                0.00010000               -0.04030141               -1.09116899                0.31586059               -0.24205008                1.04599970                1.17155141
              18.72543325                4.87185657               75.89684436                0.00010000                0.09982904               -1.84690103                0.32508280                0.16294912                1.04288932                2.49028368
              19.72781960                4.37425116               75.47285566                0.00010000                2.99271920               -4.20601873                0.29158465               -6.33042098                9.65241453                5.08908511
              20.78528764                3.70807348               75.21956196                0.00010000                5.14733044               -2.62384452               -1.51226103              -11.35153978               15.44276937                1.69719631
              21.83076621                3.08696355               74.91823912                0.00010000                4.01290208               -0.42172639               -1.84474433               -8.95070590               13.01569360               -0.24990327
              22.86554568                2.46945017               74.61464079                0.00010000                1.78687343                0.24539810               -0.52967896               -3.76206056                6.77889087               -0.22551240
              23.86650367                1.92955477               74.17529041                1.00000000                0.09579965                0.25294870               -0.45624361               -0.14806738                0.02154277               -0.30085036
              14.21683295                8.31882186               77.90847906                0.95667330               -0.06036288               -0.04459475                0.18744860               -0.00677979                0.26415702                0.68007190
              15.21622932                7.83000482               77.46873496                0.38908757               -0.06377647               -0.08026316                0.21454482                0.01220180                0.45237159               -0.36678669
              16.21555742                7.34124241               77.03243228                0.00010000               -0.34476974               -0.11870687                0.22595760               -0.50495935                2.19438632               -1.18789137
              17.20933393                6.84151693               76.62761045                0.00010000               -0.19515040               -0.94249042               -0.17979044               -1.25281789                3.95961650                0.32704212
              18.21165441                6.34216098               76.22525139                0.00010000                0.83484090               -1.92091046               -0.59683781               -1.25052905                4.38289572                2.01852303
              19.22603074                5.83614673               75.82884656                0.00010000                2.83093507               -3.53179168               -1.09926314               -2.39048003                5.84969785                4.24998072
              20.26827311                5.29207242               75.45858975                0.00010000                4.23368023               -6.10755409               -1.85870822               -5.72928577                7.53511351                7.08430944
              21.31070435                4.68788598               75.10558821                0.00010000                4.04903160               -1.60259697               -2.54762402               -9.75460472                8.12343243                2.47753544
              22.34925375                4.08336950               74.75926224                0.00010000                4.77483424                0.15689177               -2.91042450              -10.85796787                8.74232768                0.36331754
              23.40620103                3.47069178               74.43856806                0.00010000                2.79524132                2.72086275               -3.14946521               -8.77215665                2.69509780               -0.99297609
              24.40515857                2.93101321               73.99890136                0.37129589               -0.10424612                4.48655940               -0.77841513               -5.41550750               -2.86614432                1.64503259
              14.70578283                9.31853974               77.77149093                0.95081109               -0.04186296               -0.01659664                0.12115075               -0.00735225               -0.00728436                0.59226663
              15.70536420                8.82922003               77.32406564                0.24175062               -0.02825612               -0.07268789                0.16664542                0.00004687                0.39764167               -0.54951704
              16.70521770                8.33968041               76.88448154                0.00010000               -0.25499213               -0.18509269                0.16472558               -0.79700907                3.42686309               -1.73917116
              17.70026435                7.83391887               76.49783494                0.00010000                0.04824672               -0.67706689               -0.56741788               -1.65806588                6.26687508               -0.37543062
              18.70618264                7.32438348               76.11386036                0.00010000                1.37239267               -1.54287375               -1.32259970               -2.28605018                6.66774608                0.87651534
              19.72771221                6.80122073               75.73552240                0.00010000                2.76559955               -2.68635818               -2.16955558               -4.07419296                7.07908184                2.10036441
              20.76149463                6.25210007               75.36361871                0.00010000                3.55931304               -2.75538742               -3.07159315               -7.49443512                7.12661912                2.43216280
              21.79889847                5.67602154               74.99460571                0.00010000                3.46532075               -0.53326107               -3.87749534              -10.01977830                6.43389247                2.24247558
              22.83080104                5.09010138               74.62154837                0.00010000                2.17801833                1.66238390               -4.37107957              -10.32621793                4.09411780                1.76253714
              23.84245883                4.52386743               74.22098604                0.00010000                0.33748166                5.25033429               -4.30814126               -8.47712036                1.94742244               -0.33882634
              24.83755068                4.01928596               73.80813987                0.37061294               -0.49081575                7.16971588               -4.18754460               -5.06615479                1.89022268                0.28417264
              15.19532533               10.31848993               77.63374124                0.95255271               -0.02357389                0.00385842                0.04847748               -0.00793654                0.00194910                0.60451183
              16.19508959                9.82855106               77.18122828                0.23765475               -0.02034671               -0.05774557                0.11634894               -0.04385906                0.12849198               -0.44536127
              17.19491840                9.33754055               76.73107736                0.00010000               -0.18100309               -0.18125811                0.15258284               -1.03088062                4.25719705               -1.85052111
              18.19146953                8.82797559               76.36140704                0.00010000                0.18565735               -0.48007852               -0.83920640               -2.22806512                8.21978414               -0.95757115
              19.19863154                8.31130350               75.99011895                0.00010000                1.26803826               -0.94624886               -1.82957393               -3.20243764                8.15281234               -0.15422279
              20.21683030                7.78241956               75.61979668                0.00010000                2.24760281               -1.22844740               -2.88190083               -5.00881662                8.03799891                0.51037863
              21.24358360                7.23696467               75.24925179                0.00010000                2.77385892               -0.74258680               -3.96980595               -7.22218373                7.49491287                1.00222775
              22.27230747                6.67722076               74.87423858                0.00010000                2.56499509                0.75865629               -4.97318773               -8.72998321                6.22584208                1.35546247
              23.29488350                6.11661717               74.48709330                0.00010000                1.75832886                2.89566078               -5.72527161               -8.37559355                4.34776768                1.55612813
              24.30747405                5.57569847               74.08265274                0.00010000                0.90574592                4.83764422               -6.11258941               -5.19749527                2.18475356                1.97245165
              25.31299842                5.07440752               73.65565955                0.37175737                0.55243694                5.06624121               -6.03895271               -2.30027622                1.07926200                1.03199580
              15.68550183               11.31861691               77.49662926                0.95596580               -0.00654412                0.02213444               -0.02082211               -0.00523977               -0.00186889                0.67071068
              16.68543639               10.82806511               77.03867114                0.26408329               -0.01631343               -0.04075780                0.06963683               -0.06150768                0.03073569               -0.43134330
              17.68517556               10.33605524               76.58128521                0.00010000               -0.17481429               -0.12447153                0.14576323               -1.12102533                4.87666077               -1.61394752
              18.68194010                9.82431730               76.22057365                0.00010000                0.12571760               -0.21098924               -1.00626516               -2.47049170                9.57528503               -1.29714370
              19.68768991                9.30545851               75.85769192                0.00010000                0.99673000               -0.27819973               -2.14698146               -3.48418009                9.33116646               -0.82610384
              20.70187470                8.77665179               75.49304320                0.00010000                1.72799228               -0.13612558               -3.33853035               -4.87855668                8.95146892               -0.35335561
              21.72224976                8.23724834               75.12476779                0.00010000                2.13857998                0.49260960               -4.56698173               -6.26854793                8.18102968                0.10150923
              22.74464630                7.69119467               74.74864824                0.00010000                2.12808508                1.69878079               -5.74489499               -6.93559627                6.85321882                0.54032632
              23.76481146                7.14801460               74.35915832                0.00010000                1.80361380                3.15390212               -6.72370260               -6.14380694                4.95326410                0.94488300
              24.78071858                6.62062031               73.95065217                0.00010000                1.46577905                4.23005196               -7.33105545               -3.65864719                2.61270203                1.00981480
              25.79412704                6.12061078               73.51934676                0.37295202                1.34084629                4.26229537               -7.42235477               -1.61524875                1.25165908                0.37653147
              16.17632412               12.31893262               77.35985871                0.95849569                0.00969809                0.04140569               -0.08662365               -0.00313779                0.00193901                0.71164386
              17.17642110               11.82773590               76.89626849                0.28840875               -0.00392074               -0.02553997                0.02497029               -0.06127607                0.02740212               -0.44412131
              18.17624571               11.33505112               76.43318531                0.00010000               -0.18823348               -0.08809822                0.13377669               -1.05685775                5.43195068               -1.55222260
              19.17265643               10.82375581               76.07811173                0.00010000                0.01838738                0.07560180               -1.09858859               -2.31924391               10.65272967               -1.39391575
              20.17661345               10.30573951               75.72104428                0.00010000                0.74064491                0.24091497               -2.32538029               -3.18473109               10.32278578               -1.12378436
              21.18746933                9.77969705               75.36083422                0.00010000                1.35281508                0.56107072               -3.59769478               -4.17754607                9.80543909               -0.79231572
              22.20366976                9.24681687               74.99524635                0.00010000                1.76799784                1.17682503               -4.91007659               -4.96735954                8.93969492               -0.44214296
              23.22282929                8.71119637               74.62030603                0.00010000                1.94559815                2.08397647               -6.18791304               -5.12634297                7.56318051               -0.10095451
              24.24258172                8.17969522               74.23072267                0.00010000                1.94378176                3.06107564               -7.28826148               -4.31077609                5.58742971                0.13534594
              25.26170492                7.66029951               73.82081344                0.00010000                1.90653954                3.70469307               -8.01558620               -2.48138745                3.01823255                0.06640953
              26.28071251                7.15965343               73.38539175                0.37418183                1.90075869                3.57097119               -8.16588999               -1.07794100                1.41266512               -0.61516878
              16.66783250               13.31944502               77.22323390                0.95988071                0.02598621                0.05987770               -0.15544169               -0.00278280                0.00417480                0.71365029
              17.66809236               12.82755431               76.75371281                0.31711252                0.00930034               -0.01021023               -0.01544976               -0.05482809                0.05969073               -0.48425256
              18.66801851               12.33429328               76.28537235                0.00010000               -0.16127601               -0.06774439                0.12051884               -0.85354850                6.05119643               -1.33451732
              19.66486684               11.82582933               75.93622195                0.00010000                0.00177705                0.28447627               -1.15346909               -1.83858954               11.68640262               -1.27442158
              20.66805405               11.31027681               75.58367325                0.00010000                0.61897914                0.56141729               -2.41944946               -2.49577748               11.19693318               -1.07682938
              21.67724642               10.78787320               75.22720838                0.00010000                1.16745994                0.93539271               -3.72884104               -3.13186452               10.57372494               -0.85454487
              22.69140325               10.26078484               74.86433732                0.00010000                1.59973343                1.47237487               -5.07640172               -3.52875155                9.63376515               -0.62443718
              23.70924109                9.73287420               74.49116226                0.00010000                1.90447789                2.14246544               -6.39429236               -3.44651988                8.20101226               -0.42027813
              24.72949280                9.20923611               74.10230874                0.00010000                2.09457612                2.80361800               -7.54189044               -2.73642996                6.12275300               -0.32823263
              25.75113261                8.69471418               73.69147130                0.00010000                2.21837854                3.20782039               -8.31370308               -1.48485674                3.34158261               -0.51185696
              26.77386037                8.19203021               73.25257381                0.37507964                2.27277596                3.00244279               -8.48133237               -0.60366012                1.57340122               -1.18110074
              17.16004988               14.32013017               77.08622851                0.88706018                0.04264048                0.07712784               -0.22061356               -0.00218335                0.04088421                0.63498812
              18.16047628               13.82753170               76.61082976                0.23342557                0.04249200                0.00551369               -0.05773249               -0.04659681                0.38661008               -0.49726386
              19.16089972               13.33369624               76.14249828                0.00010000               -0.02875840               -0.06279541                0.06580353               -0.57424399                6.83585282               -1.08537842
              20.15990111               12.82944533               75.79685655                0.00010000                0.18771605                0.33539032               -1.20784119               -1.06378489               12.58891858               -0.82008012
              21.16465404               12.31696785               75.44874959                0.00010000                0.72114470                0.67639484               -2.49316532               -1.44850625               11.98913217               -0.67910847
              22.17432401               11.79840490               75.09554413                0.00010000                1.17198429                1.08498576               -3.81659268               -1.76075856               11.23719831               -0.56106167
              23.18809372               11.27626436               74.73526375                0.00010000                1.55618043                1.57603770               -5.17561631               -1.91836376               10.23857085               -0.44280742
              24.20544762               10.75404568               74.36412020                0.00010000                1.89597095                2.10770278               -6.50655168               -1.79666002                8.76962854               -0.34515807
              25.22601314               10.23576758               73.97662405                0.00010000                2.18830379                2.58390462               -7.67297220               -1.33485810                6.61806489               -0.32313260
              26.24921369                9.72445592               73.56575952                0.00010000                2.39970516                2.85836668               -8.46212836               -0.65276402                3.64058438               -0.47638734
              27.27400725                9.21970229               73.12392810                0.37634823                2.47935540                2.70834420               -8.61330839               -0.20635322                1.73461015               -1.01925991
              17.65298577               15.32098758               76.94783912                0.92371218                0.06085865                0.08574067               -0.29756314               -0.03870934                0.29133630                0.57067227
              18.65359436               14.82766459               76.46841016                0.58379522                0.08171108                0.01328884               -0.09739506               -0.08570261                0.86005853               -0.49811422
              19.65462000               14.33303737               76.00059601                0.31889923                0.33625825               -0.06588650                0.01038141               -0.38434468                7.94656607               -1.08154315
              20.66031952               13.83253714               75.66403119                0.31029941                0.77521763                0.30918095               -1.31452706               -0.41979233               13.59500915               -0.38680972
              21.67012435               13.32380470               75.31913420                0.30765491                1.12076089                0.68368496               -2.61875861               -0.60118035               12.60040007               -0.35380539
              22.68273474               12.80957291               74.96868752                0.30951293                1.36354226                1.11680108               -3.96204113               -0.73388208               11.76949379               -0.31467490
              23.69739519               12.29230559               74.61075937                0.31512697                1.55349674                1.60412297               -5.34255057               -0.79708612               10.73941424               -0.29021041
              24.71380468               11.77502826               74.24184479                0.32527376                1.74951070                2.09825744               -6.70080702               -0.73386335                9.29318000               -0.28509867
              25.73238541               11.26091420               73.85661840                0.34023526                2.01689727                2.51466273               -7.90356615               -0.52011096                7.19121057               -0.32857141
              26.75414262               10.75188151               73.44795406                0.36075917                2.34275797                2.74255942               -8.73960791               -0.24296263                4.14675938               -0.46759749
              27.77924057               10.24619709               73.00596514                0.68861882                2.50979432                2.64948031               -8.89723098               -0.04510999                2.15888429               -0.92485054
              13.18021436                5.46374131               79.31845756                0.97491190               -0.09426285               -0.07138264                0.26519111                0.00738934               -0.38968077                0.48271712
              14.17927173                4.97114213               78.88617223                0.96221616               -0.10961355               -0.09689017                0.34721232                0.01748466               -0.47461929                0.05447768
              15.17802209                4.47832494               78.45166288                0.99672551               -0.13872486               -0.11879175                0.42755162                0.01798606               -0.49685614               -0.04755382
              16.17649723                3.98515284               78.01877906                0.67325137               -0.17692664               -0.14245628                0.50511386               -0.00915312               -0.45498054               -0.28198227
              17.17448355                3.49122520               77.58531463                0.45657982               -0.21271975               -0.16205693                0.58574779               -0.02809325               -0.44363706               -0.29862558
              18.17224284                2.99666394               77.15315210                0.09921440               -1.04600263               -0.20115758                0.66398824               -0.79755385                0.80320657               -0.56006622
              19.15356350                2.48661667               76.74549127                0.00010000               -2.70873749                0.83101280                0.48351904               -4.79319477                9.12087723               -2.66752956
              20.11806809                1.88163311               76.47230574                0.00010000               -0.47555840               -0.67447105               -0.83415285               -4.70648813               16.98698819               -0.05225567
              21.14405233                1.25974477               76.20357391                0.00010000                5.16995707               -1.56405662               -1.77763541               -4.63140990               17.15242507                0.18079577
              22.22146723                0.62523965               75.93099203                1.00000000                4.22937196                0.58988693               -2.43370417               -4.57888593                8.27421688               -0.04894735
              23.22863977                0.08568818               75.49331683                1.00000000                0.71725438                0.53384016               -2.24842400               -0.11744101               -0.01009440               -0.06836422
              13.67288743                6.46302749               79.18067215                0.95622171               -0.07326697               -0.06366910                0.21080127               -0.00506015                0.01948483                0.67320706
              14.67215476                5.97017323               78.74823171                0.91676564               -0.08454187               -0.09157696                0.29401348                0.00560970                0.09317896                0.07784399
              15.67119659                5.47713703               78.31680440                0.99453933               -0.10995954               -0.11464535                0.37571677                0.00479932                0.16156734               -0.23257746
              16.66995557                4.98372828               77.88564184                0.87691265               -0.13747602               -0.14304320                0.46450129               -0.01248910                0.23631977               -0.22499399
              17.66844707                4.48960463               77.45598393                0.69943742               -0.16920032               -0.16433562                0.53746373               -0.03115275                0.21912365               -0.22283582
              18.66657156                3.99465236               77.02509334                0.30947827               -0.26500541               -0.19788308                0.61828758               -0.25062227                0.24970505               -0.40692756
              19.66314696                3.49492680               76.59702190                0.00010000                0.89337970                0.27024404                0.69913796               -5.51836313                8.71337433               -1.50265216
              20.68443916                2.87488840               76.33595989                0.00010000                3.13940002               -1.93771029               -0.71387831               -7.62533824               16.27174849                0.06170357
              21.72593496                2.24410420               76.05539111                0.00010000                3.91337535               -1.19226555               -1.42240755               -6.27107571               15.22512008               -0.23056276
              22.76270666                1.63113852               75.76948283                1.00000000                2.05409369                0.45934196               -1.54001147               -3.51425423                7.58857057               -0.04394881
              23.76701684                1.09102658               75.33159334                1.00000000                0.43101741                0.40387947               -1.37334975               -0.13412024                0.00523522               -0.09911707
              14.16582166                7.46246793               79.04600490                0.96350280               -0.05472797               -0.04444841                0.15452254               -0.00764840                0.15297804                0.78822898
              15.16527438                6.96931059               78.61045806                0.93475747               -0.06293191               -0.08017436                0.24138687                0.00073148                0.34269199                0.00236284
              16.16456303                6.47603204               78.17831607                0.00010000               -0.07472721               -0.10249662                0.32603436               -0.01592276                0.91028463               -0.66657306
              17.16377984                5.98229198               77.75410431                0.00010000               -0.08133057               -0.61867201                0.42556316               -0.29556048                1.24792335                0.02285936
              18.16293641                5.48793849               77.32904561                0.00010000               -0.09358078               -1.06753057                0.48440542               -0.19116655                1.03566949                0.76605164
              19.16190822                4.99270628               76.90135926                0.00010000                0.00118903               -1.75349743                0.57081800                0.22166611                1.04027270                1.84345396
              20.16296019                4.49202155               76.47759340                0.00010000                2.72378478               -3.87468480                0.64739085               -5.44170295                8.75472918                4.09264127
              21.21638392                3.84287891               76.20678611                0.00010000                4.97102527               -2.53673991               -1.10688606              -10.00524596               14.23613843                0.72005527
              22.26238070                3.23589946               75.89998537                0.00010000                4.39379233               -0.65281844               -1.77528111               -8.38834535               13.21488937               -1.15730967
              23.30425977                2.63442649               75.60799427                0.00010000                2.19002776                1.76729256               -0.73744384               -6.20378609                7.29501177               -3.67212310
              24.30618126                2.09376576               75.16989950                0.99724143                0.19214890                3.09958666               -0.58153636               -3.03363641                0.06955537               -1.45677245
              14.65904914                8.46213852               78.90990753                0.95786942               -0.04438504               -0.01963197                0.10090880               -0.00318850                0.25796146                0.66776877
              15.65860529                7.96856975               78.47077938                0.40447674               -0.05761908               -0.07458976                0.19418043                0.01363497                0.43772101               -0.35405545
              16.65789675                7.47508709               78.03492815                0.00010000               -0.32336905               -0.13417056                0.27048691               -0.47110064                1.96686195               -1.17771050
              17.65213790                6.97135484               77.62644448                0.00010000               -0.18436563               -0.93034270               -0.05425925               -1.14645523                3.48945315               -0.05183537
              18.65420944                6.46825402               77.22043433                0.00010000                0.73919594               -1.83888924               -0.37391730               -1.08380964                3.83818573                1.27613304
              19.66692182                5.95958241               76.81970786                0.00010000                2.49654149               -3.27949734               -0.74650997               -2.02574692                5.12318449                3.08950115
              20.70414027                5.41743310               76.44288551                0.00010000                3.67672555               -5.54333958               -1.35642259               -4.84433417                6.68165664                5.44749222
              21.74045633                4.82415361               76.08286634                0.00010000                3.12401012               -1.48246861               -1.97417721               -8.52577387                7.73418377                1.17712057
              22.76662047                4.23104783               75.73822930                0.00010000                2.01541495                0.39155203               -2.10315493               -8.28362304                6.80384539               -1.28766641
              23.78076463                3.66648437               75.37344778                0.00010000                1.05225444                3.20525889               -4.74122849               -5.78904068                2.23295902               -3.68539649
              24.78766556                3.15301831               74.98131523                0.36399681                0.69009297                4.84659300               -2.81528900               -3.24965546                0.85649138               -1.18885471
              15.15289544                9.46207529               78.77230862                0.95207052               -0.02969323                0.00290511                0.04625486               -0.00233360               -0.00696076                0.57363941
              16.15259851                8.96781880               78.32571472                0.26292988               -0.02697613               -0.07186134                0.16402657                0.00118937                0.37174241               -0.53004814
              17.15235592                8.47334862               77.88646056                0.00010000               -0.24573521               -0.20190822                0.22784820               -0.74857411                3.01418610               -1.69235616
              18.14768381                7.96368512               77.49288851                0.00010000                0.03383634               -0.68911592               -0.42171842               -1.54155300                5.43313290               -0.62551584
              19.15303265                7.45116071               77.10193363                0.00010000                1.22651995               -1.48950669               -1.06864140               -2.04606287                5.73444300                0.34053893
              20.17221420                6.92711633               76.71602290                0.00010000                2.42348360               -2.51106791               -1.76054861               -3.54449375                6.04353952                1.27833265
              21.20150232                6.38115476               76.33621660                0.00010000                3.00197547               -2.53245413               -2.47308740               -6.43763076                6.12511055                1.38663535
              22.23225371                5.81322954               75.96065363                0.00010000                2.64375769               -0.51528801               -3.07276850               -8.23482142                5.56205949                0.93904284
              23.25437747                5.24373050               75.58124434                0.00010000                1.71273802                1.58854802               -3.59959743               -7.46789437                3.92262367               -0.18444850
              24.26650847                4.69853167               75.18758666                0.00010000                0.68713994                3.12849864               -3.31325086               -4.53838186                1.80895205               -0.98155528
              25.26812027                4.19069762               74.76971460                0.36491891                0.16117967                3.69273243               -3.51264426               -2.69006395                0.97066657               -2.65223878
              15.64751545               10.46219662               78.63391531                0.95360684               -0.01597089                0.02122226               -0.01032821               -0.00177434                0.00277980                0.58297523
              16.64735574                9.96713252               78.18244047                0.26172326               -0.02282506               -0.06286164                0.12661595               -0.03933554                0.11623702               -0.42599386
              17.64705895                9.47104893               77.73308521                0.00010000               -0.19304889               -0.20130962                0.24187444               -0.96812513                3.71233096               -1.77006321
              18.64349476                8.95757252               77.35378286                0.00010000                0.13990150               -0.50161450               -0.68508833               -2.07351320                7.11052744               -1.08083241
              19.64985698                8.43846389               76.97312700                0.00010000                1.12715652               -0.93141600               -1.57264110               -2.87915943                6.96957905               -0.46880959
              20.66603789                7.90936105               76.59319442                0.00010000                1.97087352               -1.18387682               -2.46365778               -4.38185703                6.77421855                0.00672874
              21.68927445                7.36678402               76.21311591                0.00010000                2.35731383               -0.75478650               -3.32854040               -6.14101129                6.23859360                0.28720883
              22.71318417                6.81384785               75.82952557                0.00010000                2.13430025                0.54589550               -4.08890573               -7.12685181                5.16277253                0.34748597
              23.73196045                6.26281879               75.43678688                0.00010000                1.49228490                2.10582025               -4.58031436               -6.40483212                3.58326696                0.24582107
              24.74302987                5.72905435               75.02874071                0.00010000                0.87859595                3.14171386               -4.82008341               -3.87356947                1.82220715               -0.09882486
              25.74953237                5.22687296               74.60358088                0.36616262                0.65025050                3.41143619               -4.74567770               -1.77962023                1.03006693               -0.97048790
              16.14298816               11.46249974               78.49617433                0.95670896               -0.00286696                0.03873415               -0.06788077               -0.00133985               -0.00002615                0.64891304
              17.14295949               10.96656157               78.03949206                0.28983133               -0.02173731               -0.05092872                0.09292378               -0.05345075                0.02938460               -0.40857484
              18.14255342               10.46932243               77.58332145                0.00010000               -0.20804554               -0.15443325                0.25220891               -1.04377442                4.24606547               -1.53267798
              19.13879858                9.95365283               77.21125185                0.00010000                0.05537536               -0.24122938               -0.85690657               -2.28697860                8.28653587               -1.31286160
              20.14366092                9.43253239               76.83739466                0.00010000                0.87291751               -0.30086965               -1.91173609               -3.13127155                7.98464934               -0.95270414
              21.15625693                8.90343879               76.46167489                0.00010000                1.52671895               -0.18135847               -2.95165840               -4.27720464                7.52776387               -0.60123332
              22.17419530                8.36605903               76.08242495                0.00010000                1.87124874                0.34563331               -3.95631507               -5.35519987                6.74773913               -0.29451176
              23.19368191                7.82414745               75.69628879                0.00010000                1.84395141                1.30697415               -4.84727285               -5.74107549                5.54822231               -0.05208019
              24.21107433                7.28584690               75.29887305                0.00010000                1.56505060                2.38010951               -5.52455938               -4.93320889                3.95299418                0.07688184
              25.22498292                6.76136595               74.88604546                0.00010000                1.29081550                3.11424988               -5.88663211               -2.85655258                2.06609404               -0.06470081
              26.23689064                6.25892635               74.45437675                0.36689069                1.19077214                3.03537650               -5.87993198               -1.25790429                1.00873977               -0.86293958
              16.63936499               12.46297130               78.35879138                0.95900104                0.00990366                0.05509827               -0.12487412               -0.00051776                0.00216519                0.68644389
              17.63946403               11.96611394               77.89671299                0.31696666               -0.01364004               -0.03862566                0.06146186               -0.05263592                0.02915138               -0.41613371
              18.63909219               11.46796026               77.43516594                0.00010000               -0.24593969               -0.12712479                0.25215690               -0.96634650                4.74555936               -1.46963257
              19.63454524               10.95274793               77.06778379                0.00010000               -0.08233029                0.04338562               -0.96444799               -2.12320940                9.25575188               -1.33749750
              20.63744559               10.43244650               76.69873468                0.00010000                0.62109591                0.20662656               -2.13001860               -2.85440817                8.87952722               -1.11554259
              21.64696716                9.90573389               76.32650002                0.00010000                1.20081050                0.48466716               -3.27377040               -3.68129018                8.29230190               -0.84536168
              22.66146180                9.37369669               75.94897959                0.00010000                1.58038170                0.98784457               -4.37904744               -4.29064228                7.40580814               -0.57334367
              23.67857479                8.83998733               75.56291497                0.00010000                1.73079893                1.70017047               -5.37926682               -4.33008632                6.13357657               -0.33772849
              24.69607778                8.31042098               75.16425188                0.00010000                1.71222901                2.43086183               -6.16796963               -3.55567784                4.44609076               -0.22631341
              25.71281937                7.79133934               74.74876140                0.00010000                1.65878534                2.86373168               -6.62267078               -2.00370462                2.37205082               -0.41525335
              26.72925348                7.28758049               74.31279093                0.36805534                1.64341136                2.68127472               -6.63074047               -0.84955558                1.13372855               -1.11576795
              17.13669253               13.46360170               78.22152620                0.96014571                0.02252871                0.06996760               -0.18379858                0.00013835                0.00624574                0.68650506
              18.13691782               12.96578905               77.75382745                0.34881499               -0.00500153               -0.02655957                0.03489979               -0.04696821                0.06167284               -0.45179331
              19.13659250               12.46677994               77.28729965                0.00010000               -0.25348269               -0.11047177                0.25239487               -0.74718325                5.31987292               -1.26523604
              20.13184816               11.95452055               76.92523282                0.00010000               -0.15028455                0.26958463               -1.03913318               -1.63847904               10.21972796               -1.18714285
              21.13358681               11.43666492               76.56013972                0.00010000                0.47663876                0.55015512               -2.27347676               -2.22597633                9.70262847               -0.99890053
              22.14138094               10.91313214               76.19109713                0.00010000                1.02711033                0.87512849               -3.48413880               -2.77584388                9.02074173               -0.79456774
              23.15412901               10.38581592               75.81574501                0.00010000                1.44874742                1.31472216               -4.65493552               -3.08571642                8.06060501               -0.58969523
              24.17035588                9.85815086               75.43085604                0.00010000                1.72398729                1.84161857               -5.72234118               -2.96065033                6.72274661               -0.42036021
              25.18860876                9.33446414               75.03229168                0.00010000                1.86967177                2.33693429               -6.57624528               -2.30449438                4.92698663               -0.37037360
              26.20774932                8.81864058               74.61543381                0.00010000                1.94042393                2.60545173               -7.07415122               -1.22476724                2.65460532               -0.57949410
              27.22741724                8.31255184               74.17592169                0.36919111                1.96679171                2.37538194               -7.07536308               -0.47731758                1.25956959               -1.21717258
              17.63499306               14.46437066               78.08393091                0.90520314                0.03533727                0.08343355               -0.23776983               -0.00004597                0.03328240                0.60262657
              18.63534643               13.96558275               77.61060095                0.26309403                0.02119878               -0.01483565                0.00778110               -0.03864061                0.36140960               -0.46153123
              19.63541704               13.46575083               77.14396880                0.00010000               -0.17278788               -0.10588627                0.21416382               -0.43627614                6.05724438               -1.02777597
              20.63189068               12.95813962               76.78521704                0.00010000               -0.05512830                0.38568451               -1.11107576               -0.90141863               11.07903796               -0.75404340
              21.63431447               12.44344960               76.42419321                0.00010000                0.52042984                0.70675023               -2.39465809               -1.28214893               10.45939866               -0.60677211
              22.64229927               11.92323646               76.05808808                0.00010000                1.02071396                1.06250760               -3.64860818               -1.57036222                9.66113637               -0.48682095
              23.65472875               11.39999113               75.68501253                0.00010000                1.42071472                1.47032227               -4.86164386               -1.69248962                8.64486265               -0.36838531
              24.67071357               10.87681970               75.30181960                0.00010000                1.73847074                1.89422930               -5.97206995               -1.56093614                7.26377132               -0.27267608
              25.68949816               10.35715967               74.90425902                0.00010000                1.97613766                2.25373787               -6.86753068               -1.13869050                5.38479570               -0.25437006
              26.71023632                9.84344838               74.48711796                0.00010000                2.11932207                2.43240171               -7.39124755               -0.54514206                2.92340254               -0.40395095
              27.73188461                9.33508813               74.04489114                0.37018081                2.16482857                2.25600116               -7.36937726               -0.15490291                1.39172653               -0.88436358
              18.13426742               15.46527037               77.94484096                0.93224171                0.04974149                0.08997174               -0.30233613               -0.05036781                0.28154485                0.53166563
              19.13476483               14.96549234               77.46785785                0.59470728                0.05213428               -0.00904122               -0.01848372               -0.08856836                0.80860499               -0.45806071
              20.13531010               14.46466221               77.00162327                0.31853234                0.06780934               -0.10886169                0.17829896               -0.17359866                7.09171958               -1.01612064
              21.13612102               13.96223424               76.65123350                0.31004921                0.37684474                0.40946110               -1.22992625               -0.27008025               12.00773710               -0.35154078
              22.14284700               13.45079992               76.29311472                0.30765098                0.86555707                0.73503234               -2.54952234               -0.53934473               11.01987185               -0.31097824
              23.15343216               12.93438229               75.92945532                0.30934106                1.19244893                1.11458328               -3.83908335               -0.66558900               10.14450463               -0.26674455
              24.16669598               12.41522237               75.55840404                0.31454617                1.42682322                1.52312371               -5.08817958               -0.72061972                9.09149525               -0.23433050
              25.18196862               11.89603544               75.17706174                0.32366666                1.62551476                1.92157418               -6.23829397               -0.65866790                7.72024039               -0.21823566
              26.19920627               11.37953890               74.78132719                0.33725889                1.84746979                2.23792271               -7.17784307               -0.46653075                5.87291813               -0.24806828
              27.21891802               10.86728861               74.36590002                0.35595718                2.09167042                2.38402364               -7.74686212               -0.22518153                3.34444404               -0.36792849
              28.24103968               10.35767187               73.92345959                0.68543893                2.21216595                2.25837383               -7.72923408               -0.04616748                1.72590053               -0.74554573
              13.60818182                5.60660929               80.32051204                0.97634784               -0.06864808               -0.03794421                0.14908668                0.01907838               -0.39104641                0.47977200
              14.60749534                5.10989478               79.88936223                0.96130130               -0.09300157               -0.08199526                0.29144590                0.02736836               -0.47854289                0.05509433
              15.60632179                4.61298484               79.45596604                0.99818487               -0.13972551               -0.12141142                0.43061682                0.02771449               -0.50361629               -0.04380182
              16.60470083                4.11574796               79.02416975                0.68893070               -0.19368467               -0.16375223                0.56759937                0.00291661               -0.46037477               -0.26807310
              17.60244810                3.61783097               78.59182075                0.47254833               -0.24562936               -0.20343129                0.70690602               -0.01334336               -0.44478714               -0.29459648
              18.59978824                3.11934873               78.16080232                0.11228670               -0.85441491               -0.26096902                0.85431495               -0.60949879                0.62956743               -0.56184590
              19.58535980                2.60886278               77.75073688                0.00010000               -2.10360669                0.51748389                0.60435838               -4.25483918                8.32232621               -2.27341787
              20.55771611                2.01597277               77.46533608                0.00010000               -0.02692456               -0.88562024               -0.56962632               -4.12593862               15.60618826               -0.22531936
              21.58482131                1.40674964               77.18673330                0.00010000                5.04012274               -1.59683280               -1.59941132               -4.13108367               15.98119587               -0.04471170
              22.65851857                0.78174568               76.90683191                1.00000000                4.02132253                0.61569181               -2.35697448               -4.12030681                7.80269861                0.02750487
              23.66524776                0.24217533               76.47151941                1.00000000                0.67291938                0.52138870               -2.06185632               -0.06053086               -0.02067081               -0.02070307
              14.10508712                6.60622985               80.18223935                0.95877895               -0.05058709               -0.03242303                0.10568460               -0.00271426                0.01667902                0.66694533
              15.10458125                6.10907482               79.75094749                0.91497098               -0.07073914               -0.07849499                0.24951347                0.00644537                0.08869611                0.07854963
              16.10367234                5.61177072               79.32064897                0.99896471               -0.11371624               -0.11927536                0.39070143                0.00511305                0.16044518               -0.22564997
              17.10230693                5.11411044               78.89068380                0.91807760               -0.15790292               -0.16623698                0.53859859               -0.01033411                0.23482605               -0.20693892
              18.10051428                4.61579666               78.46209456                0.75008884               -0.20647880               -0.20793279                0.67703290               -0.02690219                0.22151493               -0.21631591
              19.09817735                4.11673904               78.03237711                0.35335221               -0.30074490               -0.26188016                0.82948014               -0.19281881                0.26909667               -0.40285860
              20.09449939                3.61403762               77.60559922                0.00010000                0.96679709                0.06887926                1.00169765               -4.87474694                7.95183362               -1.33466520
              21.11751330                3.00711657               77.33003713                0.00010000                3.30623143               -2.02023144               -0.48685151               -6.66769889               15.01986301               -0.27861951
              22.16062401                2.39078131               77.04158610                0.00010000                4.10446778               -1.28852390               -1.35240328               -5.50897209               14.53382463               -0.75993733
              23.19960265                1.78790260               76.75385693                1.00000000                2.17943936                0.51485383               -1.71456778               -3.01894358                7.36390538                0.00475100
              24.20421280                1.24738922               76.31810764                1.00000000                0.46101508                0.42610443               -1.42930251               -0.10950964                0.01770100               -0.08695654
              14.60243760                7.60596083               80.04706780                0.96547472               -0.03542170               -0.01781672                0.06093638               -0.00552810                0.14894552                0.77923486
              15.60208338                7.10832488               79.61270763                0.93334992               -0.05245807               -0.07038911                0.20863651                0.00101805                0.33723731                0.00579602
              16.60138843                6.61059933               79.18172703                0.00010000               -0.08075836               -0.11135069                0.35355691               -0.01722179                0.91211952               -0.65972381
              17.60046821                6.11242322               78.75880892                0.00010000               -0.10534864               -0.62072069                0.51047241               -0.28085655                1.24589252               -0.17105346
              18.59928146                5.61367232               78.33470392                0.00010000               -0.13886506               -1.05005246                0.64104945               -0.18358187                1.04034053                0.37892536
              19.59769091                5.11411112               77.90826072                0.00010000               -0.08970661               -1.67329646                0.80345321                0.22169749                1.07141988                1.23433801
              20.59748733                4.61024037               77.48580347                0.00010000                2.49637655               -3.58192770                0.98489227               -4.71472983                7.85680917                3.11836697
              21.64761844                3.97556814               77.19742424                0.00010000                4.81842512               -2.47778473               -0.83119497               -8.83651313               12.92758772               -0.02592980
              22.69385583                3.38097916               76.88273350                0.00010000                4.69566724               -0.72120575               -1.63811667               -7.47000928               13.20056886               -1.94816473
              23.74153179                2.79204276               76.59989192                0.00010000                2.51142495                1.47444311               -1.09673938               -6.10550565                7.61675947               -5.03299126
              24.74408433                2.25069742               76.16365968                0.58123502                0.25525448                3.00158923               -0.83170160               -4.01749933                0.07748108               -3.39321250
              15.10024848                8.60587352               79.91049724                0.95980291               -0.02853598                0.00219577                0.01975826               -0.00095695                0.25036847                0.65566939
              16.09996312                8.10766704               79.47261857                0.42199980               -0.05094602               -0.06834536                0.17369995                0.01169600                0.42133732               -0.33755248
              17.09922956                7.60954371               79.03784201                0.00010000               -0.31731544               -0.14615521                0.30925589               -0.45159020                1.74732439               -1.16330764
              18.09361681                7.10169603               78.62652526                0.00010000               -0.20374045               -0.91765268                0.06420713               -1.08811848                3.05253738               -0.41843286
              19.09515475                6.59479561               78.21777304                0.00010000                0.62132229               -1.75853609               -0.17070047               -0.99836398                3.36692570                0.55577175
              20.10604326                6.08327311               77.81391636                0.00010000                2.17965109               -3.04051503               -0.44288957               -1.78937149                4.50372759                1.97276524
              21.13874777                5.54239907               77.43146129                0.00010000                3.20004905               -5.03189905               -0.97403350               -4.19167243                6.00492007                3.88101646
              22.17004424                4.95756087               77.06610466                0.00010000                2.80007190               -1.37124858               -1.55111726               -7.42741933                7.27542337                0.02780360
              23.19474921                4.37635720               76.71719914                0.00010000                1.88650208                0.34378360               -2.06871470               -7.58523774                6.74912860               -2.43268593
              24.20777428                3.81739147               76.34374349                0.00010000                0.59021420                2.84503155               -2.65695285               -6.01501831                4.10958030               -7.37329522
              25.20655349                3.30742101               75.94259558                0.35859401               -0.12207853                4.66390560               -3.25476526               -3.56585649                2.40621140               -6.07914939
              15.59883141                9.60600475               79.77241603                0.95389052               -0.01843032                0.02051038               -0.02184641               -0.00057221               -0.00360028                0.55733832
              16.59864711                9.10695797               79.32734617                0.28580250               -0.02518833               -0.07065947                0.16054825               -0.00236049                0.34567408               -0.50717413
              17.59832764                8.60767623               78.88903850                0.00010000               -0.25965840               -0.21326557                0.28361484               -0.71473638                2.60953540               -1.63457780
              18.59345394                8.09407017               78.48940057                0.00010000               -0.02952698               -0.68502137               -0.28342162               -1.45765744                4.64271401               -0.88112201
              19.59773710                7.57850160               78.09248753                0.00010000                1.04230440               -1.41646641               -0.83871469               -1.86562678                4.89674039               -0.20635926
              20.61430003                7.05330082               77.70031143                0.00010000                2.08145052               -2.31854821               -1.42142817               -3.13083541                5.17369478                0.44740530
              21.63936611                6.50960239               77.31415697                0.00010000                2.54059484               -2.29492832               -2.02059774               -5.59405472                5.33966375                0.36406633
              22.66511192                5.94814317               76.93315034                0.00010000                2.14771853               -0.45127811               -2.55880572               -6.99499169                5.04266882               -0.31836296
              23.68232048                5.38785483               76.54955642                0.00010000                1.25278442                1.37738424               -2.96583401               -6.33076450                3.99520564               -1.97419348
              24.69016761                4.84894339               76.15472103                0.00010000                0.51938176                2.89358532               -3.16881252               -3.72646954                2.08144724               -3.26145908
              25.69270812                4.34397553               75.73788699                0.35954031                0.25405082                3.14573076               -3.22053739               -1.62848945                1.04976259               -4.36371436
              16.09833059               10.60628373               79.63353468                0.95489269               -0.00861627                0.03571745               -0.06430976               -0.00126493                0.00339111                0.56260208
              17.09824443               10.10625385               79.18376060                0.28790978               -0.02539829               -0.06684313                0.13590480               -0.03877371                0.10729209               -0.40605317
              18.09782263                9.60527840               78.73591485                0.00010000               -0.23030707               -0.21776395                0.31881210               -0.91244075                3.17386168               -1.68097787
              19.09363829                9.08799560               78.34770528                0.00010000                0.03944671               -0.50055191               -0.53875414               -1.93342193                6.03246738               -1.22577354
              20.09861156                8.56646628               77.95866613                0.00010000                0.93437343               -0.88524296               -1.33758277               -2.59353547                5.87917181               -0.82556834
              21.11232576                8.03690214               77.57052353                0.00010000                1.67063829               -1.09896476               -2.11228489               -3.84330627                5.68544315               -0.55095931
              22.13202433                7.49650050               77.18268098                0.00010000                1.97830975               -0.70539852               -2.84086965               -5.25711501                5.24322019               -0.48239662
              23.15189195                6.94853531               76.79246046                0.00010000                1.76546837                0.43102474               -3.45945356               -5.92724445                4.42703105               -0.71140776
              24.16733370                6.40390488               76.39548702                0.00010000                1.26161169                1.71161995               -3.86852859               -5.07389731                3.19229431               -1.17012500
              25.17712419                5.87526317               75.98625108                0.00010000                0.82928617                2.51811115               -4.01562619               -2.86000546                1.64638380               -1.85445010
              26.18391942                5.37033562               75.56074600                0.36037837                0.67952318                2.50832018               -4.02565664               -1.24619813                0.85138860               -2.78867179
              16.59886586               11.60671910               79.49527164                0.95744297                0.00111010                0.05129521               -0.11119660               -0.00011835                0.00072481                0.62343822
              17.59887696               11.10562111               79.04052961                0.31824483               -0.02643896               -0.05880100                0.11303564               -0.05065097                0.03193162               -0.38403700
              18.59833708               10.60332095               78.58632939                0.00010000               -0.26396728               -0.17990603                0.33973093               -0.96492586                3.61176977               -1.44804111
              19.59359761               10.08405913               78.20343552                0.00010000               -0.06886132               -0.24853605               -0.71316159               -2.09798838                7.00481493               -1.36286210
              20.59695985                9.56079674               77.81945720                0.00010000                0.69010359               -0.28913463               -1.68999745               -2.79306958                6.70572582               -1.14306116
              21.60739969                9.03132153               77.43401004                0.00010000                1.28153961               -0.17672812               -2.61652835               -3.72788103                6.25530673               -0.93857846
              22.62259064                8.49549442               77.04564149                0.00010000                1.58814831                0.27647160               -3.47235010               -4.56056126                5.55489806               -0.80402786
              23.63916265                7.95676366               76.65170278                0.00010000                1.57620161                1.06696188               -4.19437657               -4.75353005                4.54440987               -0.77321156
              24.65411468                7.42208723               76.24866713                0.00010000                1.36870560                1.89227195               -4.70435522               -3.95673183                3.23271091               -0.89715069
              25.66653676                6.89930562               75.83291953                0.00010000                1.17622905                2.36714554               -4.95095942               -2.22313009                1.69551973               -1.25974011
              26.67763926                6.39414194               75.40174812                0.36144314                1.11024945                2.27287549               -4.89988792               -0.94593858                0.85738844               -2.03375804
              17.10052421               12.60730963               79.35736123                0.95952009                0.01053523                0.06582462               -0.15914337                0.00127220                0.00251283                0.65714946
              18.10062956               12.10507783               78.89749773                0.34718123               -0.02190629               -0.04953137                0.09277624               -0.04769719                0.03309115               -0.38566378
              19.10008608               11.60168028               78.43822845                0.00010000               -0.32134155               -0.15676235                0.34939534               -0.86897177                4.04022691               -1.38452867
              20.09420273               11.08302488               78.05882278                0.00010000               -0.22991537                0.02970494               -0.83200052               -1.90864878                7.83298610               -1.32045146
              21.09548778               10.56068359               77.67844391                0.00010000                0.44338644                0.20217676               -1.93575126               -2.51874227                7.46416075               -1.18017670
              22.10307046               10.03336758               77.29535881                0.00010000                0.99415940                0.45361266               -2.97815265               -3.19986889                6.88316926               -1.00432303
              23.11537096                9.50202993               76.90766540                0.00010000                1.35790368                0.87317892               -3.93928780               -3.66136222                6.05781653               -0.84388106
              24.13022853                8.96987455               76.51272070                0.00010000                1.51430715                1.43993494               -4.76154415               -3.61464510                4.94886280               -0.74209506
              25.14565711                8.44175032               76.10736328                0.00010000                1.51891736                1.98671288               -5.36423883               -2.89641887                3.55100395               -0.76989901
              26.16060688                7.92260608               75.68836003                0.00010000                1.48354468                2.27310546               -5.66311858               -1.59496219                1.88448531               -1.04518729
              27.17532800                7.41579313               75.25277694                0.36250653                1.47211205                2.07223050               -5.59412547               -0.65945705                0.91559274               -1.72493936
              17.60335490               13.60803559               79.21955793                0.96034453                0.01974694                0.07791537               -0.20795058                0.00205010                0.00799292                0.65674710
              18.60355237               13.10463048               78.75441081                0.38263774               -0.01721510               -0.04035779                0.07778612               -0.04064358                0.06344025               -0.41631407
              19.60301060               12.60018570               78.29042024                0.00010000               -0.35655217               -0.14315908                0.36045360               -0.63174056                4.55200940               -1.18998682
              20.59642132               12.08465323               77.91543928                0.00010000               -0.33841441                0.26694501               -0.92061889               -1.41453439                8.68987047               -1.13470350
              21.59624231               11.56484027               77.53820372                0.00010000                0.28173218                0.55869097               -2.11292973               -1.93881292                8.19010010               -0.98776665
              22.60205597               11.04039378               77.15752560                0.00010000                0.83070622                0.84713586               -3.23992385               -2.41126649                7.51480593               -0.83356949
              23.61285643               10.51295799               76.77123861                0.00010000                1.25466965                1.21038487               -4.28112921               -2.64714625                6.60854766               -0.68895058
              24.62714936                9.98556236               76.37671544                0.00010000                1.52991668                1.62559570               -5.17948780               -2.49442429                5.42516415               -0.58778966
              25.64345477                9.46182149               75.97078383                0.00010000                1.67226751                1.99471717               -5.84671286               -1.90205258                3.92469793               -0.60074490
              26.66059471                8.94476772               75.54998828                0.00010000                1.73106276                2.16523068               -6.17976245               -0.98960987                2.09888684               -0.83776863
              27.67807602                8.43558655               75.11106655                0.36327881                1.74813099                1.93419898               -6.08670220               -0.36974651                1.00898347               -1.41892733
              18.10737544               14.60886794               79.08147311                0.92522827                0.02911459                0.08825981               -0.25162168                0.00167335                0.02655442                0.56835132
              19.10766658               14.10427068               78.61098538                0.29508991                0.00265427               -0.03204510                0.06363890               -0.03095264                0.33501878               -0.42286560
              20.10742852               13.59881710               78.14678156                0.00010000               -0.32045553               -0.13898349                0.33475595               -0.29193781                5.22412756               -0.96053126
              21.10125747               13.08836378               77.77463503                0.00010000               -0.32287752                0.44100811               -1.00246067               -0.71990985                9.46931518               -0.70891894
              22.10097097               12.57185741               77.40085643                0.00010000                0.27349696                0.74509161               -2.26283385               -1.09979099                8.86921860               -0.57652389
              23.10672741               12.05031030               77.02257197                0.00010000                0.81442431                1.05548842               -3.44972860               -1.36701159                8.08250090               -0.47678769
              24.11725946               11.52623763               76.63803088                0.00010000                1.23745703                1.39389855               -4.54852287               -1.45807956                7.11689421               -0.38284438
              25.13147655               11.00238646               76.24467880                0.00010000                1.55756193                1.73084498               -5.50218089               -1.32279931                5.88478444               -0.31374840
              26.14841070               10.48164466               75.83927344                0.00010000                1.77865383                1.99975103               -6.21731807               -0.94625176                4.30428435               -0.31739176
              27.16704963                9.96591070               75.41793457                0.00010000                1.89423647                2.10955570               -6.57492279               -0.44315832                2.31680188               -0.46744468
              28.18629542                9.45447711               74.97654056                0.36432952                1.92457974                1.92813620               -6.45616981               -0.11518850                1.10900394               -0.88725422
              18.61258289               15.60980079               78.94179240                0.94212674                0.04012683                0.09328498               -0.30547734               -0.06037584                0.27103958                0.49065156
              19.61298415               15.10398958               78.46804049                0.60839066                0.02479244               -0.02810990                0.04891850               -0.08798044                0.75554998               -0.41563404
              20.61307874               14.59740603               78.00416199                0.31858386               -0.20006718               -0.14110658                0.31442230                0.03921231                6.16769781               -0.93869544
              21.60898281               14.09347339               77.63943267                0.30985216               -0.03893824                0.51096138               -1.12301301               -0.11066219               10.29628076               -0.32085950
              22.61229997               13.57974211               77.26814376                0.30776649                0.56763531                0.78846939               -2.42663464               -0.46559225                9.36019206               -0.28394794
              23.62033552               13.06150355               76.89190585                0.30925450                0.96593522                1.11932513               -3.65432552               -0.58449626                8.49910892               -0.24630588
              24.63161868               12.54083596               76.50899578                0.31401784                1.24754105                1.45983355               -4.79232968               -0.63029240                7.49327512               -0.21970135
              25.64528634               12.02017926               76.11707891                0.32208245                1.46934105                1.77928007               -5.78636416               -0.56999385                6.26231650               -0.20764850
              26.66100550               11.50181651               75.71306154                0.33460968                1.68063801                2.01718472               -6.54293913               -0.40154111                4.70418925               -0.23684368
              27.67889910               10.98695884               75.29301682                0.35134482                1.88169630                2.10481425               -6.93854774               -0.19841483                2.66020157               -0.34488397
              28.69863942               10.47414927               74.85138046                0.68246471                1.97403234                1.96721619               -6.82183050               -0.04655688                1.37669599               -0.66122651
              14.03469305                5.74988214               81.32143929                0.97866530               -0.04461714               -0.00714968                0.04028329                0.03030789               -0.39386656                0.47750214
              15.03424688                5.24907352               80.89200114                0.96115032               -0.07754024               -0.06746859                0.23728523                0.03726513               -0.48521683                0.05626126
              16.03314224                4.74808305               80.46027522                0.99894147               -0.14059281               -0.12200158                0.42877391                0.03718225               -0.51418474               -0.03959108
              17.03143502                4.24676329               80.03013105                0.70286397               -0.20935002               -0.18129486                0.61888515                0.01227833               -0.47005450               -0.25605937
              18.02895524                3.74478567               79.59945275                0.49088571               -0.27584803               -0.23905171                0.80874439               -0.00141085               -0.44589483               -0.28920419
              19.02591806                3.24227744               79.17023840                0.13266495               -0.67394877               -0.31406479                1.01908814               -0.41502293                0.41939503               -0.56441992
              20.01547627                2.73142364               78.75757844                0.00010000               -1.58613132                0.17432578                0.83045385               -3.82290626                7.39719667               -1.84950492
              20.99419543                2.14772462               78.46091321                0.00010000                0.33520779               -1.04967589               -0.32709769               -3.64852547               14.17709417               -0.38616760
              22.02218042                1.54914493               78.17158569                0.00010000                4.92698268               -1.62396807               -1.42078094               -3.73812271               14.69009509               -0.21400431
              23.09273509                0.93173969               77.88385254                1.00000000                3.83354591                0.64338385               -2.24530629               -3.77954955                7.22792811                0.00394516
              24.09885134                0.39209766               77.45207970                1.00000000                0.61162543                0.50495244               -1.83454218                0.03760666               -0.02054152               -0.04694062
              14.53580474                6.74981064               81.18278584                0.96268820               -0.02856749               -0.00436962                0.00702844                0.00021276                0.01320610                0.66127825
              15.53551907                6.24839883               80.75322198                0.91425526               -0.05677811               -0.06590438                0.20586687                0.00827106                0.08292319                0.07990968
              16.53466918                5.74686304               80.32461843                1.00000000               -0.11562863               -0.12192715                0.40051122                0.00566934                0.15755688               -0.21774131
              17.53320650                5.24495034               79.89641381                0.95429912               -0.17425622               -0.18669207                0.60156648               -0.00910567                0.23521920               -0.19078605
              18.53118406                4.74239515               79.46952458                0.80314224               -0.23788284               -0.24735748                0.80056256               -0.02386856                0.23365235               -0.20875186
              19.52844884                4.23913679               79.04168294                0.40844723               -0.33302218               -0.32118254                1.02190206               -0.14546172                0.31080216               -0.39963855
              20.52452361                3.73316690               78.61705585                0.00010000                1.02003468               -0.14484152                1.27485630               -4.32261667                7.13722519               -1.12647483
              21.54884953                3.13722786               78.32622286                0.00010000                3.41340214               -2.07159157               -0.30113071               -5.82257175               13.57269682               -0.60973723
              22.59279166                2.53290525               78.02834304                0.00010000                4.23068478               -1.39109075               -1.28500860               -4.86551759               13.52227684               -1.13614415
              23.63346323                1.93817353               77.73519147                1.00000000                2.30388931                0.60702092               -1.98361949               -2.64121897                6.92700955               -0.00565211
              24.63886944                1.39714718               77.30300729                1.00000000                0.54062141                0.46579625               -1.55041983               -0.03543440                0.01657605               -0.10844210
              15.03752092                7.74979475               81.04722363                0.96870124               -0.01610163                0.00465177               -0.02667490               -0.00347651                0.14446156                0.77106397
              16.03735990                7.24775543               80.61463079                0.93215264               -0.04083952               -0.06093400                0.17612255                0.00089743                0.33138112                0.01018769
              17.03670413                6.74564451               80.18538721                0.00010000               -0.08195525               -0.11767852                0.37557536               -0.02293115                0.91302842               -0.65219962
              18.03572080                6.24302944               79.76431376                0.00010000               -0.12063538               -0.62779064                0.58481735               -0.28774328                1.25190798               -0.35701382
              19.03429142                5.73983852               79.34186660                0.00010000               -0.17418625               -1.04046490                0.78504209               -0.21014297                1.06645463                0.00285798
              20.03223707                5.23585379               78.91742832                0.00010000               -0.16792770               -1.60748872                1.02409837                0.17737907                1.14298401                0.63474751
              21.03093286                4.72852681               78.49729125                0.00010000                2.28842884               -3.32334808                1.30152910               -4.10171212                6.91174778                2.12540922
              22.07800565                4.10629278               78.19016221                0.00010000                4.64957659               -2.41221409               -0.65604937               -7.79131383               11.44670473               -0.70964379
              23.12392440                3.52132312               77.86722303                0.00010000                4.88315656               -0.86670271               -1.47116513               -6.56200556               12.71114758               -2.66941380
              24.17566878                2.94388011               77.58605948                0.07831790                2.81354781                1.30079136               -1.68370166               -5.79064796                7.54138937               -5.76392689
              25.18019535                2.40141358               77.15326546                0.49559377                0.45265742                3.00304161               -1.22496120               -4.28584405                0.07743960               -4.46633969
              15.53981384                8.74990368               80.91030270                0.96221076               -0.01265877                0.01949349               -0.05578260               -0.00024025                0.24183315                0.64480232
              16.53968725                8.24718015               80.47425338                0.44053237               -0.04386468               -0.06110733                0.15305535                0.00677046                0.40320499               -0.31844747
              17.53893655                7.74450947               80.04111327                0.00010000               -0.32148137               -0.15301403                0.34175784               -0.44987670                1.53503926               -1.14569726
              18.53325763                7.23239452               79.62772862                0.00010000               -0.23898453               -0.90733880                0.16749862               -1.07776778                2.64370844               -0.77409504
              19.53415686                6.72158585               79.21702032                0.00010000                0.50252486               -1.68490418                0.00324589               -0.98211633                2.94074973               -0.15344691
              20.54330812                6.20698701               78.81085007                0.00010000                1.89467581               -2.81982574               -0.19601006               -1.65521579                3.93668592                0.86914961
              21.57205037                5.66669994               78.42340484                0.00010000                2.84594148               -4.56552058               -0.69147555               -3.67398113                5.28529319                2.32574318
              22.60022695                5.08898358               78.05184399                0.00010000                2.59569231               -1.28931534               -1.33891284               -6.57133748                6.61698802               -0.96911058
              23.62396422                4.51557120               77.69685500                0.00010000                1.86664270                0.23178178               -1.96223029               -6.80038586                6.27622336               -3.47666006
              24.63755981                3.96418936               77.32030872                0.00010000                0.70607007                2.34573960               -2.22055003               -5.71125583                3.89354735               -8.64480438
              25.63808562                3.45720801               76.91621993                0.35339058                0.05258140                4.19296674               -2.36710644               -3.56872212                2.68828861               -7.72472690
              16.04296316                9.75018462               80.77187170                0.95579748               -0.00736380                0.03446854               -0.08449233                0.00074653                0.00033051                0.54155703
              17.04288952                9.24653329               80.32892569                0.31108931               -0.02354674               -0.06760716                0.15448353               -0.00831154                0.31878165               -0.48076294
              18.04249222                8.74258423               79.89213286                0.00010000               -0.29002312               -0.21854922                0.33161215               -0.69978310                2.21297519               -1.56804647
              19.03708906                8.22488267               79.48722007                0.00010000               -0.12178103               -0.66862100               -0.16483373               -1.41542945                3.88456503               -1.14117593
              20.04005660                7.70614043               79.08515934                0.00010000                0.84648036               -1.33015000               -0.64950471               -1.74800436                4.11380788               -0.76360027
              21.05401866                7.17945727               78.68759434                0.00010000                1.77000396               -2.11718775               -1.16221213               -2.82501223                4.36967296               -0.38883828
              22.07545668                6.63721640               78.29580465                0.00010000                2.18444881               -2.05241887               -1.71408084               -4.93996245                4.58834064               -0.62945988
              23.09770764                6.08050648               77.90947751                0.00010000                1.86271078               -0.39581643               -2.25599935               -6.12829236                4.48537906               -1.42437072
              24.11271090                5.52595875               77.52192766                0.00010000                1.10496036                1.23671886               -2.66149819               -5.58300330                3.73965954               -3.22081605
              25.11980685                4.99079490               77.12421041                0.00010000                0.50363518                2.47887437               -2.92875704               -3.37735406                2.14036843               -4.60898140
              26.12278360                4.48527292               76.70530385                0.35429533                0.29767529                2.50151871               -3.04091665               -1.57796458                1.13810801               -5.69389572
              16.54713143               10.75059305               80.63262911                0.95624934               -0.00100229                0.04786677               -0.11464645               -0.00032539                0.00392713                0.54085531
              17.54712141               10.24582801               80.18515857                0.31550874               -0.02699640               -0.06947934                0.14207957               -0.04018518                0.10010365               -0.38417440
              18.54659150                9.74013848               79.73946145                0.00010000               -0.28642870               -0.22681096                0.38237975               -0.87076124                2.64073573               -1.58693114
              19.54139283                9.21902210               79.34300778                0.00010000               -0.09846683               -0.48022868               -0.41322424               -1.82388110                4.97792041               -1.38812847
              20.54462217                8.69498285               78.94637534                0.00010000                0.71695369               -0.81235236               -1.14444512               -2.36172621                4.84230629               -1.21204827
              21.55573191                8.16464326               78.55094873                0.00010000                1.37898754               -0.98126667               -1.84634041               -3.40855873                4.67758005               -1.13819305
              22.57220192                7.62565156               78.15629851                0.00010000                1.65934229               -0.61111745               -2.50677353               -4.57160887                4.33997691               -1.25518584
              23.58891875                7.08106725               77.76033650                0.00010000                1.49069054                0.39582522               -3.06935791               -5.07545831                3.74155876               -1.68097843
              24.60201573                6.54030558               77.35941630                0.00010000                1.08899046                1.50344348               -3.46583614               -4.27497465                2.79616466               -2.36230945
              25.61069856                6.01376685               76.94842819                0.00010000                0.77772870                2.16336451               -3.65049430               -2.35308568                1.49692509               -3.19741883
              26.61757030                5.50723839               76.52306775                0.35511759                0.68717389                2.04736618               -3.63117482               -0.97296528                0.79907103               -3.94349435
              17.05248672               11.75114195               80.49395040                0.95810223                0.00536577                0.06174782               -0.15098801                0.00071606                0.00092307                0.59623146
              18.05254038               11.24514370               80.04175277                0.34737339               -0.03019090               -0.06542706                0.12940191               -0.04783584                0.03328740               -0.35959856
              19.05188290               10.73804801               79.59011607                0.00010000               -0.33866564               -0.19798247                0.41024714               -0.89427119                2.97649810               -1.36432175
              20.04576707               10.21527809               79.19698861                0.00010000               -0.23409911               -0.23434839               -0.58794085               -1.92789777                5.73437451               -1.44048122
              21.04720092                9.68989339               78.80359471                0.00010000                0.47058544               -0.24432024               -1.50330687               -2.49377790                5.46824712               -1.37957073
              22.05517878                9.15983194               78.40934433                0.00010000                1.01997968               -0.12556995               -2.35674357               -3.26110950                5.06254280               -1.33163551
              23.06760052                8.62499405               78.01297795                0.00010000                1.31828429                0.27851937               -3.13040364               -3.91773138                4.47066262               -1.36134738
              24.08154446                8.08842298               77.61240126                0.00010000                1.34556445                0.95327612               -3.77252980               -4.00155099                3.66022067               -1.51116739
              25.09451180                7.55602762               77.20478595                0.00010000                1.21339302                1.63003644               -4.21605236               -3.24589960                2.62505207               -1.81837080
              26.10581232                7.03406219               76.78702627                0.00010000                1.09347029                1.98000014               -4.40788239               -1.77052677                1.38445263               -2.29363250
              27.11638121                6.52622024               76.35637899                0.35620899                1.05688887                1.82624456               -4.33507533               -0.72613529                0.70641339               -2.99961161
              17.55914226               12.75182800               80.35560851                0.95979419                0.01163750                0.07414057               -0.18924313                0.00214210                0.00258489                0.62669220
              18.55925863               12.24451947               79.89856851                0.37978595               -0.02852864               -0.05842894                0.11824438               -0.04326210                0.03520563               -0.35593833
              19.55857168               11.73617883               79.44215385                0.00010000               -0.41345636               -0.18104588                0.42660418               -0.77315136                3.32405284               -1.29927970
              20.55098950               11.21433514               79.05114378                0.00010000               -0.41894593                0.03680616               -0.71269853               -1.69936785                6.40143654               -1.33640543
              21.55019277               10.69009645               78.66001966                0.00010000                0.22097726                0.23018392               -1.76390144               -2.20508526                6.06915090               -1.29987961
              22.55540905               10.16213186               78.26693696                0.00010000                0.75317400                0.47078264               -2.73782226               -2.77055525                5.53392093               -1.23573323
              23.56525625                9.63122195               77.87019384                0.00010000                1.12225572                0.83386897               -3.61488299               -3.12447408                4.80858021               -1.19730290
              24.57785416                9.10013277               77.46768409                0.00010000                1.31011400                1.30069906               -4.34305511               -3.02730827                3.88748028               -1.22635178
              25.59145853                8.57290630               77.05696710                0.00010000                1.36206237                1.72557302               -4.85207969               -2.37239215                2.77249053               -1.37379531
              26.60509541                8.05336685               76.63549902                0.00010000                1.36364884                1.91242363               -5.07382624               -1.27555037                1.47060714               -1.71009111
              27.61873150                7.54376328               76.20090843                0.35710852                1.36360906                1.70947209               -4.95695863               -0.50739948                0.73383625               -2.32094146
              18.06714663               13.75262476               80.21736718                0.96033787                0.01776758                0.08376071               -0.22825759                0.00290371                0.00997877                0.62622952
              19.06732431               13.24397512               79.75538318                0.41803192               -0.02712111               -0.05118528                0.11223122               -0.03589695                0.06395466               -0.38068309
              20.06660421               12.73442709               79.29450872                0.00010000               -0.47311052               -0.16901889                0.44515354               -0.51413264                3.76292321               -1.11513573
              21.05786210               12.21601422               78.90682044                0.00010000               -0.56508587                0.28163633               -0.80833566               -1.18587115                7.12769619               -1.11191252
              22.05530249               11.69449706               78.51788113                0.00010000                0.03900337                0.59413172               -1.95887407               -1.65987428                6.67201668               -1.02842334
              23.05864217               11.16924759               78.12629865                0.00010000                0.59038161                0.85942958               -3.02577996               -2.07299192                6.04030551               -0.94442359
              24.06711013               10.64167143               77.73012243                0.00010000                1.03358886                1.16775617               -3.98735342               -2.25535328                5.22798503               -0.87773457
              25.07931394               10.11443696               77.32726629                0.00010000                1.33598788                1.50242466               -4.79015446               -2.09099085                4.22919399               -0.85676553
              26.09382988                9.59053908               76.91535742                0.00010000                1.50651990                1.78139116               -5.35629206               -1.56283721                3.02821203               -0.93514952
              27.10944434                9.07231067               76.49183857                0.00010000                1.58052388                1.88520468               -5.59996084               -0.79597893                1.61305310               -1.18999973
              28.12544036                8.56040968               76.05418764                0.35781751                1.59960199                1.66329253               -5.45089371               -0.28403829                0.79104075               -1.70468887
              18.57649962               14.75350322               80.07889848                0.94880197                0.02387461                0.09100350               -0.26090660                0.00152457                0.02061176                0.53245796
              19.57673836               14.24349576               79.61187373                0.32936882               -0.01248411               -0.04528379                0.10772293               -0.02614167                0.30701704               -0.38270929
              20.57624993               13.73279846               79.15066392                0.00010000               -0.47681255               -0.16498279                0.42951212               -0.14301175                4.36110565               -0.89259035
              21.56720211               13.21996786               78.76516783                0.00010000               -0.62440135                0.51037791               -0.89318018               -0.53083033                7.80733184               -0.68177850
              22.56376191               12.70197908               78.37893653                0.00010000               -0.02136345                0.80246197               -2.12098818               -0.91861239                7.25084663               -0.57905111
              23.56677484               12.17932045               77.98909351                0.00010000                0.55989501                1.07704092               -3.25533090               -1.17409255                6.51054380               -0.51412497
              24.57495981               11.65457707               77.59404207                0.00010000                1.01959270                1.36135551               -4.28020907               -1.24304487                5.63538033               -0.45889327
              25.58716670               11.13018126               77.19177598                0.00010000                1.36841359                1.63226396               -5.14108578               -1.11038487                4.58630453               -0.42851288
              26.60232808               10.60853413               76.77991266                0.00010000                1.60692695                1.83433680               -5.75397615               -0.77940273                3.31626993               -0.46088661
              27.61930524               10.09107094               76.35561951                0.00010000                1.72623124                1.89578858               -6.01849849               -0.35731064                1.77548709               -0.61194841
              28.63685270                9.57702913               75.91576774                0.35858593                1.75474686                1.71789241               -5.84204929               -0.08388379                0.86315360               -0.97433417
              19.08719203               15.75444483               79.93873141                0.95355940                0.03142055                0.09416144               -0.30091528               -0.06829720                0.25838237                0.44678530
              20.08750624               15.24306944               79.46883622                0.62299725                0.00399224               -0.04263199                0.10051567               -0.08908219                0.69942767               -0.37060002
              21.08727188               14.73112744               79.00791171                0.31866967               -0.47206851               -0.16710183                0.41888769                0.25981091                5.20957589               -0.85937458
              22.07806487               14.22622178               78.62877324                0.30963154               -0.48471102                0.62539129               -1.00766120                0.05721893                8.52295610               -0.29542288
              23.07757766               13.71054630               78.24458203                0.30787785                0.22487265                0.85672232               -2.28083061               -0.39009337                7.66748615               -0.27017771
              24.08256232               13.19078841               77.85636881                0.30901451                0.69053804                1.14679571               -3.45642955               -0.50364016                6.85698152               -0.24708749
              25.09138842               12.66889854               77.46255745                0.31344100                1.02934358                1.43214690               -4.51982124               -0.54244727                5.94010434               -0.23454474
              26.10314919               12.14708224               77.06133446                0.32103276                1.29818658                1.69009802               -5.41900560               -0.48538656                4.88652298               -0.23457134
              27.11735215               11.62722582               76.65046840                0.33187379                1.53269673                1.86916924               -6.06964680               -0.34038326                3.63462203               -0.26949080
              28.13380313               11.11022644               76.22712906                0.34681855                1.72470804                1.91554953               -6.36660270               -0.17312536                2.05174114               -0.36887780
              29.15184631               10.59476753               75.78702298                0.67955459                1.80431833                1.77384008               -6.19081054               -0.04653008                1.08080951               -0.63715425
              14.45918079                5.89346624               82.32131771                0.98162394               -0.02257067                0.02048396               -0.05968966                0.04102774               -0.39913247                0.47626207
              15.45895508                5.38857833               81.89410794                0.96203799               -0.06362964               -0.05349545                0.18544793                0.04722270               -0.49620646                0.05807390
              16.45790819                4.88350659               81.46454152                0.99895698               -0.14164359               -0.12026875                0.42185753                0.04649069               -0.53034110               -0.03485043
              17.45612221                4.37806124               81.03654746                0.71352644               -0.22426716               -0.19492354                0.65844455                0.01812686               -0.48707848               -0.24616569
              18.45342285                3.87190323               80.60799564                0.51108540               -0.30358762               -0.26954482                0.89146937                0.00503571               -0.45008073               -0.27953059
              19.45005046                3.36517124               80.18118408                0.16418719               -0.53969652               -0.36149047                1.15713055               -0.26810065                0.25319578               -0.56566602
              20.44262892                2.85291786               79.76734596                0.00010000               -1.13998542               -0.11225505                1.13051854               -3.36955091                6.39658457               -1.56810607
              21.42725075                2.27763012               79.45879412                0.00010000                0.65274805               -1.19573008               -0.11069430               -3.15522184               12.61171401               -0.51014632
              22.45568388                1.68895484               79.15831768                0.00010000                4.76661834               -1.65337629               -1.25611114               -3.28246491               13.23742135               -0.26301648
              23.52258311                1.07914672               78.86192578                1.00000000                3.63493632                0.64358980               -2.19372320               -3.38912635                6.53928536               -0.10545949
              24.52838261                0.53938135               78.43482857                1.00000000                0.57994935                0.46532652               -1.67504666                0.07647211               -0.01429177               -0.11441939
              14.96447897                6.89367108               82.18237992                0.96770787               -0.00718411                0.01995115               -0.08402673                0.00381656                0.00833094                0.65655558
              15.96440713                6.38804338               81.75506482                0.91456054               -0.04236631               -0.05405497                0.16336377                0.01125845                0.07475777                0.08204198
              16.96363165                5.88230390               81.32865919                1.00000000               -0.11509853               -0.12230468                0.40419386                0.00632314                0.15199043               -0.20867806
              17.96210516                5.37611201               80.90271513                0.98313778               -0.18567193               -0.20465516                0.65234398               -0.00956753                0.23807104               -0.17659099
              18.95991821                4.86920778               80.47810581                0.85789831               -0.26215147               -0.28347433                0.90758711               -0.02412620                0.25942937               -0.19865477
              19.95686213                4.36155634               80.05281515                0.47858176               -0.36071175               -0.37661508                1.19361987               -0.11684911                0.37715305               -0.39697982
              20.95270397                3.85179531               79.63109634                0.00010000                1.04089545               -0.32591519                1.51019673               -3.77620200                6.26465571               -0.96857617
              21.97768004                3.26567282               79.32401452                0.00010000                3.46984816               -2.09379961               -0.21155570               -5.00021149               11.97962892               -0.83692151
              23.02210093                2.67242108               79.01588593                0.00010000                4.28992793               -1.49379599               -1.17214848               -4.17962887               12.23402322               -1.28272271
              24.06347860                2.08558262               78.71418454                1.00000000                2.34058819                0.62501270               -2.04640963               -2.23262180                6.30709321               -0.12537045
              25.06891270                1.54403462               78.28709925                1.00000000                0.54341006                0.43883177               -1.49700723               -0.01287261                0.00303940               -0.16682612
              15.47051252                7.89386526               82.04653430                0.97264946                0.00349023                0.02252125               -0.10757313               -0.00156284                0.13882292                0.76441123
              16.47054742                7.38749723               81.61623008                0.93152582               -0.02732469               -0.05200934                0.14381036                0.00023751                0.32419669                0.01580479
              17.46996603                6.88106050               81.18923853                0.00010000               -0.07602193               -0.12098930                0.39073776               -0.03528198                0.91277545               -0.64379483
              18.46902698                6.37396814               80.77050526                0.00010000               -0.12350165               -0.64020953                0.64653189               -0.31739959                1.27023509               -0.53847007
              19.46749599                5.86623374               80.35040476                0.00010000               -0.19505232               -1.03869226                0.91350262               -0.26995512                1.12516957               -0.37326923
              20.46512594                5.35763894               79.92874269                0.00010000               -0.22537982               -1.55331278                1.22904462                0.08480734                1.26548479                0.02170855
              21.46298840                4.84639956               79.51183406                0.00010000                2.07474065               -3.06973914                1.58436508               -3.55645351                5.90511668                1.06377624
              22.50662075                4.23575413               79.18430325                0.00010000                4.45965566               -2.34047318               -0.55819821               -6.80334212                9.81585549               -1.24283521
              23.55218151                3.65907892               78.85331020                0.00010000                4.98481969               -1.01508539               -1.29714959               -5.71995755               11.74760486               -3.14169413
              24.60631714                3.09164697               78.56621788                0.09556041                2.95198252                1.03809177               -1.85812568               -5.40596183                7.10157326               -6.10768428
              25.61122116                2.54815799               78.13916046                0.49624935                0.49040161                2.84267311               -1.26576833               -4.36969103                0.05649435               -5.02900082
              15.97718377                8.89412150               81.90938158                0.96530799                0.00328698                0.03221061               -0.12519755               -0.00095564                0.23167650                0.63623027
              16.97721664                8.38700319               81.47567967                0.46062970               -0.03643377               -0.05298558                0.13192388               -0.00116148                0.38246136               -0.29669410
              17.97645510                7.87988412               81.04467717                0.00010000               -0.33163585               -0.15466904                0.36719242               -0.46843187                1.32648318               -1.12461585
              18.97058393                7.36330782               80.62987524                0.00010000               -0.28033991               -0.90003204                0.25001772               -1.11792060                2.25300401               -1.12400896
              19.97084830                6.84843393               80.21783796                0.00010000                0.39042650               -1.61795835                0.14194678               -1.03373634                2.54099134               -0.86576877
              20.97839246                6.33049008               79.80999616                0.00010000                1.63057064               -2.61067723               -0.00274827               -1.60555816                3.36901113               -0.25553669
              22.00345971                5.79040053               79.41763178                0.00010000                2.52706885               -4.11400218               -0.48061348               -3.26826846                4.46671368                0.76307096
              23.02893383                5.21886336               79.03932641                0.00010000                2.41746151               -1.22954414               -1.19244541               -5.81027063                5.74467904               -1.79446673
              24.05180894                4.65211937               78.67795454                0.00010000                1.86732336                0.08991449               -1.79534369               -6.11598191                5.64324902               -4.27396051
              25.06628030                4.10634445               78.29933249                0.00010000                0.83439559                1.84986630               -2.03637072               -5.39748280                3.56709964               -9.45945366
              26.06849685                3.60088808               77.89525345                0.34857683                0.22165539                3.75459071               -1.98757483               -3.44252628                2.48199265               -8.96352246
              16.48473003                9.89450947               81.77072618                0.95830492                0.00315441                0.04503131               -0.14163414                0.00112708                0.00432165                0.52838798
              17.48476158                9.38643752               81.33043584                0.33772336               -0.02186353               -0.06299523                0.14685639               -0.01724162                0.29064902               -0.45186778
              18.48429276                8.87796712               80.89567074                0.00010000               -0.33214099               -0.21637776                0.37098187               -0.70684925                1.81983703               -1.49777152
              19.47811876                8.35596750               80.48610390                0.00010000               -0.23268821               -0.64216630               -0.07198836               -1.41968320                3.14225903               -1.40568404
              20.47963900                7.83387457               80.07949744                0.00010000                0.64647094               -1.23219918               -0.50603165               -1.69368288                3.34855883               -1.33138104
              21.49104818                7.30542540               79.67706718                0.00010000                1.48053769               -1.90508970               -0.97584107               -2.60966610                3.55959145               -1.23442225
              22.50924975                6.76411952               79.27987535                0.00010000                1.88241599               -1.80885250               -1.51168661               -4.41428825                3.76918886               -1.58440022
              23.52869650                6.21116325               78.88803035                0.00010000                1.65655134               -0.34356832               -2.06337966               -5.42853994                3.78373703               -2.39495337
              24.54238078                5.66087721               78.49632645                0.00010000                1.04511444                1.08405158               -2.49488948               -4.95812978                3.25455624               -4.19822158
              25.54959878                5.12864430               78.09614589                0.00010000                0.54513037                2.10772401               -2.73400994               -3.02482354                1.90759585               -5.66361732
              26.55328339                4.62324980               77.67706866                0.34940511                0.36846019                1.97512612               -2.70171756               -1.43320679                1.04553462               -6.73484961
              16.99335022               10.89502213               81.63124175                0.95755310                0.00639449                0.05774286               -0.15993241               -0.00040691                0.00435641                0.52097577
              17.99341417               10.38574328               81.18660219                0.34455910               -0.02810436               -0.07091619                0.14499443               -0.04250535                0.09151489               -0.36230797
              18.99278813                9.87555656               80.74356245                0.00010000               -0.35656799               -0.23125028                0.43117006               -0.84701814                2.10912514               -1.49464295
              19.98628281                9.35046449               80.33944079                0.00010000               -0.26356965               -0.44269972               -0.31407079               -1.75394529                3.93431617               -1.56247130
              20.98751674                8.82378995               79.93577723                0.00010000                0.48356915               -0.71567825               -0.99834072               -2.18730571                3.81954432               -1.61598190
              21.99595419                8.29238829               79.53359672                0.00010000                1.09596775               -0.83624096               -1.66177035               -3.06736720                3.67664328               -1.73686725
              23.00943610                7.75422348               79.13254551                0.00010000                1.38255736               -0.48736863               -2.29827565               -4.03495417                3.41844905               -2.00721867
              24.02360534                7.21199199               78.73107330                0.00010000                1.28646002                0.40147384               -2.85693710               -4.42802505                2.98744184               -2.55167024
              25.03516530                6.67380040               78.32617029                0.00010000                0.99029535                1.36459038               -3.26742694               -3.69415652                2.28460488               -3.34014604
              26.04341124                6.14849893               77.91324119                0.00010000                0.77282108                1.88589153               -3.46164865               -2.01879073                1.25522926               -4.20818755
              27.05062172                5.64039060               77.48812250                0.35016235                0.72104745                1.65296151               -3.40411357               -0.82189826                0.69747531               -4.88835921
              17.50327958               11.89566433               81.49225188                0.95922033                0.00974539                0.07022802               -0.18591310                0.00077093                0.00085990                0.56992611
              18.50337704               11.38501920               81.04311765                0.37888907               -0.03241936               -0.07073137                0.14090716               -0.04740255                0.03273018               -0.33680168
              19.50263119               10.87334211               80.59453433                0.00010000               -0.42852853               -0.21272632                0.46397190               -0.83509793                2.33933090               -1.28736115
              20.49480646               10.34711350               80.19167670                0.00010000               -0.43310555               -0.19997740               -0.48648313               -1.78491272                4.46805468               -1.53685827
              21.49396908                9.81956101               79.78939106                0.00010000                0.22304175               -0.16951835               -1.35805687               -2.24260245                4.24128740               -1.64267884
              22.49926730                9.28870058               79.38687516                0.00010000                0.74889410               -0.03448510               -2.17356209               -2.87841755                3.88332361               -1.75057565
              23.50894696                8.75437214               78.98303342                0.00010000                1.06458853                0.33579579               -2.91829698               -3.40742518                3.39350710               -1.92678312
              24.52055907                8.21919273               78.57625219                0.00010000                1.15218718                0.92452447               -3.54356958               -3.43017919                2.76697534               -2.21495626
              25.53199071                7.68816902               78.16434609                0.00010000                1.10368522                1.49512683               -3.98100166               -2.73519556                1.99358764               -2.63518294
              26.54263277                7.16636213               77.74476188                0.00010000                1.05356894                1.75465150               -4.16567523               -1.45967682                1.06280557               -3.15744517
              27.55306209                6.65630903               77.31504662                0.35093863                1.04293128                1.55875230               -4.05705208               -0.57709974                0.56833337               -3.76996756
              18.01465591               12.89642669               81.35357637                0.96022021                0.01324251                0.08029428               -0.21472228                0.00234228                0.00222677                0.59713496
              19.01478833               12.38432866               80.89986261                0.41328600               -0.03320206               -0.06538003                0.13703432               -0.04058806                0.03459190               -0.32876379
              20.01399187               11.87130204               80.44676054                0.00010000               -0.52113389               -0.19845977                0.48473913               -0.68315587                2.60187430               -1.22209365
              21.00436566               11.34646494               80.04456880                0.00010000               -0.64571256                0.06387180               -0.61182285               -1.50530404                4.96554377               -1.37486322
              22.00107762               10.82039958               79.64316588                0.00010000               -0.03954772                0.28969644               -1.62238211               -1.92655024                4.67687495               -1.45286835
              23.00357470               10.29169859               79.24060237                0.00010000                0.48589148                0.53240913               -2.56003118               -2.40533542                4.19493116               -1.50562345
              24.01079545                9.76093940               78.83536774                0.00010000                0.88150868                0.85914600               -3.40598187               -2.68572863                3.57533795               -1.58548327
              25.02120488                9.23048248               78.42585959                0.00010000                1.12482679                1.25712143               -4.10819531               -2.56486381                2.84414192               -1.72787734
              26.03329198                8.70370294               78.01032169                0.00010000                1.24364119                1.60019584               -4.59410883               -1.97172501                2.01151813               -1.96498086
              27.04607770                8.18359196               77.58688350                0.00010000                1.29469712                1.72425575               -4.79014828               -1.03722608                1.06673566               -2.32954138
              28.05918592                7.67156565               77.15363777                0.35179405                1.31082247                1.51622107               -4.64154413               -0.39580211                0.55462850               -2.86223268
              18.52752249               13.89727022               81.21499278                0.96036816                0.01674368                0.08630889               -0.24428363                0.00320037                0.01181217                0.59798902
              19.52768993               13.38371159               80.75665543                0.45574083               -0.03453487               -0.05826069                0.13738324               -0.03220785                0.06145799               -0.34799150
              20.52683179               12.86937292               80.29932332                0.00010000               -0.60435440               -0.18698703                0.50603525               -0.39779911                2.96428105               -1.04609557
              21.51560284               12.34839094               79.89927257                0.00010000               -0.83136800                0.31552341               -0.70753530               -0.96260675                5.55241511               -1.11045504
              22.51020443               11.82535494               79.49902624                0.00010000               -0.24910309                0.65879531               -1.82136172               -1.40287868                5.14616787               -1.10129873
              23.51062078               11.29934876               79.09701000                0.00010000                0.31220329                0.91295272               -2.85472507               -1.77709163                4.56668404               -1.09598741
              24.51644850               10.77155506               78.69149154                0.00010000                0.79387365                1.18426750               -3.78574338               -1.92622323                3.85886561               -1.11155213
              25.52649825               10.24433515               78.28091235                0.00010000                1.14991154                1.46327757               -4.55925679               -1.76274741                3.05409892               -1.16880714
              26.53944673                9.72017294               77.86365799                0.00010000                1.37636499                1.68065033               -5.09540473               -1.29436611                2.15556252               -1.30426278
              27.55402555                9.20084725               77.43798906                0.00010000                1.48759759                1.73946352               -5.30716680               -0.64564494                1.14396001               -1.56692412
              28.56919868                8.68663345               77.00204867                0.35246328                1.51731311                1.52947211               -5.12308767               -0.21757433                0.58301741               -2.00793212
              19.04183716               14.89815287               81.07625498                0.95887153                0.02043190                0.09002002               -0.26861699                0.00197909                0.01469861                0.50341827
              20.04204148               14.38316344               80.61313984                0.36505920               -0.02403084               -0.05294998                0.14045879               -0.02440429                0.27944765               -0.34779335
              21.04135654               13.86756230               80.15537180                0.00010000               -0.64549879               -0.18249790                0.49884470                0.00567037                3.48794353               -0.83068854
              22.02913150               13.35277541               79.75677143                0.00010000               -0.96471603                0.59815799               -0.78947949               -0.34090146                6.12462097               -0.66773466
              23.02206222               12.83357549               79.35843666                0.00010000               -0.36493800                0.88463071               -1.98237150               -0.74840347                5.61670885               -0.60215358
              24.02183274               12.30995764               78.95746535                0.00010000                0.26111841                1.13312188               -3.08533365               -1.00358932                4.93072463               -0.57874065
              25.02728459               11.78462475               78.55242670                0.00010000                0.77496560                1.37796308               -4.08112764               -1.06014968                4.15784509               -0.56741758
              26.03733205               11.25974803               78.14185708                0.00010000                1.18039906                1.60178663               -4.91275307               -0.93506040                3.30422042               -0.57838252
              27.05089257               10.73731595               77.72419391                0.00010000                1.46861174                1.75711370               -5.49406138               -0.64550972                2.35167392               -0.63892326
              28.06670429               10.21838123               77.29756460                0.00010000                1.61847277                1.78574671               -5.72415582               -0.29035326                1.25211722               -0.78801269
              29.08326202                9.70215509               76.85969957                0.35324347                1.65577372                1.61311301               -5.51172631               -0.05916017                0.62888922               -1.09380433
              19.55754092               15.89907062               80.93577409                0.96600091                0.02514941                0.09177496               -0.29405552               -0.07142611                0.23894213                0.41498231
              20.55779241               15.38265259               80.47005080                0.63951679               -0.01038422               -0.05108480                0.13677340               -0.09228945                0.64462603               -0.33396172
              21.55733323               14.86572296               80.01253975                0.31902050               -0.75103972               -0.18393378                0.49394663                0.48274438                4.24739257               -0.78842669
              22.54277162               14.36035410               79.61927944                0.30934173               -0.96395513                0.75786892               -0.89296155                0.23024120                6.73157394               -0.27418210
              23.53805413               13.84304755               79.22252715                0.30755179               -0.16359428                0.94720622               -2.13025992               -0.31795399                5.95976855               -0.26557988
              24.53949973               13.32201120               78.82277726                0.30890682                0.37004911                1.20535570               -3.27356949               -0.42996220                5.20805132               -0.26066908
              25.54545511               12.79911433               78.41859935                0.31254524                0.78030545                1.44895788               -4.30751808               -0.46496321                4.39196424               -0.26539874
              26.55510584               12.27637089               78.00869880                0.31936158                1.12241115                1.66228530               -5.17734006               -0.41257693                3.52893141               -0.27983397
              27.56790333               11.75531521               77.59166860                0.32921618                1.41367521                1.79992644               -5.79620446               -0.28935884                2.59174714               -0.32155318
              28.58337934               11.23656218               77.16568476                0.34263964                1.62822166                1.81809457               -6.05836267               -0.15346939                1.46558004               -0.41264694
              29.60046777               10.71889571               76.72756425                0.67681831                1.70884241                1.67406236               -5.84632233               -0.04607243                0.80262118               -0.63678700
              14.88112994                6.03728296               83.32024550                0.98485320               -0.00309994                0.04422065               -0.14819524                0.05098951               -0.40799931                0.47619654
              15.88109894                5.52832123               82.89571010                0.96350385               -0.05170173               -0.04036951                0.13705173                0.05698879               -0.51333259                0.06045500
              16.88009590                5.01915070               82.46871237                0.99846462               -0.14298075               -0.11582405                0.40952529                0.05544768               -0.55361271               -0.02995472
              17.87823932                4.50950462               82.04329994                0.71966227               -0.23894525               -0.20439149                0.68532842                0.01939823               -0.51129376               -0.23825771
              18.87531700                3.99897472               81.61728214                0.53193694               -0.33038324               -0.29617872                0.95949952                0.00542969               -0.45725932               -0.26496808
              19.87163166                3.48770198               81.19338101                0.20726407               -0.47595415               -0.40633898                1.27276811               -0.18372717                0.15624406               -0.56130758
              20.86579792                2.97256076               80.78018881                0.00010000               -0.80868350               -0.32534745                1.40772601               -2.74910935                5.38669420               -1.42724025
              21.85545799                2.40708090               80.45869932                0.00010000                0.89996388               -1.21005952                0.08987825               -2.37117862               11.01524957               -0.60133769
              22.88379719                1.82874811               80.14646346                0.00010000                4.57759574               -1.64898298               -1.24514078               -2.74790601               11.48195468               -0.04647624
              23.94700990                1.22511297               79.83997807                1.00000000                3.44813661                0.62610456               -2.20510521               -3.03582261                5.74745151               -0.13386184
              24.95275993                0.68526792               79.41857877                1.00000000                0.57500218                0.42108563               -1.58922750                0.04958470               -0.00946464               -0.11499545
              15.39060156                7.03772516               83.18110531                0.97314841                0.01333963                0.03991752               -0.16529250                0.00803129                0.00086857                0.65283479
              16.39073496                6.52791754               82.75648926                0.91568634               -0.02714377               -0.04322778                0.12256936                0.01539775                0.06205064                0.08488149
              17.39005868                6.01799246               82.33270231                0.99857620               -0.11068295               -0.12000337                0.39992973                0.00658594                0.14213468               -0.19855455
              18.38852130                5.50746071               81.90946069                1.00000000               -0.18930318               -0.22023445                0.68781254               -0.01297923                0.24510892               -0.16380228
              19.38627262                4.99601293               81.48767633                0.91224670               -0.27599638               -0.31668681                0.99396963               -0.02908698                0.30428162               -0.18478235
              20.38300137                4.48363859               81.06555534                0.56736542               -0.38276296               -0.42975137                1.34276913               -0.11099180                0.46854011               -0.39083155
              21.37861736                3.96930728               80.64725978                0.01042546                1.03255782               -0.46469286                1.71650649               -3.04907799                5.29670062               -0.88669287
              22.40365253                3.39498030               80.32199174                0.00010000                3.43423675               -2.04783522               -0.65809215               -3.98301879                9.70755846               -0.42161540
              23.44730210                2.81225828               80.00490007                0.00010000                4.23696245               -1.61637419               -0.89772997               -3.52208101               10.66604106               -1.29957078
              24.48839177                2.23137402               79.69426328                1.00000000                2.28993665                0.57327536               -1.89908035               -1.89697122                5.58116461               -0.13293263
              25.49310083                1.68947877               79.27306714                1.00000000                0.47090545                0.37057237               -1.28860203               -0.05551607                0.00000701               -0.13836112
              15.90090582                8.03808131               83.04507217                0.97693605                0.02337795                0.03556181               -0.18010492                0.00001819                0.13063839                0.75979104
              16.90113960                7.52745668               82.61750699                0.93044312               -0.01106850               -0.04385128                0.11174551               -0.00123696                0.31334675                0.02300287
              17.90068445                7.01675063               82.19320197                0.00010000               -0.05901658               -0.12037588                0.39652083               -0.05723870                0.90927161               -0.63362640
              18.89995927                6.50509994               81.77724440                0.00010000               -0.10635330               -0.65725004                0.68950109               -0.37370143                1.30148131               -0.71816244
              19.89855738                5.99264098               81.36013665                0.10631049               -0.19208966               -1.04175638                1.01332210               -0.37049251                1.22389621               -0.75551631
              20.89611747                5.47910695               80.94200921                0.00010000               -0.25413721               -1.50433999                1.40436930               -0.07404659                1.44548887               -0.62091541
              21.89347464                4.96326690               80.52897855                0.00010000                1.83645701               -2.76936069                1.82009210               -2.97728570                4.84348246               -0.07850027
              22.93284661                4.36612419               80.17899825                0.00010000                4.17436096               -2.28065830               -0.19421909               -5.78505094                7.90902397               -0.63879556
              23.97696186                3.79642063               79.84128004                0.00010000                4.95016865               -1.25912731               -0.99556317               -5.00123472               10.60384297               -3.68143383
              25.03184999                3.23657848               79.54889697                0.08430186                2.92391189                0.68491316               -1.57329155               -5.02650740                6.55122283               -6.36726296
              26.03544010                2.69267936               79.12795010                0.47649814                0.35901089                2.52752950               -0.96821513               -4.25077513                0.04167413               -5.50544124
              16.41185119                9.03843640               82.90779874                0.96853739                0.01897049                0.04054506               -0.18714366               -0.00336612                0.21881260                0.63114974
              17.41204089                8.52704051               82.47689186                0.48169568               -0.02902687               -0.04416305                0.11022336               -0.01165600                0.35761262               -0.27187707
              18.41127065                8.01558494               82.04845712                0.00010000               -0.34419872               -0.15035548                0.38423530               -0.50941743                1.11590253               -1.09991970
              19.40515692                7.49431571               81.63272898                0.00010000               -0.32074463               -0.89482532                0.30635982               -1.21294299                1.86985063               -1.47056529
              20.40485576                6.97517780               81.21985926                0.00010000                0.28688019               -1.55337198                0.23992226               -1.16284063                2.15295667               -1.58744645
              21.41089452                6.45355179               80.81079510                0.00010000                1.35993220               -2.39693399                0.13761216               -1.62713161                2.80017144               -1.42828570
              22.43205440                5.91392007               80.41379257                0.00010000                2.19516285               -3.63261127               -0.27727590               -2.88909993                3.49765432               -0.79573696
              23.45479778                5.34936714               80.02799508                0.00010000                2.23843572               -1.26318413               -0.94367472               -5.13798349                4.79541252               -2.43311814
              24.47682312                4.78707573               79.66094813                0.00010000                1.84025552               -0.13210300               -1.57173228               -5.57851138                4.94554917               -5.07738825
              25.49160289                4.24507228               79.27958131                0.00010000                0.95302218                1.35176883               -1.93073999               -5.08398987                3.09552177              -10.23295988
              26.49588356                3.74002936               78.87646843                0.34385998                0.42806701                3.25137531               -1.83255041               -3.18385900                2.23160922              -10.07188758
              16.92363028               10.03889221               82.76903901                0.96048944                0.01276617                0.05252302               -0.19184372                0.00044507                0.00789035                0.51965961
              17.92375794                9.52657341               82.33186282                0.36588596               -0.02046867               -0.05702354                0.13765645               -0.02792857                0.26012975               -0.42097284
              18.92322090                9.01374352               81.89955250                0.00010000               -0.38251962               -0.21014529                0.39934538               -0.73526165                1.42488345               -1.42757120
              19.91610755                8.48720343               81.48578031                0.00010000               -0.35782045               -0.60579170               -0.00630856               -1.47312598                2.40176351               -1.67088180
              20.91606449                7.96157354               81.07503871                0.00010000                0.43625168               -1.12041100               -0.40697971               -1.70168953                2.57939615               -1.90628399
              21.92483258                7.43116827               80.66807751                0.00010000                1.19063981               -1.67269264               -0.85078142               -2.46784495                2.71499199               -2.08781938
              22.93987729                6.89061467               80.26557092                0.00010000                1.60493492               -1.57854731               -1.37475655               -3.96339233                2.89086280               -2.54387039
              23.95693128                6.34086051               79.86820992                0.00010000                1.49045984               -0.37775652               -1.93385564               -4.82955399                2.97198799               -3.32880810
              24.96968649                5.79377857               79.47202987                0.00010000                1.01426420                0.92036435               -2.41349092               -4.42649149                2.62938410               -5.13703685
              25.97721656                5.26361386               79.06953021                0.00010000                0.60811336                1.79574105               -2.66210597               -2.69118226                1.57164523               -6.63033975
              26.98184875                4.75770687               78.65126950                0.34463186                0.46321926                1.57319388               -2.56455715               -1.29701738                0.89210173               -7.76284849
              17.43649768               11.03948686               82.62943046                0.95914532                0.01333298                0.06568235               -0.19857844               -0.00157645                0.00444433                0.50510742
              18.43663101               10.52590004               82.18805846                0.37544917               -0.02811374               -0.07130867                0.14434225               -0.04751132                0.08088040               -0.34140351
              19.43593540               10.01138204               81.74808485                0.00010000               -0.43833146               -0.23204114                0.46527720               -0.84052983                1.57641481               -1.41042504
              20.42786438                9.48219988               81.33672636                0.00010000               -0.45391375               -0.38952557               -0.24063764               -1.72242844                2.89036535               -1.74086021
              21.42685713                8.95276958               80.92640853                0.00010000                0.23160575               -0.59611928               -0.89446468               -2.06691138                2.78431458               -2.02417167
              22.43249649                8.42009793               80.51771332                0.00010000                0.81185923               -0.66767466               -1.54510818               -2.80250743                2.64167950               -2.34032951
              23.44309431                7.88234912               80.11033300                0.00010000                1.12731562               -0.34892564               -2.18946859               -3.60347904                2.42701937               -2.75446200
              24.45504281                7.34181201               79.70319775                0.00010000                1.12228145                0.42385277               -2.78042300               -3.91130379                2.12401754               -3.39294517
              25.46553994                6.80548302               79.29406777                0.00010000                0.94040675                1.26970026               -3.23197227               -3.23187623                1.64715167               -4.23604389
              26.47385094                6.28098710               78.87919522                0.00010000                0.81086222                1.68285599               -3.43739812               -1.74192201                0.92499058               -5.12081612
              27.48175719                5.77149324               78.45498548                0.34529041                0.79062449                1.37993736               -3.33068426               -0.68290402                0.55688135               -5.77313762
              17.95077239               12.04020586               82.49023214                0.95974312                0.01401480                0.07714721               -0.21457534               -0.00003051                0.00046643                0.54664811
              18.95091254               11.52514724               82.04457091                0.41161451               -0.03309585               -0.07468156                0.14674823               -0.04839315                0.02882810               -0.31644871
              19.95011047               11.00910270               81.59939551                0.00010000               -0.53205538               -0.22170300                0.49943793               -0.78833731                1.70143551               -1.21872350
              20.94027143               10.47941292               81.18725895                0.00010000               -0.66411316               -0.14789371               -0.40675592               -1.67104419                3.20208231               -1.64177528
              21.93682821                9.94965116               80.77643357                0.00010000               -0.05342675               -0.06828388               -1.24866442               -2.03792846                3.00099286               -1.91434713
              22.93920289                9.41781478               80.36587309                0.00010000                0.46327139                0.08933102               -2.05574624               -2.57028389                2.66956567               -2.17578162
              23.94609364                8.88363616               79.95461201                0.00010000                0.81842038                0.43525225               -2.81580665               -3.00328715                2.25615702               -2.48820003
              24.95557130                8.34933757               79.54152987                0.00010000                0.98901153                0.95515250               -3.47519985               -2.98616696                1.79143875               -2.88851678
              25.96587387                7.81917257               79.12516591                0.00010000                1.03983004                1.44058808               -3.95091273               -2.34707757                1.27771595               -3.38497806
              26.97636790                7.29727098               78.70371276                0.00010000                1.06522658                1.62808687               -4.15585702               -1.23019281                0.68550650               -3.92806244
              27.98717840                6.78530562               78.27523795                0.34606028                1.08104961                1.40116642               -4.02274487               -0.46861865                0.40501225               -4.47597502
              18.46661430               13.04102980               82.35131406                0.96035011                0.01520036                0.08500368               -0.23470288                0.00191953                0.00161640                0.57048515
              19.46676630               12.52440641               81.90130920                0.44788085               -0.03556584               -0.07045871                0.14827019               -0.03857152                0.03081468               -0.30494735
              20.46590298               12.00694798               81.45184863                0.00010000               -0.64356316               -0.21043920                0.52241165               -0.60010921                1.87961247               -1.15452324
              21.45389504               11.47924200               81.03890733                0.00010000               -0.91031395                0.10947869               -0.52711596               -1.33040088                3.53051702               -1.42469143
              22.44769670               10.95140391               80.62757202                0.00010000               -0.33946122                0.37745730               -1.50680806               -1.68486166                3.27087121               -1.61861851
              23.44710581               10.42188455               80.21573634                0.00010000                0.19045384                0.63250418               -2.43754911               -2.10210450                2.82304561               -1.78773153
              24.45150578                9.89105417               79.80207420                0.00010000                0.63386212                0.93726369               -3.30050747               -2.33390228                2.29087837               -1.97975741
              25.45978305                9.36091506               79.38552018                0.00010000                0.95796012                1.28628837               -4.03664595               -2.20506076                1.73875324               -2.22116063
              26.47066498                8.83429478               78.96508492                0.00010000                1.16654919                1.57045148               -4.55974649               -1.66878281                1.19170899               -2.52734176
              27.48311404                8.31354884               78.53969606                0.00010000                1.28252757                1.65100546               -4.77657263               -0.86066288                0.62742046               -2.90485819
              28.49631553                7.79951657               78.10807754                0.34692189                1.32014928                1.44418103               -4.61003776               -0.31307312                0.36231341               -3.36123865
              18.98405757               14.04190593               82.21248151                0.96025216                0.01653639                0.08802338               -0.25585566                0.00369259                0.01194138                0.57166866
              19.98422293               13.52373807               81.75813084                0.49437381               -0.03924380               -0.06309385                0.15286699               -0.02839104                0.05447740               -0.31817195
              20.98327269               13.00489392               81.30462942                0.00010000               -0.75077270               -0.19898604                0.54491023               -0.28306717                2.16770054               -0.98601390
              21.96920748               12.48160249               80.89266974                0.00010000               -1.13921365                0.36821481               -0.61681807               -0.74794911                3.97994233               -1.12014949
              22.96048842               11.95720030               80.48145389                0.00010000               -0.58484682                0.75155960               -1.69800573               -1.17160857                3.60607820               -1.18769181
              23.95751054               11.43046486               80.06920415                0.00010000               -0.00516674                1.00469134               -2.72458780               -1.52626893                3.06006535               -1.26238769
              24.96038509               10.90238143               79.65440756                0.00010000                0.53594624                1.25333722               -3.67363892               -1.65911616                2.44157118               -1.35867713
              25.96822947               10.37506333               79.23608115                0.00010000                0.97396700                1.49560540               -4.48174809               -1.50495008                1.82443607               -1.48851228
              26.97986443                9.85058160               78.81344933                0.00010000                1.28516945                1.67251344               -5.05474210               -1.08915951                1.23440472               -1.67248435
              27.99393286                9.33029109               78.38569523                0.00010000                1.45585254                1.70330712               -5.28702249               -0.53322413                0.64552471               -1.93494615
              29.00898148                8.81418924               77.95172589                0.34754864                1.50486198                1.50604478               -5.08766523               -0.16793444                0.36215513               -2.30058957
              19.50302387               15.04279027               82.07352614                0.95875973                0.01866198                0.09001619               -0.27639741                0.00342045                0.01399048                0.48020394
              20.50321049               14.52314453               81.61468291                0.40233666               -0.03233308               -0.05848912                0.16266035               -0.02059230                0.25273481               -0.31832660
              21.50237721               14.00296825               81.16064082                0.00010000               -0.82904128               -0.19354498                0.54244868                0.15900774                2.62033508               -0.77544688
              22.48662967               13.48660630               80.74937824                0.00010000               -1.34875248                0.70598064               -0.68984324               -0.15158455                4.44690620               -0.66098446
              23.47540216               12.96643510               80.33928910                0.00010000               -0.76151821                0.99267198               -1.84684850               -0.59205626                3.96931375               -0.63405904
              24.47139930               12.44197838               79.92738684                0.00010000               -0.08385915                1.22431761               -2.94244036               -0.85867952                3.31714673               -0.65366954
              25.47372498               11.91612091               79.51241952                0.00010000                0.50422913                1.44319118               -3.95731644               -0.91150702                2.63110736               -0.68640868
              26.48148389               11.39082716               79.09352092                0.00010000                0.99645296                1.63693960               -4.82539794               -0.79733790                1.96727828               -0.73716075
              27.49365404               10.86774505               78.67003144                0.00010000                1.36790166                1.76318896               -5.44561392               -0.54377413                1.33871983               -0.82288949
              28.50884192               10.34761498               78.24113639                0.00010000                1.57532503                1.77210414               -5.69778092               -0.24106837                0.69977972               -0.96688359
              29.52516054                9.82963746               77.80553322                0.34828155                1.63186196                1.60565980               -5.46883609               -0.03983777                0.38210218               -1.21233857
              20.02341746               16.04370625               81.93285030                0.97921415                0.02156451                0.09159810               -0.29360274               -0.07443816                0.22562295                0.39439020
              21.02363311               15.52256828               81.47157169                0.65611793               -0.02131882               -0.05762470                0.16334172               -0.09190063                0.59753755               -0.30666185
              22.02299108               15.00102302               81.01779065                0.31914734               -1.04620798               -0.19452388                0.54190037                0.71907821                3.30083475               -0.72441736
              23.00270895               14.49572210               80.61091401                0.30923730               -1.48579357                0.91158074               -0.77835762                0.40946415                4.95295105               -0.25673460
              23.99327521               13.97705374               80.20197683                0.30793790               -0.60289022                1.06186444               -1.97609878               -0.25123961                4.24262590               -0.26609096
              24.99065114               13.45495121               79.79089742                0.30867155                0.00154747                1.29728305               -3.11094127               -0.36524047                3.52594897               -0.28012693
              25.99330616               12.93124526               79.37640708                0.31231038                0.50037138                1.51243472               -4.16553172               -0.39933596                2.79237774               -0.30201107
              27.00065857               12.40780213               78.95778766                0.31796673                0.94474823                1.69749615               -5.07546714               -0.35252554                2.11221145               -0.32985484
              28.01220113               11.88584538               78.53454432                0.32645879                1.32802539                1.81003286               -5.73820404               -0.24873906                1.49521707               -0.37668313
              29.02721908               11.36573317               78.10596181                0.33870093                1.59693155                1.81181862               -6.02791903               -0.13943154                0.84557945               -0.45750661
              30.04413976               10.84630243               77.67009654                0.67427349                1.69206805                1.66649690               -5.80050040               -0.04515162                0.50711015               -0.63336798
              15.30009159                6.18127055               84.31835381                0.98790944                0.01299669                0.06305510               -0.22116374                0.05954298               -0.42146323                0.47713188
              16.30022156                5.66822913               83.89684897                0.96585702               -0.04227437               -0.02850100                0.09377912                0.06581182               -0.53813280                0.06307201
              17.29924610                5.15492762               83.47273202                0.99714417               -0.14474981               -0.10844043                0.39160275                0.06295201               -0.58438827               -0.02608810
              18.29732656                4.64097458               83.05025402                0.72368533               -0.25247554               -0.20830761                0.69669089                0.01506919               -0.53662039               -0.23201751
              19.29419659                4.12581549               82.62718563                0.55357129               -0.35289493               -0.31578709                1.00386206                0.00235338               -0.45614387               -0.24622276
              20.29026866                3.60959644               82.20663945                0.25996905               -0.45760527               -0.44849346                1.36388067               -0.14113791                0.12171426               -0.53901023
              21.28504449                3.09023111               81.79550048                0.00010000               -0.44937892               -0.49593972                1.61070640               -1.81318636                4.45175689               -1.32221600
              22.28128109                2.53901853               81.46059169                0.00010000                0.94998678               -0.20769386                0.10071423               -2.66296706                9.28218631               -1.93737768
              23.30404422                1.97115210               81.13341487                0.00010000                4.20678778               -1.95390163               -1.49050540               -2.64537372                9.80477105                0.20423344
              24.36541684                1.36789907               80.81782368                1.00000000                3.34738542                0.61060000               -2.18831384               -3.00057258                4.97917668               -0.07070523
              25.37099193                0.82810469               80.40304402                1.00000000                0.55750908                0.37913702               -1.48397364                0.05188070               -0.00593388               -0.07177313
              15.81372845                7.18190110               84.17907407                0.97824415                0.03226964                0.05485469               -0.23313509                0.01250388               -0.01067892                0.64982166
              16.81405114                6.66794412               83.75751621                0.91685939               -0.01127735               -0.03372194                0.08458246                0.02025573                0.04172197                0.08807510
              17.81350290                6.15384321               83.33665778                0.99197228               -0.10089120               -0.11472303                0.38587771                0.00576655                0.12438190               -0.18810848
              18.81203332                5.63889150               82.91647138                1.00000000               -0.17968517               -0.23189852                0.70105524               -0.01951164                0.25455505               -0.15266917
              19.80990920                5.12265762               82.49798520                0.96099383               -0.26919228               -0.34375045                1.04394965               -0.03837441                0.37413808               -0.16771842
              20.80664947                4.60511150               82.07967054                0.67530241               -0.38538098               -0.48077846                1.45778551               -0.12303771                0.61184100               -0.37094009
              21.80220158                4.08527172               81.66542647                0.16604445                0.37707234               -0.59671721                1.93249157               -1.51726910                3.83215567               -0.83461645
              22.81419092                3.53694159               81.31085268                0.00010000                3.04743204               -1.10218256               -0.62186824               -3.12199884                7.77341307               -0.68993107
              23.86315022                2.95161309               80.99793133                0.00010000                4.63719503               -2.08749566               -0.43293790               -3.63105508                9.69505137               -1.18610770
              24.90693482                2.37400507               80.67620294                1.00000000                2.40774503                0.55423076               -1.82031704               -1.72311593                4.67036009               -0.06967346
              25.91130512                1.83189606               80.26132721                1.00000000                0.43702975                0.32715886               -1.13374316               -0.06307818               -0.00192554               -0.09948712
              16.32825564                8.18236764               84.04293220                0.98081428                0.04289193                0.04382763               -0.24123779                0.00097189                0.11803417                0.75759606
              17.32868456                7.66755469               83.61846499                0.92889417                0.00792052               -0.03671457                0.08045354               -0.00375545                0.29511081                0.03210173
              18.32841405                7.15263316               83.19716895                0.00010000               -0.02813175               -0.11540099                0.39016710               -0.08924777                0.89559151               -0.61993000
              19.32812193                6.63633660               82.78429528                0.07175983               -0.06024749               -0.67654481                0.70231312               -0.45735990                1.33287269               -0.89506939
              20.32720910                6.11894048               82.37067121                0.13454715               -0.14640563               -1.04373359                1.05962722               -0.52118123                1.35507067               -1.13961703
              21.32519381                5.59998087               81.95683008                0.11397353               -0.21700435               -1.46277165                1.51461372               -0.34153069                1.69163820               -1.28179957
              22.32286902                5.07829677               81.54823590                0.00010000                1.36529626               -2.36891444                2.00922866               -1.44973722                4.09865405               -1.25060532
              23.35249974                4.51697488               81.18041887                0.00010000                3.57453154               -2.79761347                0.83773576               -4.26994879                5.89297856               -0.36823706
              24.39435965                3.92940219               80.83339894                0.00010000                4.90859042               -1.58956516               -0.25238130               -5.10038575                9.35601186               -4.56023742
              25.45067155                3.37898369               80.53475205                0.08288279                2.97943704                0.35234725               -1.47075525               -4.45093537                5.85164357               -6.68290550
              26.45394839                2.83464787               80.11979615                0.46397335                0.32768397                2.21174290               -0.80225072               -4.03109800                0.03736694               -6.10024913
              16.84337380                9.18277765               83.90563871                0.97161885                0.03367208                0.04516500               -0.23902355               -0.00755348                0.20197568                0.63100658
              17.84371052                8.66720982               83.47788414                0.50325381               -0.02188870               -0.03516133                0.08808625               -0.02381659                0.32714927               -0.24339962
              18.84293603                8.15153519               83.05236188                0.00010000               -0.35658610               -0.14225992                0.39096676               -0.56951657                0.89692479               -1.07105454
              19.83657880                7.62536060               82.63600243                0.00010000               -0.35473587               -0.88920638                0.33259955               -1.36031791                1.47975068               -1.80666969
              20.83584131                7.10178295               82.22263640                0.00010000                0.19418866               -1.48704287                0.28761172               -1.38919617                1.76511596               -2.30541441
              21.84046257                6.57585607               81.81274840                0.00010000                1.01857553               -2.16150368                0.21357691               -1.71337643                2.27675864               -2.62898678
              22.85621282                6.03789343               81.41208626                0.00010000                1.86119758               -3.07975438               -0.10861179               -2.54005775                2.69643017               -2.48663011
              23.87768652                5.48098932               81.02045291                0.00010000                2.14604397               -2.37952333               -0.58131109               -4.44470391                3.95204187               -3.64558608
              24.89913370                4.91982178               80.64651989                0.00010000                1.74919549               -0.21926735               -1.44093489               -5.03243924                4.07104897               -6.19351622
              25.91267043                4.38105202               80.26071769                0.00010000                1.01105469                0.87199560               -1.87832312               -4.62851776                2.55268151              -11.03952456
              26.91935479                3.87613092               79.85860244                0.33946715                0.66843588                2.74139574               -1.80838623               -2.80718734                1.95604167              -11.24040835
              17.35924023               10.18327094               83.76688931                0.96271170                0.02104570                0.05767489               -0.23280520               -0.00148250                0.01059356                0.51760939
              18.35945069                9.66685146               83.33318897                0.39658048               -0.01836452               -0.05013524                0.12641787               -0.04080596                0.22632921               -0.38848940
              19.35887294                9.14978796               82.90365765                0.00010000               -0.43914366               -0.20150733                0.41378033               -0.77932414                1.02433837               -1.35929942
              20.35066782                8.61855248               82.48597773                0.00010000               -0.49716146               -0.55959821                0.03462928               -1.57003489                1.65292643               -1.92536896
              21.34892971                8.08919962               82.07135784                0.00010000                0.20739948               -0.99356485               -0.34785427               -1.77134572                1.79321051               -2.46929819
              22.35481581                7.55675079               81.66005155                0.00010000                0.90024464               -1.40349701               -0.78746680               -2.40486032                1.84974878               -2.95497391
              23.36693460                7.01670168               81.25238022                0.00010000                1.34307494               -1.39001403               -1.30780465               -3.55435752                1.96998383               -3.60833501
              24.38167730                6.46938442               80.84935324                0.00010000                1.33567825               -0.50880924               -1.90625874               -4.35102204                2.03238011               -4.47027295
              25.39364817                5.92501684               80.44805663                0.00010000                1.00573754                0.80608498               -2.47029840               -3.99918235                1.85298816               -6.17482984
              26.40179205                5.39642360               80.04290377                0.00010000                0.69993309                1.54240193               -2.75256734               -2.36090747                1.15724418               -7.60227626
              27.40764683                4.88947578               79.62577751                0.34001162                0.58547772                1.24142418               -2.62003190               -1.15358003                0.72882600               -8.77371399
              17.87618312               11.18393115               83.62727018                0.96029749                0.01942678                0.07213736               -0.22869244               -0.00384678                0.00406920                0.49565828
              18.87637739               10.66620712               83.18948904                0.40836792               -0.02672965               -0.07059883                0.13946909               -0.05432837                0.06749181               -0.32234576
              19.87564853               10.14750505               82.75286799                0.00010000               -0.53054746               -0.22920505                0.48129586               -0.84697791                1.04328132               -1.33395020
              20.86576644                9.61416864               82.33462804                0.00010000               -0.67162245               -0.32277218               -0.18575424               -1.72255832                1.84338323               -1.91136063
              21.86221608                9.08191165               81.91788793                0.00010000               -0.04515648               -0.45445234               -0.82122079               -1.99687070                1.72296367               -2.42013704
              22.86486331                8.54778613               81.50269456                0.00010000                0.51379857               -0.47944341               -1.48221086               -2.60770679                1.54656819               -2.94278417
              23.87249205                8.01009315               81.08875614                0.00010000                0.87438067               -0.19173681               -2.16952670               -3.27471356                1.33087921               -3.52112963
              24.88235092                7.47081314               80.67546484                0.00010000                0.98094101                0.48577746               -2.83219839               -3.49965113                1.12164086               -4.25775468
              25.89211087                6.93594348               80.26153085                0.00010000                0.93212105                1.22177300               -3.35548162               -2.85995623                0.87726863               -5.13828339
              26.90099334                6.41190005               79.84449323                0.00010000                0.90339758                1.54382202               -3.60489925               -1.52526309                0.51551817               -6.03815961
              27.91017882                5.90095940               79.42150882                0.34081499                0.91854778                1.21108404               -3.48644849               -0.57080827                0.38278766               -6.68112752
              18.39461136               12.18471369               83.48796038                0.96026748                0.01788641                0.08279324               -0.23555876               -0.00167811               -0.00022554                0.52849957
              19.39479023               11.66543948               83.04605261                0.44614159               -0.03197490               -0.07686695                0.14626322               -0.05085812                0.02216006               -0.29914647
              20.39397186               11.14520386               82.60452309                0.00010000               -0.64900889               -0.22636956                0.51588280               -0.75024947                1.06909619               -1.16093254
              21.38181005               10.61209703               82.18354158                0.00010000               -0.92985278               -0.08041559               -0.34003617               -1.58035525                1.94107622               -1.74280314
              22.37537481               10.08011058               81.76441778                0.00010000               -0.36649370                0.05476205               -1.15958338               -1.87425782                1.73362027               -2.17671181
              23.37448017                9.54716193               81.34576024                0.00010000                0.15192578                0.24133804               -1.98483852               -2.32867542                1.38637562               -2.59205189
              24.37841332                9.01286694               80.92671729                0.00010000                0.56768855                0.57277768               -2.80334375               -2.68624190                1.00937825               -3.04222870
              25.38583394                8.47909996               80.50674819                0.00010000                0.84744039                1.03474225               -3.54841823               -2.63981744                0.68397098               -3.55149775
              26.39536213                7.94945230               80.08532783                0.00010000                1.02184637                1.44646058               -4.11428649               -2.04802555                0.43789335               -4.11909876
              27.40627087                7.42730004               79.66164474                0.00010000                1.13749186                1.58061395               -4.38031742               -1.05573454                0.23003192               -4.69103308
              28.41811197                6.91369746               79.23459172                0.34143888                1.18410966                1.34467626               -4.24608447               -0.38573728                0.20750412               -5.19235875
              18.91469797               13.18558702               83.34888231                0.96032660                0.01720846                0.08889127               -0.24807066                0.00084121                0.00077744                0.54792976
              19.91487006               12.66466978               82.90282802                0.48485644               -0.03559933               -0.07325198                0.15123377               -0.03840114                0.02442058               -0.28450564
              20.91398599               12.14297766               82.45720877                0.00010000               -0.78087214               -0.21717011                0.53824896               -0.52172054                1.16821963               -1.09604412
              21.89925261               11.61256033               82.03402649                0.00010000               -1.21599792                0.17100033               -0.44892929               -1.17017993                2.10888798               -1.47422872
              22.88966603               11.08300689               81.61302972                0.00010000               -0.68595916                0.48867204               -1.40131035               -1.47653312                1.84190353               -1.77926662
              23.88553343               10.55261289               81.19185139                0.00010000               -0.14184278                0.76442925               -2.35203009               -1.85349748                1.38376296               -2.06317135
              24.88682917               10.02154870               80.76935759                0.00010000                0.37178916                1.05846271               -3.28025659               -2.05576536                0.90034141               -2.36609552
              25.89296921                9.49150799               80.34512668                0.00010000                0.80605556                1.37321012               -4.11275781               -1.92823713                0.50686171               -2.70402470
              26.90295028                8.96487269               79.91912676                0.00010000                1.13321371                1.61622187               -4.73781985               -1.44185186                0.25438303               -3.07760834
              27.91563349                8.44351233               79.49135205                0.00010000                1.33594697                1.67039747               -5.02906040               -0.73155790                0.11504896               -3.46953773
              28.92966922                7.92785293               79.06143702                0.34218414                1.40357337                1.47342598               -4.87303840               -0.25251575                0.13713040               -3.85988685
              19.43646266               14.18649152               83.20987567                0.95990800                0.01689042                0.09005679               -0.26272688                0.00356517                0.01099656                0.54673263
              20.43663156               13.66397444               82.75971277                0.53461319               -0.04078763               -0.06568596                0.15858372               -0.02598127                0.04507384               -0.29031325
              21.43564691               13.14086046               82.31022152                0.00010000               -0.91271737               -0.20427601                0.56057193               -0.16877377                1.38798850               -0.93253029
              22.41837721               12.61551704               81.88693621                0.00010000               -1.49276617                0.43755592               -0.52629800               -0.54038560                2.43011885               -1.13109229
              23.40579158               12.08988402               81.46506612                0.00010000               -0.97543998                0.86822395               -1.57382201               -0.96463308                2.04886437               -1.27220607
              24.39886841               11.56245051               81.04251825                0.00010000               -0.36943304                1.12890475               -2.61947938               -1.31679987                1.48921977               -1.42574367
              25.39840292               11.03403620               80.61801876                0.00010000                0.25383959                1.36741754               -3.63776800               -1.44714342                0.92011381               -1.60173638
              26.40394521               10.50656417               80.19127739                0.00010000                0.80589122                1.58951648               -4.54934103               -1.30814847                0.47016691               -1.80268547
              27.41452075                9.98177674               79.76256315                0.00010000                1.23571360                1.74452371               -5.23291800               -0.93774828                0.19759650               -2.03331101
              28.42865948                9.46070799               79.33224861                0.00010000                1.49298585                1.76323256               -5.54718206               -0.45230727                0.07541490               -2.29443810
              29.44438046                8.94316598               78.90029537                0.34285581                1.57209838                1.58423709               -5.36254558               -0.13214071                0.10853032               -2.58330476
              19.95980342               15.18738815               83.07072703                0.95844993                0.01780704                0.09092832               -0.27999294                0.00418806                0.01806129                0.45650167
              20.95998149               14.66335606               82.61639304                0.44057445               -0.03677540               -0.06163257                0.17278832               -0.01623784                0.22556998               -0.28905548
              21.95906791               14.13889214               82.16622078                0.00010000               -1.02800755               -0.19627520                0.56038145                0.31580424                1.77457596               -0.72593017
              22.93942134               13.62131145               81.74297456                0.00010000               -1.78140097                0.83154062               -0.58426694                0.03732351                2.80196277               -0.65447282
              23.92343989               13.10037137               81.32149969                0.00010000               -1.21880445                1.12331248               -1.69975828               -0.44943997                2.31131753               -0.66564859
              24.91504525               12.57519099               80.89861654                0.00010000               -0.48336233                1.34684923               -2.81244716               -0.73771392                1.64155641               -0.72743697
              25.91377265               12.04889705               80.47328037                0.00010000                0.20102258                1.55313894               -3.89915185               -0.79415817                0.99887755               -0.80332737
              26.91906570               11.52329831               80.04534912                0.00010000                0.81394240                1.73380776               -4.87674559               -0.69331253                0.50185459               -0.89262922
              27.93005150               10.99976317               79.61528164                0.00010000                1.30661973                1.84895250               -5.61526509               -0.47042744                0.20503202               -1.00220422
              28.94519810               10.47877698               79.18360898                0.00010000                1.60294598                1.85266149               -5.95571087               -0.20731317                0.07177219               -1.13935819
              29.96211042                9.95953767               78.75032285                0.34350026                1.69123173                1.69678662               -5.74042654               -0.02592888                0.09895421               -1.31705822
              20.48461060               16.18831008               82.92990204                0.97912243                0.01922194                0.09219312               -0.29312627               -0.07611118                0.21869835                0.37231846
              21.48480282               15.66274179               82.47331763                0.67344385               -0.03014982               -0.06142686                0.17847958               -0.08662373                0.54904480               -0.27839562
              22.48400761               15.13693495               82.02337775                0.31923464               -1.35791848               -0.19571841                0.56109834                0.96427211                2.38251143               -0.66553738
              23.45764445               14.63214785               81.60371229                0.30893101               -2.05421814                1.08364069               -0.65192400                0.59307670                3.22213935               -0.24211050
              24.44292324               14.11235027               81.18300517                0.30757735               -1.10279976                1.19788969               -1.80154048               -0.18968307                2.52095506               -0.26948032
              25.43558846               13.58938750               80.76055843                0.30870135               -0.42554072                1.41965106               -2.95183126               -0.30824409                1.78110778               -0.30159482
              26.43441243               13.06509898               80.33528872                0.31153259                0.18121909                1.62019273               -4.08182342               -0.34338072                1.08006847               -0.33905278
              27.43921284               12.54124032               79.90718946                0.31668799                0.76105493                1.79420072               -5.10898118               -0.30244600                0.55482500               -0.37810594
              28.44963353               12.01875579               79.47690452                0.32456371                1.27629374                1.89926214               -5.90040259               -0.21575219                0.26249195               -0.42735616
              29.46473871               11.49776122               79.04512638                0.33508068                1.63534932                1.89842331               -6.28970503               -0.12864224                0.13558096               -0.49484523
              30.48234051               10.97710172               78.61155424                0.67207780                1.76018003                1.75640459               -6.07845730               -0.04294041                0.16179847               -0.61109255
              15.71571034                6.32538506               85.31582222                0.99031438                0.02477295                0.07581383               -0.27319791                0.06565040               -0.43999049                0.47851959
              16.71595807                5.80824820               84.89758569                0.96862627               -0.03536235               -0.01851744                0.05798109                0.07237924               -0.57112988                0.06543861
              17.71500309                5.29077741               84.47654442                0.99535639               -0.14523797               -0.09840533                0.36794894                0.06787452               -0.62257885               -0.02482486
              18.71305331                4.77242956               84.05723376                0.72138564               -0.25971944               -0.20634971                0.69007665                0.00685277               -0.56446698               -0.22845049
              19.70980870                4.25245112               83.63735938                0.57346561               -0.36511032               -0.32781338                1.01559093               -0.00374604               -0.43611793               -0.21622749
              20.70575110                3.73085959               83.22065862                0.32224968               -0.44639453               -0.48304361                1.41797283               -0.10475170                0.14669538               -0.47173102
              21.70088081                3.20626445               82.81240294                0.00010000               -0.12818857               -0.63849165                1.71402955               -0.83265864                3.42122829               -1.08129424
              22.70318733                2.66781137               82.46071361                0.00010000                1.08899096               -0.64568648                0.16481930               -2.78036954                7.31978434               -2.75358922
              23.72266063                2.10379985               82.11665336                0.00010000                3.68884774               -1.52477969               -1.22474310               -2.72432784                7.80690997                0.51995933
              24.77696428                1.50694034               81.79621180                1.00000000                2.97699662                0.61118284               -2.12205591               -2.68280684                4.37076587               -0.06794986
              25.78220056                0.96726608               81.38889929                1.00000000                0.52362779                0.34708146               -1.34621200                0.09389616               -0.00662704               -0.06737232
              16.23350370                7.32614320               85.17644261                0.98183446                0.04819788                0.06417632               -0.28247725                0.01651211               -0.02771422                0.64691115
              17.23398568                6.80806303               84.75818090                0.91805066                0.00437246               -0.02587110                0.05130484                0.02485795                0.01067357                0.09111245
              18.23359115                6.28979336               84.34041986                0.98118593               -0.08503514               -0.10647379                0.36092996                0.00329667                0.09264104               -0.17845951
              19.23228498                5.77036607               83.92348180                1.00000000               -0.15174633               -0.23810338                0.68608265               -0.02796058                0.25507775               -0.14540438
              20.23055623                5.24917299               83.50855532                0.99584610               -0.22440293               -0.36268417                1.03923075               -0.05108027                0.46280370               -0.14438866
              21.22779692                4.72602915               83.09471105                0.79878967               -0.32389463               -0.52332511                1.49844676               -0.13295062                0.85223894               -0.31971640
              22.22407833                4.19987953               82.68590962                0.37525762               -0.05904951               -0.73347247                2.10026048               -0.68482647                2.88141155               -0.71089426
              23.22661593                3.66135451               82.30955438                0.00010000                2.58872649               -0.93260758                0.79298861               -2.44858280                7.30860209               -1.45006577
              24.27585286                3.08855206               81.99624131                0.00010000                4.58935846               -2.35862691               -0.29060463               -3.06070258               10.15349868               -1.57806407
              25.31840310                2.51305217               81.65785694                1.00000000                2.34804606                0.57326368               -1.86899511               -1.61469000                3.45728798               -0.07270527
              26.32281378                1.97073690               81.25039228                1.00000000                0.44106846                0.30665325               -1.06531565               -0.03659387                0.00392917               -0.09123062
              16.75220093                8.32666859               85.04024741                0.98387520                0.06041344                0.04781122               -0.28651299                0.00102552                0.09920283                0.75801809
              17.75280506                7.80773078               84.61911606                0.92631115                0.02825259               -0.03072435                0.05125433               -0.00728111                0.26541578                0.04331120
              18.75276598                7.28864794               84.20100531                0.00010000                0.01547007               -0.10591051                0.36972567               -0.12817896                0.85995283               -0.60074422
              19.75311447                6.76766750               83.79129066                0.06330024                0.01790120               -0.69330966                0.67542832               -0.56290365                1.33665247               -1.06310696
              20.75312401                6.24519744               83.38132919                0.14663213               -0.03644600               -1.03950547                1.02756291               -0.72092643                1.47712183               -1.50787840
              21.75238555                5.72039309               82.97230149                0.17125154               -0.06325384               -1.41392915                1.49548992               -0.72097641                1.98667286               -1.92374061
              22.75185893                5.19159500               82.56916312                0.00010000                0.65788010               -1.99181935                2.05731399               -0.85168527                4.04921283               -2.36526217
              23.76554315                4.64915922               82.19575296                0.00010000                2.89449902               -2.69167311                1.52043233               -3.10893126                5.45511638               -2.59956562
              24.80974891                4.05662731               81.83623242                0.00010000                4.84712468               -2.00021726                1.35340364               -4.43135732                9.72629723               -4.75199750
              25.86248564                3.51840562               81.51948186                0.10159396                2.81751625                0.15389514               -1.61943015               -3.55286469                4.56044731               -6.98746687
              26.86609923                2.97339915               81.11190508                0.46344301                0.36135930                1.92514690               -0.78655926               -3.67959146                0.04180222               -6.75416153
              17.27139984                9.32709943               84.90301827                0.97388755                0.04608735                0.04721683               -0.27715727               -0.01299396                0.18014728                0.63717149
              18.27186071                8.80744854               84.47865358                0.52553134               -0.01544906               -0.02660223                0.06606146               -0.03565809                0.28995035               -0.21083187
              19.27109086                8.28767515               84.05627645                0.00010000               -0.36916529               -0.12982597                0.38512611               -0.63978690                0.66488169               -1.03809353
              20.26447740                7.75649987               83.63938097                0.00010000               -0.38393759               -0.87985270                0.33040729               -1.54704266                1.06347409               -2.11319756
              21.26341210                7.22838288               83.22561149                0.00010000                0.12512147               -1.41306955                0.28129612               -1.70092156                1.34100428               -2.98200735
              22.26697983                6.69775057               82.81506664                0.00010000                0.74331967               -1.91352242                0.19124124               -1.99600526                1.76258674               -3.77829808
              23.27827850                6.16004314               82.41162034                0.00010000                1.62125775               -2.49084489               -0.11373962               -2.60565875                2.18739092               -4.39230902
              24.29940499                5.60752104               82.01636886                0.00010000                1.98504097               -2.63580494               -0.50780793               -3.75680593                2.94131952               -5.93033984
              25.31797932                5.04854771               81.63212943                0.00010000                1.55844916               -0.06781507               -1.64570243               -4.39720778                2.63608559               -7.56668410
              26.33057397                4.51613008               81.24201485                0.00010000                1.06277894                0.46935882               -1.90464795               -3.95764751                2.12992355              -11.61424619
              27.33923490                4.00923984               80.84030071                0.33529714                0.86609232                2.29635327               -1.89851791               -2.46009666                1.60841047              -12.57560655
              17.79124283               10.32761293               84.76438291                0.96444729                0.02733515                0.06147650               -0.26170641               -0.00434356                0.01201078                0.52424854
              18.79151618                9.80719873               84.33439117                0.42886780               -0.01619581               -0.04295304                0.11271362               -0.05195927                0.18847457               -0.35472055
              19.79091891                9.28605142               83.90782810                0.00010000               -0.50251471               -0.19187793                0.41300712               -0.82785621                0.62045384               -1.29581336
              20.78146588                8.75007044               83.48647289                0.00010000               -0.65320169               -0.50455328                0.06035937               -1.69403370                0.89184905               -2.14882152
              21.77785488                8.21693605               83.06808162                0.00010000               -0.03303532               -0.85379861               -0.31710644               -1.90550095                0.96636109               -2.98090820
              22.78080518                7.68212264               82.65232818                0.00010000                0.60602030               -1.11085028               -0.78570120               -2.47890642                0.94099634               -3.80169593
              23.78997528                7.14177810               82.23941482                0.00010000                1.05486430               -1.12268419               -1.34950537               -3.35082056                0.93871790               -4.74875895
              24.80190246                6.59644312               81.83008474                0.00010000                1.16102196               -0.41295403               -2.03733526               -4.06055828                0.89966888               -5.78681191
              25.81319572                6.05527101               81.42262390                0.00010000                1.03690516                0.84492226               -2.65856084               -3.62863554                0.94556820               -7.26878747
              26.82264057                5.52779279               81.01447886                0.00010000                0.87410302                1.26764319               -3.00905692               -2.11677182                0.66913777               -8.68318582
              27.83067778                5.01932621               80.59886886                0.33615732                0.80372155                0.99083232               -2.86297643               -1.03931485                0.60598146               -9.86625636
              18.31214135               11.32832896               84.62485662                0.96111359                0.02416801                0.07753962               -0.24828102               -0.00691905                0.00312580                0.49452015
              19.31238303               10.80658948               84.19084784                0.44433019               -0.02396641               -0.06867022                0.12981550               -0.06072585                0.05055788               -0.30528051
              20.31166202               10.28383759               83.75771077                0.00010000               -0.63354655               -0.22540737                0.47769127               -0.85480772                0.51874865               -1.26500390
              21.29971210                9.74640881               83.33301128                0.00010000               -0.92060685               -0.24560154               -0.13490161               -1.73991501                0.80230573               -2.05631965
              22.29324989                9.21130691               82.90998411                0.00010000               -0.35762232               -0.29804560               -0.75648656               -1.97240805                0.62592929               -2.77708284
              23.29255965                8.67553357               82.48806910                0.00010000                0.18458600               -0.26528664               -1.45343636               -2.49458648                0.35894995               -3.51305908
              24.29694161                8.13758946               82.06694247                0.00010000                0.60706283                0.02060158               -2.22798128               -3.04768177                0.08982579               -4.28441941
              25.30470091                7.59926196               81.64655379                0.00010000                0.85576623                0.61013308               -3.00699396               -3.17027969               -0.04317349               -5.14512790
              26.31405693                7.06544616               81.22695813                0.00010000                0.97412125                1.19618369               -3.65509699               -2.56197799               -0.04470502               -6.07753147
              27.32418334                6.54148294               80.80709723                0.00010000                1.06624152                1.43993489               -3.99534392               -1.36627946                0.01446041               -7.03631123
              28.33538176                6.02905648               80.38525651                0.33638079                1.11984255                1.11020136               -3.89990190               -0.50480917                0.15868224               -7.70804178
              18.83458340               12.32916372               84.48552096                0.96033325                0.02096221                0.08720760               -0.24745357               -0.00398520               -0.00119828                0.51699918
              19.83479302               11.80582533               84.04749618                0.48341791               -0.02899879               -0.07666709                0.13909113               -0.05376133                0.01337557               -0.28461364
              20.83400343               11.28154327               83.60971316                0.00010000               -0.77973784               -0.22544649                0.51009082               -0.71300183                0.45653124               -1.11088409
              21.81919827               10.74515841               83.18045823                0.00010000               -1.23607348               -0.00230040               -0.26866002               -1.50141936                0.70404972               -1.82649502
              22.80928196               10.21097514               82.75324190                0.00010000               -0.72836859                0.19316596               -1.06436343               -1.74407595                0.43527168               -2.40907986
              23.80463090                9.67681691               82.32617631                0.00010000               -0.19943534                0.41647775               -1.93288469               -2.14457300                0.00713098               -2.98022341
              24.80529325                9.14219013               81.89854514                0.00010000                0.30046394                0.74206600               -2.85717582               -2.44377082               -0.38796674               -3.58066004
              25.81064017                8.60864578               81.47056150                0.00010000                0.72209675                1.15216999               -3.75156882               -2.37726172               -0.60316611               -4.21786285
              26.81973518                8.07919469               81.04288018                0.00010000                1.05322384                1.50305714               -4.47676067               -1.82919768               -0.56667855               -4.88823678
              27.83170465                7.55659149               80.61610642                0.00010000                1.28496644                1.60356374               -4.86940753               -0.93715128               -0.32811345               -5.51842200
              28.84543451                7.04153024               80.19031626                0.33713870                1.37298626                1.37793506               -4.77976675               -0.33080308               -0.03364375               -5.99482231
              19.35873843               13.33007311               84.34635265                0.95997820                0.01898246                0.09160705               -0.25382172               -0.00070283               -0.00031274                0.53025215
              20.35892825               12.80505614               83.90433387                0.52257120               -0.03347610               -0.07292765                0.14588637               -0.03794550                0.01607566               -0.26689004
              21.35806891               12.27932866               83.46261361                0.00010000               -0.93382018               -0.21559842                0.53150315               -0.44438672                0.48728823               -1.04629714
              22.34025185               11.74636280               83.02992874                0.00010000               -1.56795171                0.24370780               -0.35905846               -1.01957229                0.72855127               -1.51219333
              23.32670987               11.21517023               82.59954581                0.00010000               -1.08993244                0.61555336               -1.27798532               -1.29489804                0.39161956               -1.91968379
              24.31845320               10.68386312               82.16869574                0.00010000               -0.52362775                0.91839601               -2.27390677               -1.65140211               -0.14888094               -2.31846288
              25.31623732               10.15243078               81.73646907                0.00010000                0.08489612                1.21168982               -3.32136418               -1.84113951               -0.64483879               -2.73963568
              26.32015112                9.62230536               81.30326502                0.00010000                0.66449752                1.50706986               -4.32486349               -1.72376192               -0.91145054               -3.18778583
              27.32952727                9.09550730               80.87032853                0.00010000                1.14768177                1.72829075               -5.13518592               -1.28205974               -0.85760357               -3.64498806
              28.34310476                8.57355421               80.43911485                0.00010000                1.46804688                1.77769500               -5.57629223               -0.64439157               -0.50674207               -4.06974308
              29.35888820                8.05661518               80.01061677                0.33747236                1.57834467                1.60535335               -5.47984218               -0.21270069               -0.13840275               -4.40783097
              19.88460329               14.33099586               84.20722697                0.95921539                0.01752694                0.09104141               -0.26363874                0.00282398                0.00978575                0.52455770
              20.88477856               13.80436678               83.76130252                0.57439503               -0.03971307               -0.06487868                0.15465555               -0.02323295                0.03355832               -0.26462895
              21.88380903               13.27723130               83.31584086                0.00010000               -1.09066514               -0.20176220                0.55300387               -0.05579522                0.64880340               -0.88599333
              22.86296526               12.75003257               82.88214378                0.00010000               -1.89626772                0.51889801               -0.41731345               -0.34034717                0.93917796               -1.13497613
              23.84588367               12.22328620               82.44997745                0.00010000               -1.43114780                1.00064249               -1.42054610               -0.77855385                0.48084843               -1.34396039
              24.83434230               11.69518483               82.01681456                0.00010000               -0.79277281                1.27631661               -2.51028299               -1.14328581               -0.17100128               -1.57599284
              25.83002822               11.16642393               81.58165220                0.00010000               -0.06269412                1.51768127               -3.65575848               -1.28325062               -0.75798905               -1.83531169
              26.83308842               10.63878718               81.14509433                0.00010000                0.64084600                1.73785760               -4.75301467               -1.16474197               -1.07719815               -2.11382678
              27.84284514               10.11376050               80.70879097                0.00010000                1.23102586                1.89261482               -5.63935841               -0.83371167               -1.02161082               -2.39941953
              28.85770893                9.59214539               80.27475159                0.00010000                1.61067122                1.91979147               -6.11873457               -0.39959029               -0.60958627               -2.66574544
              29.87505856                9.07363731               79.84447498                0.33839414                1.73496272                1.77111213               -6.00093728               -0.10962466               -0.19902202               -2.87719518
              20.41205307               15.33189394               84.06792628                0.95783578                0.01750749                0.09033752               -0.27698753                0.00430985                0.02228572                0.43316907
              21.41222815               14.80375856               83.61813867                0.47705145               -0.03829318               -0.06077919                0.17063269               -0.01203949                0.19717203               -0.26016607
              22.41128721               14.27529342               83.17184844                0.00010000               -1.24190725               -0.19164951                0.55454783                0.47099119                0.97936701               -0.68248000
              23.38739000               13.75674076               82.73769290                0.00010000               -2.26503386                0.96859369               -0.45324997                0.22243590                1.23319416               -0.64365271
              24.36598653               13.23518308               82.30529393                0.00010000               -1.74701223                1.26834901               -1.51133652               -0.31934040                0.65414724               -0.69105585
              25.35244976               12.70938945               81.87113789                0.00010000               -0.95082905                1.49253542               -2.66496410               -0.63756107               -0.12000799               -0.79432659
              26.34696995               12.18278441               81.43443648                0.00010000               -0.14650250                1.70117865               -3.88370444               -0.70393238               -0.79421289               -0.91397653
              27.34951971               11.65706251               80.99598601                0.00010000                0.62624335                1.88860800               -5.05801786               -0.61869820               -1.16669709               -1.04367421
              28.35949482               11.13335959               80.55772613                0.00010000                1.28582185                2.01459916               -6.01344852               -0.42217850               -1.12373280               -1.17949827
              29.37523615               10.61195004               80.12202217                0.00010000                1.71085306                2.03280333               -6.53065121               -0.18750653               -0.68019770               -1.31082462
              30.39371188               10.09203743               79.69072469                0.33877850                1.84757344                1.89902457               -6.38175636               -0.01818962               -0.24452012               -1.41034819
              20.94096023               16.33280261               83.92698778                0.97853562                0.01780520                0.09086740               -0.28697995               -0.07442575                0.21164238                0.34907514
              21.94113829               15.80315119               83.47514128                0.69110782               -0.03567897               -0.06073699                0.17922988               -0.07920109                0.49676781               -0.24924432
              22.94024666               15.27339831               83.02901261                0.31927216               -1.68069855               -0.18951054                0.55471830                1.20860686                1.52763021               -0.61522625
              23.90752432               14.76940444               82.59787553                0.30881707               -2.66992415                1.26636811               -0.49085180                0.77617472                1.59224876               -0.23058949
              24.88684817               14.24865318               82.16594602                0.30767957               -1.67672825                1.34701072               -1.57159193               -0.13228136                0.81076972               -0.27597312
              25.87398975               13.72503554               81.73186079                0.30845917               -0.92858317                1.56460827               -2.75962843               -0.25628503               -0.05066672               -0.32484521
              26.86827651               13.20044750               81.29477062                0.31106471               -0.19252429                1.76630958               -4.02671174               -0.29315422               -0.80481218               -0.37600702
              27.87013926               12.67655934               80.85560803                0.31539193                0.56187648                1.94968240               -5.26215346               -0.25779529               -1.22572783               -0.42405038
              28.87951404               12.15405249               80.41653626                0.32226410                1.25708543                2.06928902               -6.28620684               -0.18597208               -1.19065818               -0.47307001
              29.89528097               11.63280146               79.98016771                0.33145231                1.75029837                2.08514151               -6.86927654               -0.11725160               -0.72165170               -0.52329878
              30.91452001               11.11161780               79.54852739                0.66961100                1.92390324                1.95803729               -6.72866447               -0.03755351               -0.26483088               -0.56271664
              16.12776486                6.46960018               86.31288985                0.99151765                0.03119033                0.08139554               -0.29841780                0.06799864               -0.46272950                0.47944964
              17.12807676                5.94834746               85.89800860                0.97143957               -0.03092009               -0.01114736                0.03256105                0.07506295               -0.61132281                0.06700477
              18.12714646                5.42668024               85.48009100                0.99357898               -0.14272478               -0.08671058                0.33961581                0.06893787               -0.66633458               -0.02742562
              19.12522227                4.90390948               85.06405556                0.71436409               -0.25485442               -0.19829734                0.66391797               -0.00134416               -0.59276587               -0.23120945
              20.12204937                4.37909906               84.64749745                0.58867976               -0.35316272               -0.32990312                0.98695489               -0.00396016               -0.39719807               -0.18959363
              21.11815901                3.85205697               84.23499890                0.38784827               -0.43176509               -0.49826601                1.40743471               -0.05726503                0.21439608               -0.37247827
              22.11341407                3.32159187               83.82978107                0.08827955                0.26336717               -0.72982305                1.77894030               -0.13234701                2.61601390               -0.63349145
              23.12342636                2.78626521               83.46388808                0.00010000                0.56350833               -1.33642826                0.54601228               -2.30033436                5.18534754               -2.32598675
              24.12468423                2.22237537               83.10892000                0.00010000                2.85799326               -2.19026289               -0.16647461                2.17256858                8.26377458               -0.54843136
              25.18058622                1.64324979               82.77538256                1.00000000                3.04000836                0.60311098               -2.00399704               -1.79586516                3.30567425               -0.10685511
              26.18548440                1.10377128               82.37611978                1.00000000                0.48981799                0.32943836               -1.25128932                0.13501123               -0.00979260               -0.04147600
              16.64969756                7.47041413               86.17342453                0.98334148                0.05897945                0.06760799               -0.30754233                0.01906216               -0.05064986                0.64329470
              17.65028736                6.94823599               85.75854231                0.91906513                0.01786308               -0.01996132                0.02549187                0.02786120               -0.03289816                0.09349204
              18.65005483                6.42581314               85.34387638                0.96839604               -0.06439711               -0.09592818                0.32617470               -0.00087137                0.04151871               -0.17051967
              19.64899942                5.90192651               84.93019303                0.99953899               -0.10594016               -0.23670921                0.64133537               -0.03521436                0.22981733               -0.14610410
              20.64793602                5.37580003               84.51876982                1.00000000               -0.13297308               -0.36861615                0.96978712               -0.05804278                0.52706262               -0.12477399
              21.64633996                4.84707431               84.10963947                0.91305097               -0.14747734               -0.54532532                1.41614728               -0.12860291                1.12124645               -0.24907662
              22.64498648                4.31429364               83.70743168                0.63989857                0.18456540               -0.81555346                2.00698911               -0.35928239                2.83161377               -0.44906789
              23.65003126                3.77290093               83.32671245                0.28167736                3.64655766               -1.40480613                1.79545459               -2.13572413                6.69057321               -1.34696296
              24.71791763                3.20047274               82.99211924                0.34267329                3.59491767               -1.19506257               -0.63855525                0.84262130                7.32241903               -0.30332366
              25.72192962                2.64928090               82.63882304                1.00000000                0.41976985                0.59133258               -1.90794291               -0.38927379                2.31656466               -0.13529815
              26.72631303                2.10706566               82.24002089                1.00000000                0.43834096                0.29424658               -1.01967053                0.00115571                0.02862666               -0.03758023
              17.17250240                8.47095234               86.03720194                0.98504235                0.07325836                0.04857275               -0.31071996                0.00001764                0.07335028                0.76080344
              18.17323498                7.94794823               85.61949007                0.92285056                0.04680560               -0.02589549                0.02643192               -0.01133350                0.22148720                0.05661658
              19.17343851                7.42476168               85.20456346                0.00010000                0.06480532               -0.09313044                0.33552060               -0.16607463                0.79055636               -0.57427822
              20.17453109                6.89917530               84.79780385                0.00010000                0.11511005               -0.70060419                0.60819620               -0.67605592                1.27612918               -1.21009601
              21.17574071                6.37172674               84.39122246                0.13154361                0.12811258               -1.02048285                0.91073559               -0.94925670                1.50090575               -1.83209591
              22.17709334                5.84115046               83.98673987                0.20823585                0.23305443               -1.34054447                1.30806096               -1.15402120                2.16677903               -2.49462057
              23.18040180                5.30528081               83.58938218                0.17503831                0.87197169               -1.72490487                1.76478469               -1.46547161                3.84387092               -3.32801523
              24.19453277                4.75816909               83.21082751                0.00010000                4.23774435               -2.24250906                1.33657886               -2.04170657                6.39422847               -4.60129181
              25.26515669                4.19847412               82.86046701                0.00010000                3.58375269               -0.91880628                0.87297133               -4.74004255                6.79428041               -5.35333607
              26.26620783                3.65507644               82.50236345                0.13709479                0.23906534                0.22445972               -1.75986423               -3.18249496                2.04943576               -7.29305419
              27.26993799                3.10965621               82.10406497                0.46128949                0.37301661                1.52946730               -0.77623021               -3.11011064                0.03611876               -7.39861616
              17.69570613                9.47138559               85.90009556                0.97498118                0.05452188                0.04826171               -0.29740538               -0.01867540                0.15316416                0.65015440
              18.69625135                8.94771808               85.47920537                0.54876019               -0.00999282               -0.01927216                0.04526111               -0.04475275                0.24617341               -0.17416534
              19.69550627                8.42395053               85.06006440                0.00010000               -0.38690528               -0.11621520                0.36495749               -0.70209322                0.42222452               -0.99983024
              20.68851324                7.88791442               84.64261058                0.00010000               -0.42652746               -0.86147784                0.31413449               -1.74199845                0.60852019               -2.36094581
              21.68697572                7.35539037               84.22826233                0.00010000                0.05961115               -1.32589491                0.24187466               -2.04950343                0.81893283               -3.55629709
              22.68970546                6.82026342               83.81657323                0.00010000                0.58413478               -1.67180230                0.07904672               -2.51928187                1.07910844               -4.77606900
              23.69865842                6.27979555               83.40981147                0.00010000                1.31491761               -1.94382169               -0.30677600               -3.23310367                1.42938844               -6.13871753
              24.71600382                5.72805075               83.01029675                0.00010000                1.37755027               -1.73529182               -0.87141367               -3.78850489                1.41302769               -7.77017346
              25.72620942                5.18209662               82.61360584                0.00010000                1.55469065               -0.68308640               -1.69502532               -5.56359616                1.51097140               -9.91253026
              26.74709763                4.65377009               82.22262473                0.00010000                1.43709283                0.13005280               -2.07994680               -3.58597963                1.49081550              -12.59719575
              27.75495128                4.13765501               81.82063208                0.33150296                0.78536507                1.87693237               -2.12662143               -2.55908575                1.03915839              -14.09982005
              18.21946392               10.47191757               85.76165518                0.96536515                0.03110702                0.06489559               -0.27575993               -0.00762546                0.01191530                0.54043162
              19.21977499                9.94756279               85.33544324                0.46285833               -0.01318080               -0.03607847                0.09642597               -0.05985762                0.14849306               -0.31981329
              20.21920030                9.42243738               84.91191779                0.00010000               -0.57618549               -0.18153116                0.39596995               -0.86316313                0.22705809               -1.24043461
              21.20825128                8.88194574               84.48718491                0.00010000               -0.83993269               -0.44287569                0.09299418               -1.81012847                0.12859076               -2.31435825
              22.20240165                8.34520884               84.06501571                0.00010000               -0.29743739               -0.70903318               -0.28197147               -2.07651031                0.07360350               -3.39329139
              23.20230253                7.80771442               83.64433753                0.00010000                0.27753762               -0.82933031               -0.80734793               -2.67129896               -0.10279203               -4.52509206
              24.20795240                7.26640437               83.22539011                0.00010000                0.70795380               -0.72605510               -1.48322723               -3.35528518               -0.29790066               -5.74119152
              25.21646161                6.72346325               82.80860653                0.00010000                1.01065081               -0.03084620               -2.28201735               -3.80620056               -0.33425739               -7.02918446
              26.22816542                6.18481239               82.39488542                0.00010000                1.12341203                0.60199763               -3.00545458               -3.06609263               -0.11892539               -8.34416802
              27.23892985                5.65767750               81.98272263                0.00010000                1.14105196                0.78880905               -3.44691950               -2.08654954                0.09525025              -10.03315058
              28.25098645                5.14719486               81.56851798                0.33178912                1.20566087                0.88480844               -3.36352198               -0.94413272                0.37069444              -11.31672458
              18.74426318               11.47268350               85.62230456                0.96153006                0.02712062                0.08200332               -0.25576633               -0.01004683                0.00160619                0.50256494
              19.74453439               10.94699651               85.19208535                0.48128848               -0.02015617               -0.06508054                0.11542458               -0.06365238                0.03123536               -0.28954726
              20.74386006               10.42031991               84.76242182                0.00010000               -0.74975908               -0.21770225                0.45660959               -0.84997323                0.02435173               -1.20846942
              21.72953921                9.87905691               84.33193001                0.00010000               -1.20916110               -0.16480340               -0.06316649               -1.74995863               -0.20410868               -2.15505245
              22.71967684                9.34120971               83.90275820                0.00010000               -0.72276278               -0.14207790               -0.66104735               -1.97097936               -0.50913649               -3.05993036
              23.71508395                8.80367681               83.47362583                0.00010000               -0.19364800               -0.03917966               -1.41881217               -2.44591167               -0.94892142               -4.00122580
              24.71580388                8.26527444               83.04419651                0.00010000                0.31939153                0.26613854               -2.32830040               -2.89632945               -1.32002012               -4.99576397
              25.72147178                7.72743382               82.61532497                0.00010000                0.74347223                0.72841094               -3.28763484               -2.90819518               -1.41483505               -6.03473837
              26.73067332                7.19413657               82.18842891                0.00010000                1.07561956                1.17523901               -4.13530250               -2.37846573               -1.14483193               -7.14550721
              27.74298418                6.66954628               81.76458635                0.00010000                1.31802928                1.36182405               -4.65327656               -1.27213556               -0.60308423               -8.23203547
              28.75703391                6.15535118               81.34351078                0.33230679                1.40497344                1.06229478               -4.63599347               -0.51786219               -0.10303382               -8.99329806
              19.27063697               12.47355764               85.48301130                0.95995693                0.02285656                0.09012729               -0.24938733               -0.00634137               -0.00248956                0.51292985
              20.27086553               11.94626118               85.04883444                0.52215043               -0.02482667               -0.07354339                0.12580277               -0.05390449                0.00207208               -0.27163558
              21.27014043               11.41808333               84.61472491                0.00010000               -0.92516159               -0.21979452                0.48498304               -0.66673443               -0.10915607               -1.06846334
              22.25236230               10.87864967               84.17816838                0.00010000               -1.58891395                0.07870015               -0.16580335               -1.41819073               -0.46746803               -1.87836816
              23.23836216               10.34236728               83.74313051                0.00010000               -1.15213705                0.33339784               -0.92279065               -1.63321324               -0.88301601               -2.59110668
              24.22931956                9.80693082               83.30710255                0.00010000               -0.60466777                0.59642852               -1.85753508               -2.00457690               -1.48359050               -3.32276163
              25.22626880                9.27172714               82.86957377                0.00010000                0.00580077                0.91872383               -2.94442828               -2.26700612               -1.97504939               -4.09846976
              26.22943558                8.73803147               82.43171681                0.00010000                0.61074234                1.28928087               -4.07174807               -2.20005049               -2.11808291               -4.91399194
              27.23848365                8.20831717               81.99579262                0.00010000                1.14184766                1.59627903               -5.05565010               -1.69212144               -1.78951700               -5.73993428
              28.25227253                7.68491398               81.56425659                0.00010000                1.52678818                1.69630116               -5.67273877               -0.88250984               -1.02391677               -6.48767674
              29.26901941                7.16844075               81.13899639                0.33303152                1.67468816                1.50932061               -5.70122654               -0.30415227               -0.34047294               -6.98380592
              19.79872928               13.47448605               85.34380587                0.95928942                0.02013313                0.09257029               -0.25133603               -0.00252466               -0.00164116                0.51816907
              20.79893061               12.94552564               84.90574575                0.56258789               -0.02961977               -0.06920588                0.13323847               -0.03693618                0.00675069               -0.25083440
              21.79813688               12.41592402               84.46783883                0.00010000               -1.10195819               -0.20887868                0.50343353               -0.36267261               -0.13230761               -1.00136550
              22.77689144               11.88063091               84.02684532                0.00010000               -1.97027295                0.32018454               -0.22941656               -0.86922346               -0.56145941               -1.52963958
              23.75873142               11.34787767               83.58747001                0.00010000               -1.56294447                0.74447016               -1.09582838               -1.13249601               -1.06283786               -2.02852425
              24.74563256               10.81560538               83.14637325                0.00010000               -0.96841564                1.07788386               -2.16131849               -1.48873323               -1.79128345               -2.54680425
              25.73936311               10.28364892               82.70293031                0.00010000               -0.23759057                1.38177023               -3.39248212               -1.68456852               -2.38886194               -3.10559602
              26.74088074                9.75321944               82.25862941                0.00010000                0.52926380                1.67675872               -4.66258639               -1.58799331               -2.57898196               -3.69354921
              27.74994839                9.22606215               81.81642304                0.00010000                1.21648278                1.90367845               -5.77088837               -1.18997577               -2.20752387               -4.27113287
              28.76521040                8.70347230               81.37982620                0.00010000                1.69744665                1.97858878               -6.47175780               -0.60066756               -1.28061728               -4.76152429
              29.78389732                8.18553759               80.95184017                0.33357947                1.86869193                1.85367080               -6.51573985               -0.19677950               -0.48414744               -5.06937846
              20.32850729               14.47540904               85.20460289                0.95861190                0.01815504                0.09023409               -0.25765165                0.00155490                0.00817077                0.50649033
              21.32868884               13.94487706               84.76280589                0.61557907               -0.03627898               -0.06058336                0.14217963               -0.02155647                0.02225882               -0.24062163
              22.32778171               13.41390576               84.32128160                0.00010000               -1.28323289               -0.19266149                0.52348769                0.05702250               -0.01475769               -0.84353661
              23.30302418               12.88505336               83.87858994                0.00010000               -2.35219731                0.60378625               -0.26094768               -0.14503906               -0.43727081               -1.12649384
              24.28073776               12.35725668               83.43665520                0.00010000               -1.96252708                1.13520093               -1.19614200               -0.61092200               -1.07616059               -1.39685828
              25.26377364               11.82848850               82.99231259                0.00010000               -1.28871957                1.43264213               -2.35447105               -1.00120759               -1.93642872               -1.71057784
              26.25496337               11.29936255               82.54490359                0.00010000               -0.42555806                1.69250918               -3.69620456               -1.16223465               -2.64126977               -2.06356251
              27.25526248               10.77156664               82.09621710                0.00010000                0.47339497                1.93458446               -5.08285367               -1.07052179               -2.88680734               -2.43597769
              28.26443127               10.24639074               81.64977598                0.00010000                1.27606302                2.11828770               -6.29412823               -0.77442992               -2.49429760               -2.79520233
              29.28078374                9.72448575               81.20987392                0.00010000                1.82609852                2.18360380               -7.05677145               -0.37456912               -1.45683970               -3.08247064
              30.30095324                9.20551417               80.78027662                0.33388392                2.01695022                2.08703538               -7.09228354               -0.10127523               -0.58368161               -3.21959139
              20.85982434               15.47629073               85.06518728                0.95685399                0.01784242                0.08797690               -0.26783025                0.00378189                0.02583643                0.41276672
              21.86000277               14.94431397               84.61980570                0.51303595               -0.03616548               -0.05626860                0.15806160               -0.00977193                0.17058558               -0.23286051
              22.85910103               14.41207079               84.17731173                0.00010000               -1.46815146               -0.18018326                0.52560692                0.62184565                0.27518587               -0.64419767
              23.83063974               13.89270664               83.73390957                0.00010000               -2.80115938                1.10587147               -0.26572909                0.40213664               -0.19522411               -0.62552223
              24.80307784               13.37058168               83.29127296                0.00010000               -2.35685975                1.41349714               -1.23650186               -0.20163991               -0.97431778               -0.70827341
              25.78350254               12.84425823               82.84531726                0.00010000               -1.50187862                1.64781457               -2.45401560               -0.55528471               -1.98177481               -0.85375954
              26.77304027               12.31749910               82.39560628                0.00010000               -0.55302143                1.87740130               -3.87616745               -0.63707625               -2.79915340               -1.02070957
              27.77244211               11.79191113               81.94418876                0.00010000                0.42502023                2.09743126               -5.35614828               -0.57005229               -3.11331604               -1.19679374
              28.78154068               11.26842790               81.49501266                0.00010000                1.30767389                2.26416937               -6.65743845               -0.39686678               -2.72521876               -1.36608213
              29.79859559               10.74714437               81.05299596                0.00010000                1.91371555                2.32592122               -7.47570492               -0.18093984               -1.60798440               -1.49619244
              30.81981499               10.22727830               80.62268772                0.33445558                2.12193970                2.23639057               -7.48214371               -0.01804366               -0.67380492               -1.50604903
              21.39253644               16.47716858               84.92416244                0.97816019                0.01769030                0.08778542               -0.27583100               -0.07047938                0.20556515                0.32844165
              22.39271334               15.94375169               84.47690223                0.70704402               -0.03552411               -0.05622823                0.16724782               -0.07226667                0.44726956               -0.22203888
              23.39182596               15.41030209               84.03447212                0.31864973               -2.00786634               -0.17686935                0.52488521                1.44344774                0.78420247               -0.57244845
              24.35255602               14.90717079               83.59389526                0.30857091               -3.33362910                1.44641542               -0.25874542                0.95285481                0.14241602               -0.22534650
              25.32515338               14.38552663               83.15157333                0.30778669               -2.34027452                1.49449431               -1.23362257               -0.07874673               -0.85228599               -0.28906229
              26.30575053               13.86144479               82.70536586                0.30843164               -1.52922165                1.71865657               -2.47948628               -0.20600424               -1.98178946               -0.35343553
              27.29456894               13.33691057               82.25475448                0.31040789               -0.64089463                1.94114681               -3.95596487               -0.24360890               -2.91662688               -0.41656075
              28.29293263               12.81351527               81.80194639                0.31418531                0.33458732                2.16041404               -5.51236309               -0.21277006               -3.31147934               -0.47175504
              29.30126069               12.29167413               81.35118038                0.32019362                1.26909592                2.32462246               -6.90345870               -0.15355313               -2.95129481               -0.51805329
              30.31831455               11.77100418               80.90774085                0.32812554                1.95319188                2.38598043               -7.81063022               -0.09971133               -1.78643039               -0.54652829
              31.34032453               11.25024198               80.47698095                0.66735528                2.20099755                2.29636836               -7.83194492               -0.02526598               -0.80516847               -0.48657389
              16.53621825                6.61390470               87.30985387                0.99116155                0.03122065                0.07923035               -0.29235603                0.06530721               -0.48669350                0.47862921
              17.53653045                6.08852087               86.89823691                0.97407784               -0.02944058               -0.00694851                0.02039253                0.07221273               -0.65417441                0.06746217
              18.53562944                5.56265814               86.48333674                0.99217260               -0.13694580               -0.07476337                0.30981980                0.06461388               -0.71156386               -0.03448898
              19.53379154                5.03553042               86.07051212                0.70423541               -0.23540214               -0.18347329                0.61851478               -0.00754571               -0.62642817               -0.24222187
              20.53092139                4.50611452               85.65709848                0.59926571               -0.30180673               -0.31620211                0.90871047                0.00288788               -0.36615813               -0.17646521
              21.52775540                3.97412889               85.24880732                0.45109750               -0.33047400               -0.48222369                1.29040996               -0.01059797                0.34562079               -0.29274547
              22.52431191                3.43829339               84.84798174                0.23313919               -0.00000296               -0.69963300                1.70423182                0.00827170                2.12633914               -0.36429325
              23.52775534                2.89564289               84.47163385                0.02791496                2.60648623               -0.81670788                0.93482510               -0.79458218                4.06628864               -1.22349728
              24.57644164                2.32643276               84.11332386                0.20176957                2.40613234                0.45058172               -0.05540203               -2.51112815                6.12343203               -1.19261041
              25.57587799                1.77792229               83.75613186                1.00000000                0.20443138                0.54430319               -1.81628633               -0.29444667                1.73373191               -0.21625648
              26.58053027                1.23863434               83.36387351                1.00000000                0.46522740                0.34057674               -1.24898767                0.11723905               -0.05076577                0.02821823
              17.06225514                7.61469700               87.17029176                0.98191052                0.06207169                0.06544607               -0.30364608                0.01910979               -0.07785060                0.63799264
              18.06287586                7.08845139               86.75869074                0.91975944                0.02578281               -0.01604145                0.01025525                0.02781670               -0.08683408                0.09500594
              19.06277080                6.56191051               86.34694336                0.95483622               -0.04439850               -0.08418903                0.28627342               -0.00609017               -0.03005432               -0.16496342
              20.06198789                6.03369569               85.93630851                0.98095434               -0.05598804               -0.22411964                0.57072556               -0.03857482                0.16218906               -0.15643465
              21.06165104                5.50295250               85.52795106                0.99285854               -0.02139525               -0.35257527                0.84210782               -0.05521673                0.50370934               -0.11376344
              22.06155999                4.96930665               85.12303399                0.97803441                0.09932952               -0.52809844                1.20335965               -0.09247123                1.19201852               -0.19270506
              23.06363763                4.43129706               84.72604940                0.87717047                0.70899268               -0.78192458                1.58379067               -0.07470233                2.64555811               -0.27106639
              24.07573984                3.88747581               84.34546347                0.67307174                2.32765136               -1.10469047                1.39782346               -0.28854724                4.61321575               -0.72077995
              25.11019066                3.33093858               83.98347021                0.74434557                2.05464482                0.08206127               -0.66660386               -1.32267738                2.78502379               -0.01983164
              26.11683274                2.78336532               83.61969808                1.00000000                0.53999738                0.54102763               -1.76742741               -0.24500333                1.45893827               -0.24885818
              27.12099060                2.24204011               83.22999887                1.00000000                0.41578685                0.30906493               -1.04242209                0.01189409                0.14292780                0.05729579
              17.58909167                8.61521362               87.03403301                0.98388852                0.07816150                0.04761374               -0.30947536               -0.00193933                0.04192865                0.76492177
              18.58987329                8.08820004               86.61964470                0.91848252                0.05858309               -0.02196613                0.00889294               -0.01498893                0.16449819                0.07154183
              19.59026333                7.56097436               86.20771572                0.00010000                0.10523823               -0.07931436                0.29174299               -0.18963379                0.68295583               -0.54021900
              20.59197805                7.03104803               85.80345459                0.00010000                0.19713831               -0.68978983                0.51110437               -0.77246773                1.12503741               -1.31496721
              21.59420610                6.49906301               85.39954391                0.08592635                0.27916815               -0.97444034                0.73534136               -1.16520210                1.34816895               -2.07464791
              22.59756141                5.96356692               84.99846271                0.18562933                0.52213050               -1.23375580                1.00237354               -1.54776197                1.97154535               -2.93818201
              23.60464871                5.42265490               84.60445882                0.23538361                1.23907371               -1.50181018                1.20351537               -2.02563636                3.10738159               -3.99667251
              24.62234289                4.87354908               84.22248454                0.15102027                2.47249366               -1.65686279                0.82303585               -2.32247924                4.21595213               -5.22427825
              25.65409858                4.32807399               83.85369184                0.00010000                1.87667554               -0.75299409               -0.56469316               -2.95630647                1.88756699               -6.26737313
              26.65987640                3.78874284               83.48428458                0.14443871                0.46599963                0.02308316               -1.61293249               -2.33635204                1.07680107               -7.75288127
              27.66341857                3.24481564               83.09638048                0.44649305                0.35421764                1.03751562               -0.83985260               -2.24208227                0.14252792               -8.14702297
              18.11624351                9.61564928               86.89707017                0.97474978                0.05718368                0.04994719               -0.29645691               -0.02305408                0.12232210                0.66885273
              19.11681534                9.08801207               86.47955880                0.57317048               -0.00566837               -0.01387756                0.02733558               -0.04874599                0.19792593               -0.13422108
              20.11613014                8.56032422               86.06357560                0.00010000               -0.41827312               -0.10445244                0.33001165               -0.73285542                0.18616050               -0.95634412
              21.10844988                8.01989989               85.64566366                0.00010000               -0.51510154               -0.82920920                0.31341998               -1.89493986                0.13501718               -2.51182604
              22.10582811                7.48346369               85.23044899                0.00010000               -0.07185121               -1.22443340                0.22162714               -2.36500634                0.18227579               -3.96325964
              23.10701286                6.94463153               84.81664758                0.00010000                0.36573168               -1.44993590               -0.03084391               -3.06946527                0.15965331               -5.54085028
              24.11314274                6.40126086               84.40548481                0.00010000                0.84291573               -1.50428356               -0.51471351               -3.75967116                0.17446669               -7.34302418
              25.12387117                5.85433855               83.99894059                0.00010000                1.13640123               -1.13589302               -1.22822941               -4.10015217                0.12942498               -9.12813278
              26.13587077                5.31587870               83.59822893                0.00010000                1.47464364               -0.72546991               -1.82618918               -4.39545172                0.58424348              -11.45250438
              27.15336405                4.78382698               83.20041591                0.00010000                1.40662988               -0.17873369               -2.49642815               -3.10258356                0.24749356              -14.16177953
              28.16400336                4.26279042               82.79776828                0.32776097                1.06393199                1.26486939               -2.60757205               -1.94953716                0.36728317              -15.95945189
              18.64390501               10.61621256               86.75886771                0.96533547                0.03184141                0.06874256               -0.27301264               -0.01058707                0.01032759                0.56487369
              19.64422342               10.08792249               86.33631969                0.49979863               -0.00933067               -0.03023654                0.07800594               -0.06260579                0.10825873               -0.28334388
              20.64371840                9.55888531               85.91574750                0.00010000               -0.66418223               -0.17315635                0.36165139               -0.86421964               -0.12643830               -1.18779129
              21.63093978                9.01446385               85.48833278                0.00010000               -1.07720333               -0.37878014                0.16718791               -1.87336518               -0.59070132               -2.39599507
              22.62217433                8.47457435               85.06244219                0.00010000               -0.62824209               -0.57350922               -0.18496282               -2.21762085               -0.86690664               -3.66949510
              23.61837494                7.93456820               84.63618122                0.00010000               -0.12130318               -0.59437495               -0.77700982               -2.84375265               -1.31057308               -5.05988996
              24.61974827                7.39256923               84.20975028                0.00010000                0.36735354               -0.38851689               -1.60800986               -3.40188291               -1.70093766               -6.54813624
              25.62572201                6.85083122               83.78444440                0.00010000                0.84764263                0.05591813               -2.56768454               -3.53520017               -1.72664938               -8.15391931
              26.63670112                6.31356459               83.36251481                0.00010000                1.25954982                0.28750575               -3.49348533               -2.98174554               -1.34020412               -9.92458503
              27.65091300                5.78516817               82.94554047                0.00010000                1.48999201                0.57406449               -4.15133786               -1.98879132               -0.60364486              -11.78863442
              28.66650096                5.27011302               82.53159843                0.32813569                1.55879542                0.79608508               -4.23593470               -0.93207098               -0.03087777              -13.23304744
              19.17261191               11.61702413               86.61974129                0.96125050                0.02785766                0.08542188               -0.25039201               -0.01256241               -0.00039414                0.51879447
              20.17289048               11.08740734               86.19315633                0.52137712               -0.01537551               -0.05951384                0.09715370               -0.06327981                0.01269014               -0.27298504
              21.17230440               10.55686109               85.76684296                0.00010000               -0.87984699               -0.20641595                0.41823470               -0.81575410               -0.40274200               -1.15719017
              22.15529354               10.01232429               85.33174795                0.00010000               -1.54665288               -0.08940529                0.06597470               -1.71820290               -1.11482971               -2.19108410
              23.14137134                9.47199351               84.89676316                0.00010000               -1.15753120               -0.00665749               -0.48004395               -1.95335557               -1.65451257               -3.24433531
              24.13214292                8.93274404               84.45969286                0.00010000               -0.62646355                0.15230259               -1.31619640               -2.41810493               -2.37165052               -4.39383666
              25.12884207                8.39349052               84.02037646                0.00010000                0.00144473                0.44588550               -2.41542656               -2.79286959               -2.92433979               -5.65533780
              26.13217181                7.85545692               83.58080109                0.00010000                0.65284215                0.81151421               -3.65073686               -2.77620269               -3.02030924               -6.99460463
              27.14189891                7.32162881               83.14425208                0.00010000                1.24339846                1.14186418               -4.81511404               -2.27223462               -2.48256129               -8.39289489
              28.15703978                6.79530827               82.71403170                0.00010000                1.67866589                1.32149680               -5.63731760               -1.29035742               -1.39032594               -9.74055042
              29.17547223                6.27871212               82.29253664                0.32848503                1.84324453                1.17058508               -5.81225889               -0.52739033               -0.43746208              -10.65359989
              19.70288735               12.61792100               86.48053322                0.95952028                0.02335173                0.09103865               -0.24127447               -0.00818055               -0.00395871                0.51603737
              20.70312086               12.08673222               86.05001223                0.56152350               -0.02004941               -0.06696679                0.10793045               -0.05120920               -0.00822816               -0.25801426
              21.70248636               11.55475699               85.61941283                0.00010000               -1.08387794               -0.20582150                0.44477714               -0.60188447               -0.58591995               -1.03362248
              22.68144331               11.01267574               85.17714216                0.00010000               -1.98994430                0.15120789                0.00525446               -1.31089279               -1.50445614               -1.88579531
              23.66268747               10.47444120               84.73478609                0.00010000               -1.64637415                0.45407718               -0.68108852               -1.52538227               -2.18565728               -2.71120674
              24.64851582                9.93761425               84.28902561                0.00010000               -1.07547397                0.74864801               -1.70319776               -1.89649682               -3.08764601               -3.61620456
              25.64117799                9.40148694               83.83965657                0.00010000               -0.32280780                1.07492580               -3.02377227               -2.15954471               -3.78388327               -4.61375590
              26.64205967                8.86706150               83.38912654                0.00010000                0.51135384                1.42385894               -4.49454128               -2.10890664               -3.92053230               -5.68042888
              27.65140507                8.33640187               82.94176718                0.00010000                1.29814407                1.72362339               -5.87532240               -1.65911604               -3.29665382               -6.75148140
              28.66802255                7.81159810               82.50265164                0.00010000                1.88701931                1.86990634               -6.86036844               -0.89208255               -1.90572523               -7.68663105
              29.68914546                7.29352473               82.07629173                0.32916467                2.11229088                1.76176283               -7.12083965               -0.32208301               -0.73639538               -8.26457596
              20.23482586               13.61884490               86.34132593                0.95850219                0.02044461                0.09116296               -0.24078343               -0.00402144               -0.00326389                0.51207376
              21.23503031               13.08606800               85.90699864                0.60260688               -0.02513398               -0.06189128                0.11544704               -0.03380366               -0.00290290               -0.23470499
              22.23432318               12.55274466               85.47268228                0.00010000               -1.28194136               -0.19346595                0.46000994               -0.27380459               -0.64442220               -0.96293227
              23.20939148               12.01534845               85.02534041                0.00010000               -2.41990015                0.38813504               -0.02251903               -0.71333391               -1.68273872               -1.51868545
              24.18592518               11.48107505               84.57762924                0.00010000               -2.11121229                0.85524451               -0.80084742               -0.98405537               -2.48342875               -2.09998160
              25.16716724               10.94771700               84.12546937                0.00010000               -1.48606290                1.22075033               -1.96023688               -1.36182495               -3.54581992               -2.75039578
              26.15620392               10.41498904               83.66861942                0.00010000               -0.60442426                1.54948824               -3.45416485               -1.58312919               -4.37071751               -3.47914987
              27.15507875                9.88393409               83.21001330                0.00010000                0.39880339                1.87233817               -5.11498293               -1.52337731               -4.55972004               -4.25427090
              28.16417999                9.35610128               82.75491076                0.00010000                1.34982630                2.14324787               -6.67372705               -1.16652010               -3.86725606               -5.00506858
              29.18207528                8.83270640               82.30967969                0.00010000                2.04986640                2.28640630               -7.79108350               -0.60524766               -2.25748355               -5.61256595
              30.20517732                8.31394738               81.88030198                0.32974614                2.31020413                2.24366012               -8.10302367               -0.20419924               -0.92550029               -5.92846467
              20.76836072               14.61974426               86.20207394                0.95757939                0.01843095                0.08724121               -0.24498055                0.00036843                0.00594471                0.49355392
              21.76854503               14.08549439               85.76414611                0.65534375               -0.03154517               -0.05314970                0.12360931               -0.01857438                0.01060608               -0.21759011
              22.76772982               13.55088767               85.32631062                0.00010000               -1.48493964               -0.17628583                0.47629696                0.16539636               -0.55240441               -0.80496915
              23.73884624               13.02043844               84.87692482                0.00010000               -2.85460000                0.67882760               -0.01798342                0.03956114               -1.61211497               -1.10206940
              24.71063782               12.49154609               84.42605461                0.00010000               -2.57404518                1.25122135               -0.84499785               -0.46209403               -2.57939610               -1.42951884
              25.68736533               11.96202926               83.96972514                0.00010000               -1.86697537                1.57719935               -2.09630122               -0.88778328               -3.80804424               -1.83341265
              26.67329831               11.43247671               83.50772811                0.00010000               -0.84427271                1.87651420               -3.71849124               -1.08047664               -4.77008249               -2.29844142
              27.67047988               10.90450827               83.04343726                0.00010000                0.30020271                2.17316274               -5.52718568               -1.02208132               -5.02672799               -2.79128036
              28.67930237               10.37926683               82.58290840                0.00010000                1.37958086                2.42661350               -7.22664964               -0.75893882               -4.29565167               -3.25488252
              29.69807150                9.85732623               82.13361616                0.00010000                2.16385758                2.57264308               -8.44027039               -0.37713893               -2.51897643               -3.58987522
              30.72257952                9.33839793               81.70262931                0.33002081                2.45080190                2.56323694               -8.76637854               -0.10908349               -1.07114627               -3.66529990
              21.30333297               15.62058973               86.06256967                0.95599100                0.01824407                0.08384336               -0.25313957                0.00308949                0.02832730                0.39658809
              22.30351541               15.08500501               85.62129991                0.54654792               -0.03229541               -0.04885221                0.13777168               -0.00709072                0.14524130               -0.20740814
              23.30268706               14.54921894               85.18236058                0.00010000               -1.69955599               -0.16295503                0.47798425                0.75639287               -0.28160312               -0.61027008
              24.26952429               14.02892500               84.73237832                0.00010000               -3.37972897                1.22438445                0.02003376                0.56528589               -1.38529616               -0.59855001
              25.23509248               13.50609948               84.28056390                0.00010000               -3.05216703                1.53625592               -0.81525370               -0.09849962               -2.52330268               -0.71871314
              26.20848095               12.97926098               83.82205758                0.00010000               -2.14885496                1.79201802               -2.11886912               -0.48863390               -3.94110620               -0.90952407
              27.19211538               12.45251932               83.35691314                0.00010000               -1.03169738                2.06715862               -3.83072084               -0.58992475               -5.05684532               -1.13068142
              28.18784700               11.92739735               82.88886305                0.00010000                0.20339349                2.35503633               -5.75460513               -0.54409397               -5.40936747               -1.36374452
              29.19618325               11.40463355               82.42457736                0.00010000                1.37771982                2.60445759               -7.57264727               -0.39233891               -4.67912052               -1.57902784
              30.21540140               10.88415926               81.97250808                0.00010000                2.23344972                2.75274371               -8.86751624               -0.18705682               -2.76722266               -1.71780174
              31.24085225               10.36521211               81.54108181                0.33051302                2.54508480                2.74509665               -9.17205531               -0.02686874               -1.21624938               -1.62855157
              21.83959195               16.62142113               85.92147116                0.97764737                0.01820463                0.08314022               -0.26056668               -0.06447978                0.20083885                0.31152584
              22.83977400               16.08451735               85.47848624                0.72202864               -0.03271353               -0.04876583                0.14565025               -0.06376901                0.40204926               -0.19746360
              23.83893768               15.54762857               85.03951032                0.31767381               -2.32512873               -0.15903735                0.47582263                1.64550113                0.21820057               -0.53564815
              24.79327142               15.04492613               84.59270063                0.30858074               -4.03029187                1.60011294                0.09295959                1.10684501               -1.00842675               -0.23275504
              25.75833184               14.52227120               84.14127357                0.30789726               -3.10493062                1.61717270               -0.71820636               -0.02888932               -2.40569542               -0.31601925
              26.73117281               13.99786962               83.68227107                0.30818988               -2.24841971                1.86086365               -2.03993035               -0.15338011               -4.00568774               -0.39482190
              27.71336345               13.47381988               83.21565132                0.30997648               -1.18445176                2.13005558               -3.81267512               -0.18822461               -5.29844739               -0.46819903
              28.70748378               12.95160899               82.74536077                0.31335493                0.06651137                2.42116430               -5.83212689               -0.15951753               -5.78023692               -0.52889513
              29.71469368               12.43135598               82.27846709                0.31803015                1.31340099                2.67224318               -7.76704828               -0.11035207               -5.10797418               -0.57018818
              30.73375180               11.91238110               81.82395510                0.32494577                2.26213778                2.82218418               -9.18059586               -0.06776624               -3.12257418               -0.57200341
              31.75993643               11.39329986               81.39188849                0.66548239                2.61846368                2.80877466               -9.50999098                0.00029457               -1.49339005               -0.38546483
              16.94126491                6.75829698               88.30704273                0.98925529                0.02454909                0.06978592               -0.25464039                0.05697257               -0.50628571                0.47458824
              17.94151040                6.22878903               87.89841645                0.97550656               -0.03124705               -0.00607232                0.02285962                0.06288037               -0.69072055                0.06692496
              18.94063997                5.69877723               87.48628740                0.99065269               -0.12892189               -0.06423435                0.28251490                0.05376175               -0.74886840               -0.04416194
              19.93893197                5.16747226               87.07642585                0.69365674               -0.21044830               -0.16169172                0.55832687               -0.01527944               -0.66530162               -0.26040654
              20.93643101                4.63386459               86.66567166                0.60823999               -0.23719025               -0.27852579                0.79207081               -0.00080580               -0.38599783               -0.17759047
              21.93418816                4.09774871               86.26080710                0.50667371               -0.16583469               -0.41838919                1.07460687                0.00468858                0.37161639               -0.25073515
              22.93311431                3.55817070               85.86386571                0.37209616                0.26109248               -0.57754618                1.33849912                0.05475121                1.70721797               -0.32585717
              23.93941001                3.01413603               85.48258458                0.25944521                1.47702798               -0.65013879                0.81103171               -0.45053586                2.84680755               -0.75377865
              24.96265487                2.45823047               85.10781196                0.47975141                1.26506027                0.14776575               -0.41615829               -1.44432882                1.42272193                0.19537297
              25.96471122                1.91179221               84.73905683                1.00000000                0.31654575                0.43588027               -1.57142626               -0.32042669                0.93695897               -0.23984208
              26.96898579                1.37208492               84.35114003                1.00000000                0.42745707                0.36196839               -1.30417035               -0.01230648               -0.05841853                0.02768450
              17.47134259                7.75899484               88.16735160                0.97805174                0.05564943                0.05876930               -0.26983154                0.01598108               -0.10504531                0.62998050
              18.47189908                7.22872831               87.75874741                0.91998349                0.02466942               -0.01390124                0.00777431                0.02359429               -0.14299015                0.09574968
              19.47183598                6.69813489               87.34960185                0.94390053               -0.03317944               -0.07260900                0.24816871               -0.01125974               -0.11365468               -0.16098900
              20.47123549                6.16585534               86.94160754                0.96678238               -0.02756256               -0.19757309                0.48588405               -0.03919363                0.05362483               -0.17462033
              21.47128472                5.63107933               86.53561197                0.96818597                0.04232483               -0.30643675                0.68703897               -0.05127828                0.36850716               -0.10989802
              22.47208199                5.09356481               86.13370666                0.97971450                0.20917182               -0.44877342                0.92348817               -0.06314577                0.96850175               -0.15581611
              23.47546816                4.55239524               85.73910749                0.96605210                0.63963889               -0.61293832                1.05458017               -0.02584394                1.84556734               -0.21267847
              24.48487477                4.00763464               85.35466892                0.88771377                1.19576664               -0.69648138                0.67696161               -0.12391650                2.38935340               -0.48861611
              25.49938349                3.45970813               84.97878716                1.00000000                0.98524785                0.00687340               -0.37962958               -0.65152581                1.33808066               -0.03762061
              26.50457972                2.91615101               84.60347449                1.00000000                0.45932592                0.37543879               -1.32772247               -0.18297628                0.75341300               -0.25322964
              27.50857001                2.37570461               84.21917245                1.00000000                0.39902877                0.34307080               -1.16093285               -0.06409251                0.27604941                0.04495404
              18.00211760                8.75947237               88.03101243                0.98067136                0.07246439                0.04665542               -0.28155254               -0.00450065                0.00906710                0.76834637
              19.00284224                8.22851101               87.61966793                0.91446739                0.05850735               -0.01848227                0.00116965               -0.01709842                0.10175382                0.08685781
              20.00328774                7.69732505               87.21039832                0.00010000                0.11807050               -0.06715111                0.24562930               -0.18507792                0.54737413               -0.50113504
              21.00520365                7.16352080               86.80802594                0.00010000                0.22041121               -0.65278153                0.40573181               -0.82422441                0.89718626               -1.35027074
              22.00769597                6.62773585               86.40592929                0.00010000                0.32028421               -0.89262185                0.55475984               -1.31974809                1.03963545               -2.19882598
              23.01160933                6.08877324               86.00678734                0.09711114                0.54158173               -1.09184569                0.69625090               -1.80216023                1.44672259               -3.22153579
              24.01852760                5.54591194               85.61345249                0.14436781                0.90047285               -1.23758201                0.70937013               -2.20901262                1.93709896               -4.42542460
              25.02961879                5.00020641               85.22728823                0.09867921                1.12901914               -1.20532063                0.36974165               -2.32852793                2.02214933               -5.60751234
              26.04110799                4.45836794               84.84917314                0.00010000                0.77182113               -0.77422828               -0.37073771               -2.19349707                0.91098954               -7.04467085
              27.04505521                3.91930099               84.47010480                0.07579957                0.37443846               -0.34362016               -1.08365382               -1.57465894                0.48210853               -8.51538819
              28.04859675                3.37894634               84.08726792                0.42257661                0.35415400                0.37717082               -1.00713702               -1.08435523                0.26485428               -9.27275418
              18.53317529                9.75992795               87.89416643                0.97305794                0.05291341                0.05357780               -0.27352769               -0.02448327                0.09057645                0.69020798
              19.53370443                9.22835866               87.47975208                0.59954224               -0.00253334               -0.01063117                0.01406569               -0.04589763                0.14923825               -0.09322093
              20.53312463                8.69679187               87.06666463                0.00010000               -0.46821126               -0.09554294                0.28219772               -0.70941216               -0.00645793               -0.90926106
              21.52434020                8.15279971               86.64887898                0.00010000               -0.67436522               -0.77896251                0.36505729               -1.95130319               -0.28533698               -2.52390994
              22.51963732                7.61322689               86.23269487                0.00010000               -0.32387505               -1.11155477                0.28329949               -2.57763552               -0.49062906               -4.15546280
              23.51786270                7.07172790               85.81595635                0.00010000                0.01087092               -1.26509522               -0.03836047               -3.42048239               -0.85719378               -6.05309999
              24.51985474                6.52764360               85.39951720                0.00010000                0.39927517               -1.26809666               -0.61590129               -4.05284001               -1.14269224               -8.23540245
              25.52584821                5.98352823               84.98573216                0.00010000                0.82821144               -1.08410218               -1.40849376               -4.19373703               -1.16478758              -10.59749642
              26.53641897                5.44422356               84.57708206                0.00010000                1.33299716               -0.90352027               -2.31911914               -3.75461745               -0.82532750              -13.47458386
              27.55250815                4.90927861               84.17269617                0.00010000                1.55866189               -0.55059834               -3.10931589               -2.41287124               -0.64295460              -16.12295032
              28.56759221                4.38324802               83.76848064                0.32437352                1.50840591                0.44096048               -3.37799434               -1.12024710               -0.09927096              -18.33358276
              19.06476650               10.76054392               87.75619493                0.96479904                0.02938687                0.07329681               -0.25345224               -0.01205783                0.00750329                0.59406089
              20.06506037               10.22829838               87.33700336                0.53787049               -0.00540244               -0.02571977                0.05883910               -0.05738179                0.07054610               -0.24510507
              21.06465845                9.69541419               86.91915082                0.00010000               -0.76589054               -0.16405442                0.31378098               -0.81339291               -0.38941263               -1.13642012
              22.04974256                9.14794155               86.49052867                0.00010000               -1.37216919               -0.31869363                0.32281817               -1.84636133               -1.17295764               -2.37098344
              23.03721507                8.60550476               86.06131646                0.00010000               -1.04797898               -0.46238957                0.03695089               -2.27329292               -1.77893180               -3.79215683
              24.02878298                8.06347133               85.62879733                0.00010000               -0.57722990               -0.43861073               -0.62447403               -2.93899027               -2.59742389               -5.44692118
              25.02567047                7.52055000               85.19322991                0.00010000                0.01905544               -0.26911027               -1.64187033               -3.42964301               -3.23179018               -7.33105218
              26.02916409                6.97852436               84.75725284                0.00010000                0.72973932               -0.03343244               -2.87971227               -3.44553501               -3.31519095               -9.44500067
              27.04026526                6.44029754               84.32501571                0.00010000                1.43046219                0.14013676               -4.14271488               -2.94314109               -2.74382430              -11.74700536
              28.05777333                5.90828902               83.89969587                0.00010000                1.89938673                0.41727434               -5.18287048               -1.90735180               -1.53914047              -13.97439039
              29.07825299                5.38776555               83.48379929                0.32456710                2.04796594                0.71689273               -5.56388627               -0.86821829               -0.47014638              -15.57216815
              19.59742522               11.76139388               87.61729672                0.96058617                0.02613064                0.08749107               -0.23273326               -0.01329864               -0.00273046                0.54037023
              20.59768652               11.22784427               87.19402842                0.56243228               -0.01058050               -0.05198997                0.07686604               -0.05610584               -0.00429314               -0.25286152
              21.59721361               10.69351078               86.77078651                0.00010000               -1.01820554               -0.19213176                0.36650114               -0.73923887               -0.70606245               -1.10593550
              22.57732241               10.14642584               86.33324950                0.00010000               -1.92859634               -0.03001225                0.29500957               -1.61871609               -1.82747976               -2.14941915
              23.55864168                9.60397910               85.89315732                0.00010000               -1.66423799                0.08861558               -0.15224247               -1.89598313               -2.74308682               -3.32354964
              24.54403765                9.06295569               85.44730190                0.00010000               -1.12164130                0.26794440               -1.07938338               -2.39022628               -3.87906154               -4.71389720
              25.53620885                8.52226140               84.99588798                0.00010000               -0.34238386                0.53295265               -2.44156335               -2.76381833               -4.74156975               -6.32374860
              26.53718997                7.98285958               84.54231023                0.00010000                0.57913182                0.83431618               -4.07756936               -2.77424325               -4.91533284               -8.10241932
              27.54779149                7.44702630               84.09212663                0.00010000                1.48515633                1.11656664               -5.72417614               -2.32376352               -4.13715430               -9.95856110
              28.56689310                6.91762410               83.65184000                0.00010000                2.17416503                1.36221709               -7.02186078               -1.37901379               -2.39550751              -11.64614798
              29.59127479                6.39758588               83.22726560                0.32510792                2.43816887                1.38091731               -7.54624747               -0.56590522               -0.90218245              -12.77349526
              20.13159976               12.76229374               87.47818582                0.95873495                0.02215978                0.08964555               -0.22388487               -0.00884783               -0.00556733                0.52462874
              21.13182136               12.22725858               87.05099305                0.60332252               -0.01538289               -0.05733030                0.08772419               -0.04462554               -0.01653857               -0.24083832
              22.13129210               11.69157156               86.62362045                0.00010000               -1.24607236               -0.18715990                0.39164600               -0.51121092               -0.91388585               -0.99694203
              23.10689991               11.14734130               86.17827347                0.00010000               -2.42632726                0.20243502                0.28944009               -1.16635928               -2.29915143               -1.83945291
              24.08276556               10.60727707               85.72950874                0.00010000               -2.21018760                0.53152047               -0.27593309               -1.41094348               -3.40951088               -2.76395344
              25.06269616               10.06883022               85.27303859                0.00010000               -1.61376763                0.84711250               -1.40683017               -1.81898449               -4.78761731               -3.86969700
              26.05049021                9.53120906               84.80909832                0.00010000               -0.68909202                1.18664941               -3.04844930               -2.12117785               -5.83862111               -5.15706808
              27.04891432                8.99521069               84.34182599                0.00010000                0.42676326                1.54818604               -5.00655457               -2.11875774               -6.06881757               -6.57000468
              28.05902547                8.46262887               83.87828617                0.00010000                1.53595796                1.88966297               -6.96697303               -1.72659723               -5.16108826               -7.98891695
              29.07963348                7.93553336               83.42704922                0.00010000                2.39929297                2.13161809               -8.51738117               -0.97342828               -3.03417578               -9.21396916
              30.10701133                7.41538389               82.99657959                0.32537407                2.73778515                2.15224183               -9.18277852               -0.37154910               -1.24706553               -9.95048086
              20.66731858               13.76318680               87.33899021                0.95765015                0.01976188                0.08713186               -0.22299005               -0.00480896               -0.00497337                0.51142732
              21.66751620               13.22669766               86.90805469                0.64103455               -0.02059546               -0.05172954                0.09517622               -0.02881441               -0.01023685               -0.21654734
              22.66690667               12.68976758               86.47703903                0.00010000               -1.46132418               -0.17217412                0.40646380               -0.17801608               -0.98586109               -0.92698525
              23.63828971               12.15047454               86.02639494                0.00010000               -2.89863896                0.43163825                0.30820183               -0.55100473               -2.52260489               -1.47353948
              24.60893389               11.61460951               85.57145306                0.00010000               -2.72818695                0.92272915               -0.32783947               -0.84963197               -3.80378587               -2.13164685
              25.58372597               11.07989794               85.10716851                0.00010000               -2.07645293                1.32009059               -1.60586134               -1.26860146               -5.39388762               -2.93645416
              26.56740483               10.54599438               84.63384701                0.00010000               -1.01654832                1.69454748               -3.45939911               -1.53576150               -6.61546652               -3.88105896
              27.56339501               10.01382330               84.15632975                0.00010000                0.27660176                2.08403010               -5.66872833               -1.52707581               -6.91243013               -4.90811587
              28.57293687                9.48481956               83.68294850                0.00010000                1.56372508                2.44988087               -7.87939094               -1.21264890               -5.91058776               -5.90737857
              29.59466951                8.96025646               83.22400453                0.00010000                2.56029397                2.71632526               -9.63096104               -0.65695101               -3.49236113               -6.70474811
              30.62414275                8.44063071               82.78977970                0.32592091                2.94732361                2.80222203              -10.40432302               -0.23794019               -1.49092013               -7.09489645
              21.20448185               14.76403638               87.19970328                0.95648039                0.01824368                0.08192383               -0.22653430               -0.00064678                0.00337059                0.48605885
              22.20466429               14.22622399               86.76527807                0.69273332               -0.02634724               -0.04359921                0.10213673               -0.01539109                0.00058871               -0.19490350
              23.20395491               13.68812808               86.33080754                0.00010000               -1.68132006               -0.15509479                0.41986194                0.26169828               -0.89626442               -0.77114644
              24.17103789               13.15597407               85.87823027                0.00010000               -3.38026912                0.72426481                0.35970752                0.20221825               -2.46352260               -1.05972614
              25.13634952               12.62573165               85.41975524                0.00010000               -3.25493133                1.31894764               -0.29914372               -0.33716991               -3.95572371               -1.44382327
              26.10593926               12.09523203               84.95038656                0.00010000               -2.52499575                1.68119417               -1.66807356               -0.80132212               -5.76254270               -1.95266902
              27.08584961               11.56510001               84.47053377                0.00010000               -1.31958150                2.04839414               -3.67287589               -1.03238380               -7.16649361               -2.55653609
              28.07954763               11.03689129               83.98567338                0.00010000                0.12448646                2.44447102               -6.07140179               -1.01389973               -7.55423721               -3.20752018
              29.08833934               10.51162649               83.50524299                0.00010000                1.55678379                2.82345499               -8.47402293               -0.78275250               -6.49824598               -3.82006666
              30.11068331                9.98985987               83.04106851                0.00010000                2.65823421                3.10964688              -10.37225754               -0.40604863               -3.85081626               -4.24670078
              31.14150402                9.47142833               82.60494905                0.32624043                3.08207164                3.24086836              -11.19943956               -0.13316439               -1.68835558               -4.29143823
              21.74293042               15.76482527               87.06012449                0.95495156                0.01862624                0.07798722               -0.23389133                0.00210090                0.02983233                0.38513136
              22.74311668               15.22582568               86.62256113                0.57650627               -0.02699287               -0.03971206                0.11325462               -0.00543514                0.12371109               -0.18399763
              23.74239056               14.68666568               86.18687142                0.00010000               -1.91930901               -0.14192059                0.41970407                0.85774185               -0.61544048               -0.58182511
              24.70473050               14.16495984               85.73431024                0.00010000               -3.97290176                1.29485018                0.45545597                0.69545616               -2.20220346               -0.56252410
              25.66293253               13.64098847               85.27496789                0.00010000               -3.81996612                1.60276207               -0.17454555               -0.01592567               -3.90832896               -0.72676766
              26.62833118               13.11352182               84.80293988                0.00010000               -2.89173123                1.89446728               -1.58586841               -0.43532172               -5.96795612               -0.96874501
              27.60509790               12.58696227               84.31899186                0.00010000               -1.58703220                2.24851088               -3.69159130               -0.55742054               -7.58663899               -1.25436260
              28.59659053               12.06271272               83.82909666                0.00010000               -0.03923327                2.65253131               -6.23336944               -0.53545565               -8.11241889               -1.55988891
              29.60431324               11.54128866               83.34355972                0.00010000                1.50780771                3.04322147               -8.79243298               -0.40478937               -7.05993989               -1.84045978
              30.62674669               11.02244940               82.87564563                0.00010000                2.70146452                3.34050960              -10.80829333               -0.20411084               -4.21403783               -2.00575748
              31.65834253               10.50544808               82.43924662                0.32663718                3.15958373                3.47454961              -11.63121337               -0.04583548               -1.89975884               -1.81485413
              22.28252306               16.76559613               86.91895111                0.97720294                0.01921147                0.07708536               -0.24202386               -0.05737344                0.19745379                0.29875723
              23.28271517               16.22542975               86.47981524                0.73584196               -0.02737364               -0.03959253                0.11821514               -0.05547396                0.36390615               -0.17602931
              24.28197558               15.68528966               86.04398857                0.31621150               -2.60454719               -0.13760204                0.41539702                1.78056829               -0.08005587               -0.50709608
              25.23062423               15.18187107               85.59575445                0.30840731               -4.72532794                1.69112352                0.62364033                1.21423430               -1.69541279               -0.26238370
              26.18746903               14.65778689               85.13720920                0.30788801               -3.96826028                1.67984295                0.05856685                0.01616542               -3.74909732               -0.36852781
              27.15125902               14.13312138               84.66456726                0.30792673               -3.09793669                1.95995594               -1.35533668               -0.09304906               -6.08624179               -0.46054027
              28.12551029               13.61007022               84.17850098                0.30945721               -1.83734489                2.31079570               -3.52902409               -0.11773416               -7.97076585               -0.54206316
              29.11451213               13.08994191               83.68530385                0.31231676               -0.25017075                2.72291888               -6.18979026               -0.08680641               -8.69525032               -0.60657024
              30.12050688               12.57249092               83.19583942                0.31625673                1.39647711                3.12022561               -8.89932073               -0.04422853               -7.74340151               -0.64080160
              31.14244167               12.05667006               82.72412894                0.32196859                2.70415352                3.42206621              -11.07127597               -0.00908158               -4.79398997               -0.61141565
              32.17458995               11.54091933               82.28678113                0.66355872                3.21482803                3.54712461              -11.93387865                0.04966879               -2.36404043               -0.26749927
              17.34334509                6.90277871               89.30476106                0.98666587                0.01262788                0.05481976               -0.19101166                0.04362654               -0.51502331                0.46603102
              18.34347137                6.36919744               88.89869410                0.97549578               -0.03512156               -0.00825462                0.03813925                0.04780809               -0.70997097                0.06608675
              19.34264266                5.83514599               88.48898704                0.98891525               -0.11850648               -0.05661931                0.25957839                0.03756459               -0.76593577               -0.05232899
              20.34110124                5.29995891               88.08167865                0.68362100               -0.19112372               -0.13557119                0.48914770               -0.02829315               -0.69823755               -0.27910136
              21.33882019                4.76268208               87.67293989                0.61727590               -0.20537776               -0.21851759                0.66571141               -0.02200501               -0.45022284               -0.17625988
              22.33699369                4.22331506               87.27029945                0.55319913               -0.10706958               -0.31049738                0.83528822               -0.02538913                0.22554358               -0.21739283
              23.33667880                3.68129267               86.87475173                0.48624325                0.18757754               -0.38359578                0.89352204               -0.05502870                1.02797674               -0.29533965
              24.34074524                3.13639863               86.48785449                0.45604149                0.58725133               -0.33987982                0.41988801               -0.33494166                1.40888981               -0.45254308
              25.34842382                2.58838983               86.10500070                0.71145423                0.52719345                0.04351549               -0.23793228               -0.63313717                0.66902491                0.06480532
              26.35128911                2.04429013               85.72470333                1.00000000                0.33858411                0.29626248               -1.22319436               -0.24067270                0.44227752               -0.02757226
              27.35519551                1.50312318               85.33779010                1.00000000                0.39063978                0.36881172               -1.31452436               -0.12467900                0.05360467               -0.12255428
              17.87736262                7.90332690               89.16489513                0.97275515                0.04031875                0.04935088               -0.21083012                0.00964519               -0.12629798                0.61831645
              18.87776581                7.36911490               88.75884623                0.91938625                0.01374757               -0.01324564                0.01745090                0.01519961               -0.18893622                0.09623976
              19.87763757                6.83457980               88.35190673                0.93603711               -0.03577727               -0.06285574                0.21758806               -0.01507766               -0.19011739               -0.15681945
              20.87705027                6.29860320               87.94602619                0.96236512               -0.03577560               -0.15938639                0.40288476               -0.03966633               -0.06506054               -0.19282544
              21.87692206                5.76049691               87.54169184                0.95348969                0.01921178               -0.23392420                0.54132373               -0.04879494                0.18174982               -0.10248876
              22.87743450                5.22021009               87.14150376                0.96450624                0.13323297               -0.32142718                0.66969992               -0.05306046                0.61626671               -0.12247190
              23.87958672                4.67745671               86.74714100                0.98369841                0.32063714               -0.37779846                0.64561221               -0.04996222                1.05248484               -0.15407453
              24.88384724                4.13299984               86.35900270                0.99463620                0.42799897               -0.30315238                0.32467738               -0.11558782                1.17534483               -0.20847218
              25.88814670                3.58882498               85.97587762                1.00000000                0.38342302                0.02479199               -0.26813765               -0.23345492                0.78731923               -0.01281904
              26.89151570                3.04725276               85.59314363                1.00000000                0.34844830                0.24616312               -0.89613340               -0.09394976                0.46039803               -0.09238902
              27.89511567                2.50681130               85.20678021                1.00000000                0.35999633                0.34645919               -1.19830279               -0.08444986                0.21379186               -0.11083741
              18.41196201                8.90376572               89.02840196                0.97634311                0.05604565                0.04720199               -0.23062743               -0.00726449               -0.01913551                0.76842950
              19.41252247                8.36893253               88.61966810                0.91034612                0.04453971               -0.01513374                0.00365142               -0.01703780                0.04532508                0.10058955
              20.41285281                7.83388888               88.21262831                0.00010000                0.09341685               -0.05966492                0.20479469               -0.14624183                0.41128745               -0.46245793
              21.41439081                7.29677118               87.81156922                0.00010000                0.16922964               -0.58421186                0.31500617               -0.81113190                0.65275596               -1.28746370
              22.41623740                6.75800360               87.41063910                0.00010000                0.22909313               -0.77648182                0.41345712               -1.39342872                0.70273662               -2.18076949
              23.41897267                6.21688652               87.01238773                0.00010000                0.33262005               -0.93252701                0.47998840               -1.93273736                0.90741075               -3.36167840
              24.42288980                5.67373670               86.61864622                0.00010000                0.40462717               -1.03406658                0.42711831               -2.28122838                1.06992179               -4.80411250
              25.42706521                5.13033559               86.22987937                0.00010000                0.33060001               -1.02879115                0.20657098               -2.28438582                1.02877296               -6.39176581
              26.42950180                4.58888567               85.84627709                0.00010000                0.21792921               -0.91402653               -0.26143853               -1.84343389                0.71441240               -8.18840792
              27.43142380                4.04921340               85.46261150                0.00010000                0.24438130               -0.77379269               -0.66410717               -1.06213178                0.43640548               -9.80756799
              28.43438943                3.51005236               85.07623774                0.40151560                0.29656303               -0.36119551               -1.05554796               -0.14943636                0.23698389              -10.87583571
              18.94688372                9.90427094               88.89159961                0.97065114                0.04181795                0.05988816               -0.23162765               -0.02206249                0.06176497                0.70967330
              19.94730190                9.36881222               88.47984012                0.62805277               -0.00048183               -0.00942369                0.00668238               -0.03642322                0.10503148               -0.05455874
              20.94687409                8.83338650               88.06921956                0.00010000               -0.52944987               -0.09269242                0.22591452               -0.61706203               -0.10328422               -0.86013083
              21.93671291                8.28691896               87.65296481                0.00010000               -0.89679663               -0.70487646                0.50147026               -1.87475229               -0.54182957               -2.35354068
              22.92893815                7.74496727               87.23611498                0.00010000               -0.68331281               -0.98674222                0.47313415               -2.66348921               -1.07796907               -4.09892189
              23.92304665                7.20155954               86.81588037                0.00010000               -0.42125350               -1.13011437                0.09697212               -3.63257779               -1.81094914               -6.34972951
              24.92051308                6.65677538               86.39316679                0.00010000               -0.00180431               -1.20796465               -0.61067122               -4.26841905               -2.36334849               -9.12967576
              25.92301056                6.11242401               85.97077071                0.00010000                0.59435651               -1.24912220               -1.60064915               -4.28318763               -2.48431984              -12.33550501
              26.93240021                5.57054445               85.55184654                0.00010000                1.30479049               -1.26528778               -2.77234887               -3.53836533               -2.11975750              -15.84349926
              27.94910637                5.03177690               85.13822959                0.00010000                1.90243943               -1.13384329               -3.84363761               -2.05171237               -1.38419356              -18.96370590
              28.97044900                4.49958739               84.73020839                0.32095685                2.13426300               -0.50838315               -4.41235976               -0.49386341               -0.35085475              -21.38986346
              19.48243821               10.90496349               88.75379866                0.96344408                0.02402405                0.07848489               -0.21966007               -0.01143447                0.00406905                0.62276449
              20.48267845               10.36874406               88.33749648                0.57893028               -0.00166904               -0.02259021                0.04109975               -0.04577673                0.03896240               -0.20524585
              21.48240483                9.83203503               87.92202312                0.00010000               -0.86817296               -0.15568736                0.25812657               -0.69912140               -0.49475463               -1.08061770
              22.46531499                9.28267365               87.49478914                0.00010000               -1.70388986               -0.26639256                0.59822431               -1.70530223               -1.49046050               -2.21372210
              23.44832703                8.73826875               87.06318121                0.00010000               -1.54009948               -0.38185187                0.43539028               -2.24351872               -2.56116442               -3.74297719
              24.43451300                8.19428423               86.62369174                0.00010000               -1.08350390               -0.36673545               -0.30279529               -2.99534807               -3.88039057               -5.72864365
              25.42665695                7.64957741               86.17691287                0.00010000               -0.34403050               -0.28141213               -1.57081412               -3.52209137               -4.89576247               -8.16753674
              26.42763239                7.10535314               85.72685015                0.00010000                0.63623251               -0.17943136               -3.21930804               -3.56907766               -5.16311621              -10.98384342
              27.43938160                6.56357991               85.27966051                0.00010000                1.68571121               -0.06786615               -5.01140970               -3.07953858               -4.44338246              -13.96977799
              28.46134662                6.02653653               84.84188306                0.00010000                2.47547945                0.16275307               -6.56287646               -1.94054627               -2.62937925              -16.70079222
              29.48889119                5.49988470               84.42032070                0.32150664                2.75445770                0.54372621               -7.38176046               -0.85876438               -0.96908442              -18.57019816
              20.01909390               11.90584064               88.61508662                0.95956199                0.02209302                0.08783008               -0.20494371               -0.01185594               -0.00504594                0.56329722
              21.01931483               11.36836042               88.19469365                0.60550952               -0.00659173               -0.04274364                0.05714742               -0.04454399               -0.01642031               -0.22702917
              22.01896206               10.83027275               87.77417298                0.00010000               -1.14708465               -0.17346990                0.30801752               -0.61229607               -0.81148426               -1.05150557
              22.99637313               10.28159111               87.33764814                0.00010000               -2.32524296                0.00337984                0.66855599               -1.43427608               -2.20530629               -2.00940843
              23.97245720                9.73733023               86.89371832                0.00010000               -2.22710516                0.12988168                0.38405905               -1.79805840               -3.68026282               -3.28365180
              24.95183103                9.19422484               86.43810519                0.00010000               -1.67274303                0.30347357               -0.64952927               -2.37611026               -5.42838481               -4.96707124
              25.93900234                8.65114714               85.97154519                0.00010000               -0.71022617                0.54045699               -2.36553178               -2.82141155               -6.77531987               -7.04242671
              26.93762651                8.10883538               85.49924970                0.00010000                0.53118561                0.81443742               -4.55731137               -2.90484672               -7.15257743               -9.40951966
              27.94962606                7.56918713               85.02976856                0.00010000                1.81820755                1.11108748               -6.88523704               -2.51124748               -6.16864645              -11.87162425
              28.97399066                7.03503196               84.57359448                0.00010000                2.84756583                1.43088253               -8.88101336               -1.55131123               -3.67735765              -14.07152218
              30.00657737                6.51046191               84.14161169                0.32203285                3.25867127                1.60581537               -9.95267052               -0.64439518               -1.49529643              -15.51906850
              20.55716154               12.90672009               88.47605552                0.95777518                0.01939191                0.08576692               -0.19897050               -0.00791377               -0.00714028                0.53627373
              21.55735546               12.36788918               88.05176671                0.64422374               -0.01166623               -0.04541953                0.06789767               -0.03462699               -0.02216214               -0.21809834
              22.55692822               11.82856563               87.62724575                0.00010000               -1.38917352               -0.16274425                0.33226711               -0.39221426               -1.01388202               -0.95597241
              23.52957199               11.28274125               87.18293096                0.00010000               -2.85980397                0.21648741                0.73645619               -0.97735126               -2.70394746               -1.72405792
              24.49973214               10.74086639               86.72926743                0.00010000               -2.81990503                0.54326869                0.36176014               -1.28844339               -4.45946981               -2.73669410
              25.47317389               10.20035370               86.26088901                0.00010000               -2.20569814                0.87075528               -0.90022906               -1.77076662               -6.53770575               -4.08460833
              26.45561817                9.66038655               85.77868759                0.00010000               -1.08392102                1.23926386               -2.96753861               -2.14903977               -8.14299591               -5.74647804
              27.45149547                9.12164189               85.28899545                0.00010000                0.36709503                1.65444983               -5.59022209               -2.22413684               -8.60591282               -7.62400050
              28.46296007                8.58580166               84.80242772                0.00010000                1.87750706                2.09048801               -8.36387227               -1.89101595               -7.44894574               -9.53241596
              29.48904561                8.05515418               84.33230402                0.00010000                3.10916611                2.47800899              -10.74080526               -1.11972311               -4.46057869              -11.18709460
              30.52514340                7.53200101               83.89263616                0.32212841                3.60977870                2.66090377              -12.06088304               -0.45375652               -1.90410440              -12.21600399
              21.09659743               13.90755598               88.33686613                0.95685459                0.01793124                0.08055322               -0.19925275               -0.00454463               -0.00664719                0.51480376
              22.09677675               13.36745203               87.90890217                0.67944246               -0.01658612               -0.03996535                0.07505285               -0.02205107               -0.01526589               -0.19483926
              23.09626571               12.82701787               87.48081156                0.00010000               -1.61256974               -0.14666368                0.34621942               -0.08035289               -1.07315190               -0.88811163
              24.06452535               12.28592086               87.03150445                0.00010000               -3.35949134                0.42936821                0.81642930               -0.38830847               -2.92361678               -1.38634626
              25.02907589               11.74819561               86.57107245                0.00010000               -3.38149077                0.91442024                0.39678250               -0.73229981               -4.92058503               -2.11874901
              25.99689554               11.21163994               86.09335214                0.00010000               -2.71712641                1.34254061               -1.02500062               -1.20505603               -7.28236682               -3.10878520
              26.97473336               10.67593242               85.59943144                0.00010000               -1.45834385                1.79072910               -3.35326971               -1.53260589               -9.11637480               -4.32923031
              27.96772866               10.14192438               85.09663873                0.00010000                0.17800448                2.29745288               -6.30547911               -1.58725413               -9.67106649               -5.69251439
              28.97829345                9.61099689               84.59732294                0.00010000                1.88340956                2.82263055               -9.42599068               -1.31749961               -8.39606480               -7.04229714
              30.00539685                9.08459214               84.11706047                0.00010000                3.27575689                3.27984674              -12.10659933               -0.75067029               -5.03632620               -8.14230486
              31.04380858                8.56367999               83.67221552                0.32259184                3.84117336                3.55506184              -13.62736803               -0.29581975               -2.20530065               -8.71853845
              21.63727856               14.90833115               88.19754326                0.95586819                0.01739950                0.07442745               -0.20343619               -0.00118291                0.00095766                0.48323352
              22.63745255               14.36708988               87.76618884                0.72663248               -0.02131138               -0.03320697                0.08062564               -0.01164199               -0.00655278               -0.17184063
              23.63685233               13.82563236               87.33470785                0.00010000               -1.84122350               -0.13082302                0.35861093                0.33010834               -0.95756513               -0.73827447
              24.60062808               13.29132861               86.88411898                0.00010000               -3.87426361                0.71147433                0.92786411                0.31904157               -2.82350176               -0.99843894
              25.55936706               12.75915479               86.42007174                0.00010000               -3.96460618                1.29572775                0.51813655               -0.24518618               -5.09104650               -1.44303171
              26.52133596               12.22720451               85.93636367                0.00010000               -3.23427199                1.70327220               -0.99316829               -0.73756706               -7.73615982               -2.07787343
              27.49468162               11.69620113               85.43427059                0.00010000               -1.83250216                2.17662196               -3.50154676               -1.00605507               -9.81461470               -2.85565448
              28.48468591               11.16759095               84.92200922                0.00010000               -0.03696486                2.73223620               -6.69618757               -1.03223766              -10.49575384               -3.71534814
              29.49394232               10.64225427               84.41342794                0.00010000                1.83315965                3.31155162              -10.07791831               -0.83488980               -9.15588406               -4.54074802
              30.52134911               10.12075111               83.92617101                0.00010000                3.35544993                3.81957699              -12.97875707               -0.45575683               -5.50015818               -5.12852882
              31.56105132                9.60310225               83.47864052                0.32312691                3.97022105                4.17014818              -14.62025332               -0.17256137               -2.45989576               -5.20589578
              22.17905633               15.90904453               88.05789185                0.95397640                0.01863725                0.07059435               -0.21114860                0.00104616                0.03059118                0.37801424
              23.17924270               15.36678789               87.62356500                0.60211115               -0.02135947               -0.03006630                0.08785018               -0.00405091                0.10616218               -0.16259017
              24.17862914               14.82440141               87.19075466                0.00010000               -2.09294783               -0.11900083                0.35640635                0.89537404               -0.62971181               -0.55645191
              25.13738375               14.30015034               86.74148744                0.00010000               -4.51664395                1.27307143                1.09907521                0.76116040               -2.46087774               -0.51835432
              26.08829626               13.77411016               86.27707299                0.00010000               -4.61429458                1.56316134                0.76719624                0.03625362               -4.99999405               -0.73985793
              27.04509786               13.24570539               85.79034021                0.00010000               -3.70352216                1.90997726               -0.77279532               -0.39125312               -7.98770267               -1.04110507
              28.01422582               12.71946486               85.28308131                0.00010000               -2.20335450                2.38796233               -3.39545783               -0.53031777              -10.36575688               -1.40446141
              29.00103077               12.19656911               84.76419566                0.00010000               -0.28951681                2.97361327               -6.76862954               -0.53412596              -11.24539590               -1.80340349
              30.00843548               11.67722792               84.24872871                0.00010000                1.72014883                3.58631384              -10.35617942               -0.42635901               -9.92035190               -2.17744065
              31.03543374               11.16098368               83.75634221                0.00010000                3.36098062                4.12175336              -13.42576508               -0.22818997               -5.99620059               -2.39971730
              32.07565510               10.64708295               83.30845755                0.32321914                4.02213537                4.48892991              -15.09609393               -0.07507807               -2.74867168               -2.11841498
              22.72181276               16.90974304               87.91663068                0.97668090                0.02018908                0.06985112               -0.22076861               -0.04980582                0.19515546                0.28983743
              23.72201465               16.36648855               87.48085054                0.74695259               -0.02077056               -0.02993370                0.08866296               -0.04733997                0.33318004               -0.15769720
              24.72139735               15.82325234               87.04781826                0.31479282               -2.79360601               -0.11490674                0.34880028                1.79189561                0.00153850               -0.48247377
              25.66614253               15.31679004               86.60517343                0.30813842               -5.34301331                1.66396979                1.40100172                1.23416268               -1.69466435               -0.32986034
              26.61453709               14.79041802               86.14244491                0.30769072               -4.89931674                1.63078575                1.18983553                0.05478311               -4.73286733               -0.46342280
              27.56815620               14.26540406               85.65516433                0.30816497               -4.06627728                1.96986713               -0.33118848               -0.01704762               -8.14100863               -0.56673848
              28.53321154               13.74396038               85.14507084                0.30932338               -2.59579349                2.44955220               -3.02969295               -0.01847008              -10.91101295               -0.65320623
              29.51624033               13.22706321               84.62156497                0.31115325               -0.61054905                3.04941076               -6.55007020                0.02196497              -12.08412654               -0.71967042
              30.52100056               12.71398055               84.10048068                0.31449692                1.53449749                3.67526277              -10.32879025                0.06265608              -10.91727860               -0.74564784
              31.54693028               12.20318618               83.60252958                0.31921850                3.31753322                4.22024975              -13.60035208                0.09466841               -6.85517110               -0.68210565
              32.58735122               11.69288084               83.15321092                0.66178111                4.04209447                4.57978931              -15.33185337                0.13907899               -3.44742620               -0.14865324
              17.74309837                7.04734947               90.30322249                0.98418066               -0.00133619                0.03707998               -0.11271537                0.02731024               -0.50863586                0.45245526
              18.74308501                6.50980651               89.89917923                0.97371545               -0.03808332               -0.01274012                0.06099497                0.02946497               -0.70478974                0.06538128
              19.74233670                5.97189127               89.49147897                0.98517247               -0.10353243               -0.05340370                0.23966854                0.02112927               -0.75543903               -0.05430738
              20.74101436                5.43319516               89.08620881                0.67379050               -0.17654772               -0.10868988                0.41401180               -0.03930722               -0.70680108               -0.29090179
              21.73880575                4.89283550               88.67898589                0.62674473               -0.20635801               -0.15051516                0.54868782               -0.04650543               -0.50463587               -0.17147871
              22.73688720                4.35099225               88.27751287                0.59440153               -0.13434685               -0.19651420                0.63374641               -0.06041029                0.05906468               -0.17232015
              23.73611881                3.80748536               87.88173615                0.57749382                0.02258189               -0.20661062                0.57723605               -0.12016514                0.54461593               -0.22247405
              24.73733884                3.26278874               87.49098234                0.60877898                0.15338573               -0.13484246                0.25331708               -0.25501004                0.71165476               -0.22808175
              25.73918653                2.71777274               87.10305332                0.88083416                0.17142636                0.04026180               -0.17982501               -0.24118667                0.44347013               -0.03767302
              26.74076736                2.17436017               86.71459294                1.00000000                0.23489089                0.20348975               -0.83711672               -0.09418329                0.25637059                0.02176377
              27.74388434                1.63165362               86.32484954                1.00000000                0.31169805                0.33866035               -1.17851303               -0.10182000                0.10319710               -0.17649371
              18.28091443                8.04772027               90.16313500                0.96776998                0.01943278                0.03935039               -0.13678922                0.00109702               -0.13709567                0.60254489
              19.28110876                7.50967911               89.75909643                0.91778499               -0.00303797               -0.01388003                0.03557051                0.00371792               -0.21365280                0.09653056
              20.28085367                6.97135723               89.35395361                0.92994781               -0.04797922               -0.05641013                0.19426310               -0.01475903               -0.23823289               -0.14950881
              21.28014917                6.43210826               88.94966524                0.94235716               -0.07057580               -0.11811284                0.33619444               -0.03966352               -0.15309687               -0.20559118
              22.27944215                5.89133035               88.54643845                0.94983261               -0.05955043               -0.15690846                0.43338437               -0.04773563                0.03764473               -0.09482913
              23.27895816                5.34902710               88.14710066                0.96605739               -0.02116210               -0.19145931                0.48541932               -0.05239279                0.35139444               -0.08823741
              24.27901891                4.80541926               87.75201974                0.97296679                0.03434424               -0.18407321                0.41286399               -0.06356008                0.61123504               -0.09565458
              25.27964505                4.26144032               87.36116247                0.96733774                0.09850187               -0.10928321                0.17984191               -0.10096761                0.73590176               -0.07484546
              26.28098895                3.71817536               86.97342441                0.97555916                0.16200222                0.04290583               -0.20709352               -0.07838400                0.67530138               -0.02753300
              27.28288509                3.17639506               86.58555182                1.00000000                0.22918729                0.18517505               -0.66857174               -0.00399126                0.42184798               -0.03262508
              28.28557269                2.63504022               86.19520639                1.00000000                0.26876019                0.31739126               -1.05348315               -0.02550346                0.21549979               -0.19703921
              18.81920262                9.04813647               90.02639988                0.97210863                0.03197758                0.05022243               -0.16519292               -0.00999884               -0.03788199                0.76265225
              19.81952240                8.50952891               89.61974096                0.90775256                0.02048709               -0.01199995                0.01398912               -0.01485263                0.00723098                0.11084132
              20.81961237                7.97076307               89.21449422                0.00010000                0.03627863               -0.05813975                0.17139309               -0.08077079                0.30640090               -0.43142502
              21.82024797                7.43083291               88.81432606                0.00010000                0.06599150               -0.47996414                0.25708870               -0.73033573                0.46836750               -1.09623377
              22.82093220                6.88969733               88.41419843                0.00010000                0.07512295               -0.63119981                0.32855393               -1.39748096                0.46816153               -1.99192824
              23.82175043                6.34716306               88.01638711                0.00010000                0.07510988               -0.77989033                0.35474200               -2.01298435                0.57766863               -3.37239680
              24.82243439                5.80380390               87.62199485                0.00010000                0.04064758               -0.93179111                0.29625396               -2.39407324                0.69071425               -5.19346666
              25.82256338                5.26060308               87.23141965                0.00010000                0.01148536               -1.07964833                0.13125518               -2.36680179                0.77608122               -7.34583082
              26.82266410                4.71863086               86.84394437                0.00010000                0.06296462               -1.21026002               -0.20320028               -1.84817108                0.80211064               -9.63604652
              27.82382268                4.17806367               86.45682266                0.00010000                0.17099307               -1.28310648               -0.53670979               -0.85260391                0.57504577              -11.65519075
              28.82608396                3.63800144               86.06615696                0.38022097                0.22612867               -1.18362146               -0.92634044                0.54601844                0.33658616              -13.05147847
              19.35792958               10.04872471               89.88953387                0.96790861                0.02555302                0.06878638               -0.17738300               -0.01607863                0.03930682                0.72256744
              20.35818511                9.50943911               89.47988573                0.66054865                0.00023371               -0.00944885                0.00514267               -0.02187579                0.06911272               -0.02139011
              21.35793426                8.97019444               89.07118292                0.00010000               -0.57884590               -0.09573257                0.16791241               -0.45358987               -0.04482217               -0.81247199
              22.34660819                8.42250898               88.65890838                0.00010000               -1.13859376               -0.59245676                0.74337550               -1.64803994               -0.51590601               -1.94114753
              23.33516238                7.87870635               88.24215755                0.00010000               -1.10081439               -0.83277267                0.81480822               -2.64613507               -1.48215811               -3.72787259
              24.32459191                7.33342930               87.81789579                0.00010000               -0.87324774               -1.02447117                0.38330576               -3.81149210               -2.64565531               -6.41309676
              25.31769743                6.78678343               87.38730378                0.00010000               -0.35549256               -1.24915153               -0.51771161               -4.57097637               -3.54056524               -9.99351318
              26.31748205                6.23984735               86.95371918                0.00010000                0.44337565               -1.51172886               -1.81304020               -4.61112673               -3.86684425              -14.25433823
              27.32656494                5.69397016               86.52163508                0.00010000                1.44901870               -1.78254486               -3.33768901               -3.77069115               -3.45102403              -18.75696220
              28.34646243                5.15073293               86.09582342                0.00010000                2.50262879               -1.95776907               -4.77529190               -2.09497416               -2.19377987              -22.75644171
              29.37661751                4.61136779               85.68023344                0.31823251                3.01550859               -1.65215774               -5.73616094               -0.14091109               -0.63733337              -25.65023108
              19.89745226               11.04951220               89.75180172                0.96222641                0.01629006                0.08391312               -0.17648043               -0.00819415                0.00077292                0.64553427
              20.89761516               10.50933993               89.33782535                0.62267747                0.00092173               -0.02028318                0.02703825               -0.02885716                0.01553301               -0.16453587
              21.89747070                9.96884841               88.92431335                0.00010000               -0.94199513               -0.14681971                0.20110039               -0.51304916               -0.36465557               -1.01501333
              22.87877526                9.41898377               88.50249316                0.00010000               -2.01907586               -0.22065681                1.02922681               -1.43718895               -1.39517815               -1.87929509
              23.85708918                8.87304188               88.07002426                0.00010000               -2.06658774               -0.32432517                1.05541141               -2.14465720               -3.11204083               -3.46683844
              24.83744350                8.32667364               87.62274143                0.00010000               -1.62461843               -0.35061528                0.22702591               -3.05849161               -5.11608651               -5.85584002
              25.82459681                7.77882087               87.16181363                0.00010000               -0.71446894               -0.35726425               -1.37972119               -3.72223077               -6.69925734               -9.00752243
              26.82315413                7.23036850               86.69286668                0.00010000                0.58839428               -0.36617311               -3.57979346               -3.87039540               -7.28658141              -12.73156386
              27.83636470                6.68297996               86.22478752                0.00010000                2.06857163               -0.35717760               -6.06016227               -3.39756883               -6.46177476              -16.65329968
              28.86452556                6.13890829               85.76843834                0.00010000                3.28156658               -0.24801173               -8.33570547               -2.14906413               -3.93830017              -20.22053182
              29.90199603                5.60495829               85.33616408                0.31843330                3.74704689                0.17606298               -9.76253766               -0.95915318               -1.55928803              -22.61167290
              20.43811024               12.05040298               89.61319785                0.95895158                0.01615182                0.08637558               -0.17034887               -0.00783804               -0.00706467                0.58328013
              21.43827176               11.50903345               89.19517137                0.64909214               -0.00404020               -0.03259131                0.04053773               -0.02861038               -0.02346039               -0.19487523
              22.43802943               10.96725804               88.77694686                0.00010000               -1.23004012               -0.15174403                0.24790859               -0.42790410               -0.62840851               -0.98810470
              23.41367095               10.41809585               88.34662062                0.00010000               -2.67250310                0.00100333                1.23351172               -1.15070878               -2.07432934               -1.73441963
              24.38457937                9.87221985               87.90083850                0.00010000               -2.80139364                0.10735883                1.19145111               -1.65749578               -4.34730366               -3.07733188
              25.35764308                9.32641699               87.43431131                0.00010000               -2.25107140                0.26087344                0.03342141               -2.37516558               -6.94939140               -5.11234454
              26.33955794                8.77963815               86.94857734                0.00010000               -1.08640123                0.47861882               -2.13918658               -2.94830318               -9.00285323               -7.78411410
              27.33591506                8.23252389               86.45116400                0.00010000                0.52579176                0.74865728               -5.06529878               -3.14548710               -9.75548310              -10.91903296
              28.35007378                7.68682661               85.95442189                0.00010000                2.27938813                1.07231047               -8.31907215               -2.81889482               -8.62233301              -14.21331760
              29.38150282                7.14577270               85.47421973                0.00010000                3.76303354                1.47085974              -11.28858015               -1.81248214               -5.26323878              -17.18980495
              30.42533445                6.61488905               85.02821219                0.31864392                4.38316309                1.77508493              -13.18297523               -0.77491808               -2.23204273              -19.21914088
              20.98003456               13.05123971               89.47420641                0.95685652                0.01533266                0.07960788               -0.16887656               -0.00499446               -0.00836646                0.54831594
              21.98018789               12.50868811               89.05235100                0.68290165               -0.00921740               -0.03273482                0.05079798               -0.02162430               -0.02437272               -0.18979081
              22.97985021               11.96581353               88.63026579                0.00010000               -1.46943052               -0.13574016                0.27240244               -0.24361755               -0.78663084               -0.90948289
              23.95079928               11.41900384               88.19300260                0.00010000               -3.21160487                0.17318790                1.39986153               -0.73694743               -2.52597374               -1.51396122
              24.91561812               10.87518905               87.73674394                0.00010000               -3.41386944                0.46051883                1.30427104               -1.15088046               -5.19697579               -2.59876188
              25.88252189               10.33189110               87.25503401                0.00010000               -2.80471348                0.79152890               -0.11057318               -1.73596197               -8.24575337               -4.23733035
              26.85952385                9.78839324               86.74974755                0.00010000               -1.47329807                1.20943108               -2.72235865               -2.21583263              -10.64904936               -6.37572097
              27.85305593                9.24534165               86.23002155                0.00010000                0.36070712                1.72176768               -6.21724695               -2.38999761              -11.52686068               -8.86583865
              28.86673799                8.70442617               85.71100873                0.00010000                2.35787709                2.30733947              -10.09026176               -2.12480595              -10.18947190              -11.45234158
              29.90021347                8.16832548               85.21223311                0.00010000                4.07634874                2.88853355              -13.63764588               -1.32092964               -6.21985645              -13.76323498
              30.94826496                7.64045999               84.75536193                0.31891196                4.80514943                3.26832665              -15.96766676               -0.56693974               -2.72313262              -15.32380295
              21.52311356               14.05199513               89.33500515                0.95583129                0.01518859                0.07178119               -0.17140346               -0.00287521               -0.00800731                0.52049470
              22.52326545               13.50837875               88.90955574                0.71369837               -0.01361064               -0.02818789                0.05746329               -0.01355765               -0.01817917               -0.16993372
              23.52284135               12.96454324               88.48396342                0.00010000               -1.68544814               -0.11970257                0.28675062                0.01020549               -0.79975505               -0.84720997
              24.48955649               12.42155960               88.04272352                0.00010000               -3.70834277                0.35092314                1.55833112               -0.23541638               -2.67654911               -1.24462597
              25.44867449               11.88143022               87.57938871                0.00010000               -3.99184190                0.78407171                1.44966173               -0.63231277               -5.67880503               -2.04945017
              26.40971965               11.34224757               87.08666850                0.00010000               -3.34418740                1.23976944               -0.14065308               -1.15540664               -9.09931375               -3.26259472
              27.38179075               10.80382677               86.56678161                0.00010000               -1.88187341                1.79719024               -3.07389269               -1.54502044              -11.80353542               -4.83238595
              28.37208218               10.26695924               86.03022016                0.00010000                0.14015399                2.48428747               -6.99786145               -1.67170512              -12.81099457               -6.63991806
              29.38459383                9.73297339               85.49442868                0.00010000                2.34841144                3.24897960              -11.34802842               -1.45469967              -11.33939979               -8.48265138
              30.41905041                9.20354337               84.98187255                0.00010000                4.25664092                3.98410374              -15.34758962               -0.87318571               -6.91844370              -10.05624694
              31.46972664                8.68025558               84.51723234                0.31943100                5.06762365                4.53042022              -18.03003333               -0.37367239               -3.08535189              -11.00830108
              22.06720983               15.05267534               89.19563456                0.95515472                0.01588032                0.06514983               -0.17703937               -0.00098029               -0.00083746                0.48364230
              23.06736863               14.50812435               88.76689058                0.75615728               -0.01681790               -0.02332869                0.06126998               -0.00720989               -0.01094311               -0.14872852
              24.06687347               13.96341948               88.33797976                0.00010000               -1.90823325               -0.10584969                0.29679715                0.34652457               -0.62355602               -0.70491182
              25.02920397               13.42602230               87.89678756                0.00010000               -4.22947873                0.59893449                1.74413648                0.35445718               -2.46817717               -0.91846262
              25.98228390               12.89087049               87.43011797                0.00010000               -4.60933787                1.11939578                1.68467374               -0.19652173               -5.81448559               -1.43115754
              26.93701721               12.35668649               86.93052320                0.00010000               -3.91860659                1.58257437                0.00668232               -0.68421418               -9.59937831               -2.21838689
              27.90391176               11.82433705               86.40050283                0.00010000               -2.32710031                2.21230117               -3.14217648               -0.97612615              -12.62698151               -3.21307266
              28.89047520               11.29502740               85.85174963                0.00010000               -0.14259471                3.00648334               -7.37582673               -1.04891240              -13.81117544               -4.34676356
              29.90105987               10.76940576               85.30368462                0.00010000                2.24961823                3.88568592              -12.07886050               -0.89270119              -12.27364669               -5.47399020
              30.93546757               10.24800756               84.78149337                0.00010000                4.31536109                4.72765539              -16.40407643               -0.51469716               -7.49126985               -6.33069278
              31.98736709                9.73106839               84.31254399                0.31972853                5.18995241                5.41268976              -19.31398698               -0.22332785               -3.39974671               -6.55406834
              22.61219593               16.05329813               89.05590152                0.95317790                0.01811706                0.06199329               -0.18599794                0.00023534                0.03102700                0.37435309
              23.61237711               15.50791218               88.62431814                0.61958984               -0.01610229               -0.02098123                0.06416763               -0.00246596                0.09345558               -0.14370435
              24.61187389               14.96242624               88.19399954                0.00010000               -2.15912399               -0.09532385                0.29368332                0.82180562               -0.20205091               -0.53458542
              25.56919463               14.43353829               87.75629174                0.00010000               -4.88970109                1.09397854                2.00972527                0.71461092               -1.91862163               -0.46992116
              26.51407987               13.90381814               87.29031181                0.00010000               -5.33129124                1.34520544                2.09060583                0.04488223               -5.60737382               -0.76914650
              27.46256880               13.37389906               86.78748397                0.00010000               -4.50762738                1.77259366                0.40162973               -0.34748166               -9.85544859               -1.13902498
              28.42392732               12.84807279               86.25108270                0.00010000               -2.82667899                2.43449971               -2.87719890               -0.49162547              -13.29512652               -1.59561616
              29.40603522               12.32708891               85.69372407                0.00010000               -0.50838374                3.28912438               -7.33279902               -0.52205643              -14.76014021               -2.11493612
              30.41375964               11.81068711               85.13643613                0.00010000                2.05293075                4.23341286              -12.30471512               -0.44278062              -13.26070251               -2.62233870
              31.44709384               11.29809648               84.60713033                0.00010000                4.26893874                5.13228229              -16.86868268               -0.25186498               -8.13582278               -2.95010045
              32.49913842               10.78850938               84.13732474                0.32020898                5.20445835                5.86855635              -19.86352382               -0.11312701               -3.77596475               -2.61276530
              23.15798645               17.05391520               88.91453573                0.97622885                0.02047521                0.06170718               -0.19741850               -0.04199680                0.19330409                0.28433670
              24.15819120               16.50770472               88.48158850                0.75384106               -0.01514905               -0.02074522                0.06042633               -0.03870057                0.30963223               -0.14315868
              25.15768347               15.96151301               88.05096458                0.31350077               -2.80434536               -0.09132397                0.28418190                1.59081501                0.60915705               -0.46572396
              26.10210429               15.44790187               87.62377448                0.30794734               -5.74313442                1.43635780                2.49276678                1.10404604               -0.71398247               -0.45664732
              27.04282078               14.91777459               87.16100591                0.30780515               -5.81456855                1.39564560                2.76728428                0.08591573               -5.14282180               -0.62446357
              27.98581292               14.39213837               86.65794349                0.30801274               -5.09656882                1.82393098                1.12468816                0.08703439              -10.01623870               -0.73500912
              28.94088940               13.87302704               86.11790712                0.30866380               -3.41965819                2.49542490               -2.23938633                0.12978402              -14.01954754               -0.82136128
              29.91741976               13.36080989               85.55430244                0.31065702               -0.98463554                3.37209742               -6.87567006                0.19080225              -15.90184220               -0.88777392
              30.92119669               12.85407402               84.98926361                0.31301857                1.75941230                4.33869049              -12.08677771                0.23587032              -14.63477915               -0.90604967
              31.95260800               12.35065320               84.45212189                0.31700234                4.15410310                5.25567228              -16.90747442                0.26969158               -9.33302452               -0.80892908
              33.00427875               11.84843952               83.98014407                0.66013522                5.16707493                5.99301381              -19.99362345                0.29266475               -4.76060600               -0.05577251
              18.14125890                7.19200279               91.30250675                0.98215812               -0.01397944                0.01976158               -0.03330064                0.01068315               -0.48775586                0.43425219
              19.14111911                6.65067067               90.89991400                0.97093660               -0.03772964               -0.01868933                0.08516992                0.01089157               -0.67545012                0.06482009
              20.14050431                6.10911055               90.49378041                0.97953618               -0.08304039               -0.05361791                0.21965405                0.00784691               -0.72139647               -0.05173059
              21.13945830                5.56722801               90.08995889                0.66537956               -0.15404479               -0.08538901                0.33704818               -0.03363850               -0.68702663               -0.28164467
              22.13742341                5.02434739               89.68391365                0.63781340               -0.20167866               -0.09596094                0.44138536               -0.04513498               -0.51124561               -0.14815632
              23.13542472                4.48069306               89.28297438                0.63092897               -0.16608843               -0.11219726                0.47130390               -0.05793154               -0.03830200               -0.13435233
              24.13410164                3.93627601               88.88629645                0.64924380               -0.08817808               -0.09910888                0.37731785               -0.09601839                0.30277096               -0.14198497
              25.13366116                3.39147674               88.49292083                0.71999325               -0.02095115               -0.04111272                0.15163634               -0.11914577                0.44962126               -0.12134242
              26.13368262                2.84689419               88.10140420                0.96606853                0.04795671                0.04890745               -0.16344714               -0.07537855                0.33464078               -0.06592279
              27.13462030                2.30280766               87.70796100                1.00000000                0.15318189                0.15628865               -0.55820922               -0.04569201                0.17744628               -0.00310589
              28.13674626                1.75887960               87.31421984                1.00000000                0.21259604                0.26835012               -0.91928505               -0.05578059                0.08087043               -0.15404056
              18.68269785                8.19220041               91.16215934                0.96416471               -0.00237105                0.03085516               -0.06026931               -0.00849709               -0.13597049                0.58269540
              19.68267414                7.65048378               90.75955764                0.91525097               -0.01968733               -0.01553082                0.05661058               -0.00861945               -0.21449314                0.09607861
              20.68230411                7.10857437               90.35579199                0.92389355               -0.05853259               -0.05397414                0.17443869               -0.01091211               -0.24544957               -0.14045678
              21.68150349                6.56637412               89.95275008                0.92932239               -0.10322869               -0.08123230                0.28071448               -0.02954727               -0.18026024               -0.20144248
              22.68023953                6.02338778               89.55035953                0.93102123               -0.13111961               -0.09507293                0.35784964               -0.03434290               -0.02371347               -0.08246025
              23.67888110                5.47957109               89.15121214                0.93831794               -0.12449575               -0.10248072                0.37101520               -0.03989806                0.24693782               -0.06514626
              24.67774962                4.93528492               88.75539828                0.94500095               -0.08602438               -0.08463374                0.29736210               -0.04677840                0.48643722               -0.05586805
              25.67716061                4.39106561               88.36259954                0.94917279               -0.02431214               -0.03072441                0.11876318               -0.04627497                0.64834051               -0.04097884
              26.67726338                3.84738327               87.97173575                0.95906549                0.05050311                0.05299350               -0.15861396               -0.01183408                0.60036420               -0.04992015
              27.67817067                3.30437054               87.57977220                1.00000000                0.14265688                0.15151631               -0.50600532                0.01358327                0.37182933               -0.02935416
              28.68011651                2.76156310               87.18571055                1.00000000                0.19458388                0.25580749               -0.83605317                0.00456997                0.20299767               -0.20150656
              19.22452222                9.19261990               91.02509811                0.96877137                0.00505344                0.05600217               -0.09605764               -0.01256974               -0.04529395                0.74955960
              20.22457276                8.65036006               90.61994788                0.90570527               -0.00632489               -0.00918757                0.02803389               -0.01139341               -0.00859298                0.11603098
              21.22439573                8.10803107               90.21605617                0.00010000               -0.02594076               -0.06282218                0.14313833               -0.00529050                0.25671232               -0.41209366
              22.22405394                7.56560336               89.81671100                0.00010000               -0.04280720               -0.32226028                0.22152781               -0.58342359                0.38778889               -0.73829004
              23.22353958                7.02244593               89.41721018                0.00010000               -0.06621585               -0.44018944                0.27960297               -1.34459333                0.36858226               -1.58608948
              24.22272963                6.47864345               89.01948257                0.00010000               -0.09340155               -0.63138982                0.28922875               -2.08781904                0.47819751               -3.20203898
              25.22167155                5.93458333               88.62457130                0.00010000               -0.10461549               -0.90992890                0.23585853               -2.58262111                0.64399134               -5.52993080
              26.22063732                5.39086225               88.23250447                0.00010000               -0.07652708               -1.25876999                0.09225831               -2.62237547                0.79915991               -8.37600381
              27.22014101                4.84795406               87.84221308                0.00010000                0.00374082               -1.64106001               -0.15819945               -2.05060730                0.84730429              -11.41384127
              28.22071213                4.30583798               87.45187731                0.00010000                0.11557717               -1.96690803               -0.45498758               -0.77482890                0.61144188              -14.10003417
              29.22245255                3.76399575               87.05771093                0.35804758                0.17404201               -2.24937280               -0.75967839                1.25406440                0.37244063              -15.94276818
              19.76696615               10.19332045               90.88805195                0.96593922                0.00689620                0.07951513               -0.11920149               -0.00783337                0.02449760                0.72566606
              20.76703511                9.65030003               90.47994297                0.69685891               -0.00055772               -0.00961768                0.00809419               -0.00489013                0.04321583                0.00431093
              21.76695499                9.10731793               90.07257781                0.00010000               -0.58074758               -0.10301217                0.11491950               -0.21614638                0.22736962               -0.76909681
              22.75542016                8.55992891               89.66783231                0.00010000               -1.33237050               -0.41139257                1.10773518               -1.25436790               -0.09738591               -1.20144569
              23.74030758                8.01458399               89.25241114                0.00010000               -1.52164190               -0.60974487                1.32727596               -2.53436270               -1.63668448               -2.92277658
              24.72498732                7.46694329               88.82354648                0.00010000               -1.32145949               -0.89457707                0.83383859               -3.99126873               -3.36288401               -6.10707530
              25.71387839                6.91708634               88.38281256                0.00010000               -0.68224722               -1.32149681               -0.31259800               -5.00890376               -4.74621100              -10.68900949
              26.71134237                6.36589021               87.93450991                0.00010000                0.36985543               -1.87926039               -1.99804948               -5.21173559               -5.39858338              -16.29605577
              27.72127550                5.81456207               87.48509276                0.00010000                1.76450198               -2.51134735               -4.01007706               -4.32121956               -4.98242610              -22.26991723
              28.74663241                5.26503238               87.04272375                0.00010000                3.38033896               -3.10542022               -5.98255869               -2.37472542               -3.23337084              -27.68159300
              29.78888228                4.71657564               86.61548517                0.31550953                4.22498659               -3.21616236               -7.42863127                0.14439583               -1.04158621              -31.59651541
              20.31040641               11.19421020               90.75026906                0.96121931                0.00710726                0.08905544               -0.12980341               -0.00227918               -0.00171746                0.65859171
              21.31047748               10.65016770               90.33803724                0.66706438                0.00187510               -0.01813801                0.01810252               -0.00889409                0.00089530               -0.12488715
              22.31044391               10.10597082               89.92604513                0.00010000               -0.93884817               -0.13798532                0.14937157               -0.24012720                0.08870279               -0.94146921
              23.29170052                9.55737551               89.51537367                0.00010000               -2.23029831               -0.17678162                1.65182227               -1.00725203               -0.71694025               -1.29003896
              24.26583795                9.01025103               89.08428944                0.00010000               -2.56493088               -0.27600367                1.94403711               -1.95553733               -3.31534713               -2.85237931
              25.24040190                8.46075191               88.62823226                0.00010000               -2.16456960               -0.36289644                1.01457375               -3.09902955               -6.23555416               -5.70579051
              26.22254655                7.90815340               88.14931845                0.00010000               -1.07375119               -0.47777007               -1.01479363               -3.96303299               -8.60614261               -9.73471766
              27.21892688                7.35327705               87.65525428                0.00010000                0.60139475               -0.62951764               -3.91236849               -4.25481758               -9.69050317              -14.63034514
              28.23457445                6.79772711               87.15845727                0.00010000                2.61385854               -0.79312480               -7.29308461               -3.83496499               -8.85118399              -19.87141092
              29.27120405                6.24372958               86.67516895                0.00010000                4.38397529               -0.87956442              -10.56141471               -2.48757245               -5.53551488              -24.75325576
              30.32225395                5.69967250               86.22506995                0.31560486                5.10499058               -0.48471989              -12.85924298               -1.15224225               -2.28744568              -28.17975240
              20.85500556               12.19510156               90.61167965                0.95810913                0.00910432                0.08344509               -0.13272154               -0.00149889               -0.00832858                0.59725272
              21.85509660               11.64993727               90.19550441                0.69039405               -0.00304612               -0.02293552                0.02869574               -0.01061028               -0.02544216               -0.15859209
              22.85494464               11.10455822               89.77913116                0.00010000               -1.20508493               -0.13057039                0.19262353               -0.17219477               -0.04945747               -0.91994882
              23.83099491               10.55639328               89.36231837                0.00010000               -2.85620999               -0.05081928                2.03690545               -0.73102274               -1.21941156               -1.26527930
              24.79782044               10.00906392               88.91754734                0.00010000               -3.29452702                0.00449548                2.33209111               -1.43923267               -4.57867229               -2.62226563
              25.76510436                9.45968536               88.43877362                0.00010000               -2.78639230                0.12490000                1.03519549               -2.33398360               -8.31065881               -5.06448470
              26.74209259                8.90753094               87.92876146                0.00010000               -1.42160305                0.32572322               -1.69959216               -3.06412033              -11.32583505               -8.47932852
              27.73667230                8.35329986               87.39794373                0.00010000                0.60155371                0.59959537               -5.55374850               -3.40305826              -12.66464081              -12.61095903
              28.75412367                7.79869957               86.86338712                0.00010000                2.91316387                0.95104595              -10.01707467               -3.17370734              -11.48896585              -17.05718421
              29.79493558                7.24744109               86.34782288                0.00010000                4.99139654                1.42535410              -14.32760387               -2.13635512               -7.17241290              -21.22196026
              30.85395160                6.70688124               85.87795218                0.31603494                5.90160165                1.84161506              -17.44375560               -0.94752767               -3.12358121              -24.30428743
              21.40070502               13.19587910               90.47267799                0.95653498                0.01035954                0.07180792               -0.13613345               -0.00048397               -0.00901299                0.55830399
              22.40080862               12.64970899               90.05278267                0.71940255               -0.00805108               -0.02117499                0.03782053               -0.00806979               -0.02377514               -0.15787209
              23.40054400               12.10335942               89.63269379                0.00010000               -1.41171268               -0.10992579                0.21624138               -0.05958356               -0.11084634               -0.85776942
              24.37257437               11.55635912               89.21092819                0.00010000               -3.33913980                0.04250488                2.33176175               -0.42221503               -1.51743423               -1.17226108
              25.33376121               11.01034094               88.75535285                0.00010000               -3.86595788                0.23843260                2.61940609               -0.96874252               -5.42061241               -2.30085722
              26.29525521               10.46324991               88.25867755                0.00010000               -3.30557787                0.56067479                1.03262206               -1.66305439               -9.73620056               -4.28163128
              27.26764965                9.91466786               87.72424041                0.00010000               -1.77790638                1.04992409               -2.24735446               -2.24812809              -13.20875986               -7.01566282
              28.25969708                9.36526895               87.16465051                0.00010000                0.46547095                1.70490361               -6.84293477               -2.53652155              -14.72900725              -10.30428487
              29.27695907                8.81674803               86.60062249                0.00010000                3.02990960                2.49841979              -12.15596837               -2.36514456              -13.33634105              -13.82859946
              30.32029527                8.27223666               86.05955110                0.00010000                5.37320184                3.33829279              -17.31878482               -1.54772474               -8.30644270              -17.13331788
              31.38442311                7.73650480               85.57328282                0.31653681                6.41278324                3.97253341              -21.16780306               -0.70166792               -3.70471976              -19.62611917
              21.94733610               14.19653772               90.33343806                0.95515660                0.01187915                0.06142654               -0.14139214               -0.00015893               -0.00845375                0.52651189
              22.94745490               13.64951377               89.91005143                0.74140894               -0.01166355               -0.01780387                0.04371103               -0.00490729               -0.01780862               -0.14347341
              23.94710283               13.10235970               89.48654657                0.00010000               -1.59429093               -0.09307097                0.23221308                0.08349223               -0.03558722               -0.80506135
              24.91556908               12.55724338               89.06267107                0.00010000               -3.77740135                0.15160062                2.58619876               -0.09875905               -1.51319374               -1.03324075
              25.87155481               12.01383257               88.60006569                0.00010000               -4.40263588                0.46337983                2.89782109               -0.53820100               -5.85129717               -1.90619804
              26.82751636               11.47089886               88.09053908                0.00010000               -3.82219109                0.93856971                1.11585124               -1.07974122              -10.63686463               -3.38500517
              27.79511098               10.92852942               87.53795359                0.00010000               -2.18273300                1.64853646               -2.55895404               -1.51175136              -14.49206403               -5.39036974
              28.78386170               10.38739793               86.95668150                0.00010000                0.23710415                2.59414086               -7.70723608               -1.71389611              -16.19270231               -7.77673102
              29.79985307                9.84866797               86.37036237                0.00010000                3.01813107                3.70094942              -13.66635914               -1.57122017              -14.66653946              -10.30354323
              30.84422432                9.31420695               85.81010868                0.00010000                5.57644483                4.83214078              -19.48873231               -0.99834916               -9.12037625              -12.60210194
              31.91138196                8.78633191               85.31161485                0.31668305                6.71576432                5.77118396              -23.92180396               -0.46090199               -4.12589996              -14.23199285
              22.49474976               15.19710763               90.19400247                0.95427105                0.01387363                0.05463478               -0.14893595               -0.00009535               -0.00157992                0.48562479
              23.49488849               14.64935291               89.76741424                0.77624231               -0.01327593               -0.01489392                0.04547744               -0.00253718               -0.01282509               -0.12702315
              24.49448424               14.10149800               89.34064380                0.00010000               -1.78810860               -0.08174131                0.23986771                0.27749525                0.24292589               -0.67393691
              25.45912632               13.55939114               88.91900170                0.00010000               -4.25712664                0.32608079                2.85826853                0.26202552               -1.11145413               -0.82245665
              26.40934170               13.01960854               88.45376521                0.00010000               -5.00813931                0.70033604                3.26368966               -0.19840420               -5.87877816               -1.41516197
              27.35896353               12.48202130               87.93649732                0.00010000               -4.42130775                1.23028661                1.39559661               -0.61341575              -11.11923109               -2.38470753
              28.32091555               11.94763859               87.37142706                0.00010000               -2.68414599                2.08094118               -2.53738941               -0.89486617              -15.39180269               -3.64531739
              29.30528061               11.41715177               86.77449269                0.00010000               -0.10949502                3.21598178               -8.07757492               -1.01293660              -17.33603662               -5.13340985
              30.31872565               10.89076702               86.17185073                0.00010000                2.86918656                4.52670954              -14.50668659               -0.91550934              -15.75853047               -6.68164720
              31.36266435               10.36887948               85.59808948                0.00010000                5.61147488                5.85730995              -20.79858855               -0.56170933               -9.79626224               -7.96455870
              32.43095515                9.85192848               85.09236078                0.31679599                6.82908013                7.04478264              -25.61874205               -0.27684896               -4.49870336               -8.51797590
              23.04284364               16.19763042               90.05417189                0.95255214                0.01701533                0.05268553               -0.15960574               -0.00027468                0.03150610                0.37266978
              24.04301379               15.64921589               89.62484835                0.63097014               -0.01145608               -0.01341295                0.04380379               -0.00077879                0.08537039               -0.12798414
              25.04261451               15.10072488               89.19662833                0.00010000               -2.01573729               -0.07451005                0.23494780                0.57296879                0.81395655               -0.51421054
              26.00269904               14.56376499               88.78168194                0.00010000               -4.88289781                0.66502416                3.23574151                0.49048199               -0.26910053               -0.42598610
              26.94495656               14.02783929               88.31888510                0.00010000               -5.77405247                0.84660044                3.85681890               -0.00452303               -5.46002835               -0.83155774
              27.88721799               13.49550459               87.79837281                0.00010000               -5.14366835                1.38817715                1.99904071               -0.28621801              -11.31873933               -1.27890383
              28.84208319               12.97014824               87.22553733                0.00010000               -3.33717297                2.31228661               -2.08199422               -0.41204695              -16.14625389               -1.84465083
              29.82047454               12.45171757               86.61753968                0.00010000               -0.61340088                3.54996081               -7.89568628               -0.46898544              -18.47837982               -2.51691202
              30.82981517               11.93920216               86.00263440                0.00010000                2.56770714                4.97187848              -14.67112965               -0.43022704              -16.97815159               -3.21114939
              31.87182868               11.43135315               85.41896856                0.00010000                5.49659041                6.40724984              -21.29359422               -0.26248012              -10.59996435               -3.71619856
              32.93974698               10.92722756               84.91118707                0.31726916                6.79183042                7.70991301              -26.28457964               -0.15557810               -4.96961540               -3.39044797
              23.59157332               17.19816134               89.91268231                0.97582103                0.02051360                0.05309270               -0.17279048               -0.03470060                0.19180708                0.28097991
              24.59177846               16.64908465               89.48205907                0.75802547               -0.00894058               -0.01312335                0.03579728               -0.03121087                0.29467199               -0.13219584
              25.59139451               16.10000779               89.05350189                0.31194586               -2.49784541               -0.07170830                0.22471843                1.05834761                1.91343710               -0.45050957
              26.54182155               15.57269162               88.65502877                0.30789264               -5.69414317                0.89266272                3.95515177                0.73888802                1.60774844               -0.67543905
              27.47751164               15.03654055               88.19779059                0.30780559               -6.54456635                0.87012579                4.86001124                0.11016976               -4.68345670               -0.88360986
              28.41093022               14.50978484               87.67765810                0.30793377               -6.05250054                1.42802512                3.08044549                0.23841124              -11.45128307               -0.99371669
              29.35646163               13.99388432               87.10028311                0.30841640               -4.20416137                2.37360776               -1.09792578                0.35615132              -17.06682381               -1.07181546
              30.32684699               13.48815099               86.48405157                0.30959602               -1.29880527                3.64334166               -7.13103311                0.45325927              -19.97101534               -1.13601788
              31.33048553               12.99020459               85.85874512                0.31164221                2.12711714                5.10024350              -14.20028541                0.51070979              -18.79448332               -1.14997541
              32.36938934               12.49702447               85.26438009                0.31474799                5.28046144                6.56713237              -21.14256449                0.55217311              -12.19634353               -1.02528194
              33.43609476               12.00612674               84.75333845                0.65841697                6.67054215                7.88991747              -26.26532324                0.54500396               -6.29284373               -0.02852990
              18.53852876                7.33672933               92.30255648                0.98071369               -0.02264111                0.00534931                0.03578996               -0.00440274               -0.45643115                0.41332933
              19.53830235                6.79181563               91.90088263                0.96738973               -0.03324389               -0.02488306                0.10498500               -0.00640240               -0.62903515                0.06297609
              20.53786388                6.24683349               91.49587205                0.97339269               -0.05808828               -0.05611536                0.19888885               -0.00295128               -0.66994707               -0.04605704
              21.53714058                5.70197989               91.09294977                0.66043878               -0.11492701               -0.06525871                0.26134498               -0.00905900               -0.64192839               -0.25797710
              22.53556534                5.15698062               90.68781360                0.64933333               -0.17011123               -0.05960070                0.34465947               -0.01346332               -0.48490735               -0.11956921
              23.53373836                4.61182968               90.28693894                0.65985154               -0.16687805               -0.06136846                0.34075664               -0.01495025               -0.07965497               -0.08991867
              24.53222778                4.06644200               89.88928250                0.69920979               -0.12574238               -0.04149549                0.24665335               -0.02801274                0.20124224               -0.08490397
              25.53122351                3.52100447               89.49401506                0.78497170               -0.06943041                0.00326238                0.07867446               -0.02745273                0.34585987               -0.07932585
              26.53083917                2.97579118               89.09978437                0.96254619                0.01385672                0.05768833               -0.16153230               -0.01800117                0.27555758               -0.06765828
              27.53150065                2.43067565               88.70342876                0.98482074                0.10724475                0.12160226               -0.39816794               -0.02536654                0.11644115               -0.02084611
              28.53298407                1.88559139               88.30646384                1.00000000                0.14834222                0.19276091               -0.65172859               -0.03123790                0.03036267               -0.13340198
              19.08339843                8.33678282               92.16192962                0.96179662               -0.02121845                0.02528649                0.00777626               -0.01817995               -0.12530735                0.55974338
              20.08318625                7.79156680               91.76022864                0.91253509               -0.03230954               -0.01757182                0.07541592               -0.02101785               -0.19584864                0.09343537
              21.08275224                7.24627234               91.35744239                0.91764275               -0.06049073               -0.05490556                0.15496516               -0.00599414               -0.22172915               -0.13290374
              22.08197643                6.70132731               90.95527953                0.91945473               -0.11232108               -0.04975139                0.22460288               -0.00892869               -0.15944508               -0.18475551
              23.08050582                6.15638461               90.55359544                0.91979153               -0.15591324               -0.05283448                0.28742003               -0.00721923               -0.01299956               -0.06990702
              24.07885817                5.61121599               90.15452097                0.92571685               -0.15727806               -0.05208691                0.28765901               -0.00713310                0.23150393               -0.04566249
              25.07736026                5.06602704               89.75796698                0.93310040               -0.12918871               -0.03254958                0.21568849               -0.00571824                0.44523606               -0.03631017
              26.07627439                4.52103710               89.36353773                0.93973596               -0.07683408                0.00840809                0.06884049                0.00111553                0.58077304               -0.03700002
              27.07582357                3.97636807               88.97025213                0.94658137                0.00362433                0.06029149               -0.14748927                0.01263768                0.53167713               -0.06056628
              28.07634688                3.43189167               88.57543171                0.97182353                0.09661868                0.12178890               -0.38627058                0.01019765                0.32097267               -0.03776285
              29.07775595                2.88751900               88.17848533                1.00000000                0.14090700                0.18900308               -0.61899052                0.00680593                0.16701286               -0.17866897
              19.62859720                9.33723506               92.02447873                0.96650802               -0.02047233                0.06421319               -0.03284454               -0.01513302               -0.04333127                0.72920017
              20.62839248                8.79146419               91.62030164                0.90495304               -0.03068537               -0.00654179                0.04166172               -0.00811755               -0.00534213                0.11555084
              21.62798349                8.24573538               91.21735698                0.00010000               -0.07713708               -0.07243979                0.11799455                0.06803682                0.25312457               -0.40578709
              22.62684974                7.70098487               90.81875662                0.00010000               -0.12256113               -0.07549592                0.18544359               -0.34803706                0.38433113               -0.14832523
              23.62553227                7.15592393               90.41979049                0.00010000               -0.14482368               -0.16065232                0.23089018               -1.19941095                0.36987177               -0.87162259
              24.62395326                6.61078794               90.02217169                0.00010000               -0.16199794               -0.43389474                0.23808386               -2.10291384                0.49071663               -2.76125429
              25.62229231                6.06579101               89.62671202                0.00010000               -0.15242325               -0.88854736                0.18436464               -2.75828906                0.66248370               -5.71431721
              26.62090480                5.52117264               89.23326482                0.00010000               -0.10274793               -1.49303339                0.05683448               -2.89191015                0.79501483               -9.46220204
              27.62023735                4.97699701               88.84078039                0.00010000               -0.01755651               -2.20202188               -0.13810884               -2.25911075                0.80776177              -13.54827001
              28.62055367                4.43311143               88.44772290                0.00010000                0.08140886               -2.90411212               -0.37660770               -0.62849197                0.57671474              -17.24000874
              29.62186553                3.88937145               88.05096339                0.33948780                0.13118631               -3.77202673               -0.59293980                2.25135279                0.35423851              -19.80026590
              20.17463749               10.33806708               91.88714984                0.96449540               -0.01139202                0.09106418               -0.06473879                0.00110521                0.01653398                0.71798104
              21.17452357                9.79143596               91.48004761                0.73814889               -0.00225951               -0.00917214                0.01348250                0.01104866                0.02626289                0.02242096
              22.17459230                9.24482354               91.07348131                0.00010000               -0.48482165               -0.11348485                0.07099016                0.11531235                0.77385805               -0.73138197
              23.16482714                8.69981739               90.68106309                0.00010000               -1.39388899               -0.11439670                1.61350344               -0.61547843                0.83069669                0.00040505
              24.14671452                8.15317156               90.26870307                0.00010000               -1.89471661               -0.25329174                2.03387217               -2.24439535               -1.47399544               -1.49491174
              25.12693281                7.60253810               89.83457257                0.00010000               -1.74523727               -0.67286262                1.47982010               -4.05826595               -3.92599475               -5.23837044
              26.11180978                7.04825610               89.38105182                0.00010000               -0.98513139               -1.38066966                0.05775513               -5.41010230               -5.95539679              -11.05070293
              27.10723018                6.49117643               88.91375819                0.00010000                0.34463951               -2.34224279               -2.09276492               -5.83140089               -7.09124026              -18.40958772
              28.11870257                5.93232763               88.44143354                0.00010000                2.20862104               -3.48698139               -4.74105700               -4.90890052               -6.82251711              -26.45806594
              29.15140260                5.37380943               87.97617224                0.00010000                4.57801923               -4.71836909               -7.46833663               -2.68001265               -4.61173331              -33.98028040
              30.21026295                4.81207847               87.53166082                0.31309827                5.88603522               -5.52376123               -9.61878717                0.55588333               -1.61270149              -39.76561759
              20.72188154               11.33905634               91.74920566                0.96061589               -0.00245482                0.09360080               -0.08503312                0.00527354               -0.00293104                0.66071658
              21.72185700               10.79128075               91.33818740                0.71253085                0.00133865               -0.01598978                0.01427027                0.00985845               -0.00555765               -0.08843054
              22.72190832               10.24346568               90.92730078                0.00010000               -0.78324257               -0.13065701                0.10646836                0.15250965                0.96384152               -0.86276656
              23.70619215                9.69869693               90.53552960                0.00010000               -2.19923320               -0.12908246                2.49967737               -0.32840952                0.74996183               -0.34153254
              24.67792365                9.15085809               90.10890500                0.00010000               -2.92443674               -0.22302206                3.14340834               -1.57650439               -2.99945360               -1.75047271
              25.64770341                8.59733069               89.64303290                0.00010000               -2.62358593               -0.39280450                2.11221725               -2.96987517               -7.07772990               -5.11933968
              26.62545194                8.03817761               89.14151776                0.00010000               -1.37490820               -0.65632400               -0.40560177               -4.04707760              -10.46745187              -10.22282118
              27.62020525                7.47432778               88.61461931                0.00010000                0.69872049               -1.01339754               -4.14214330               -4.50769131              -12.27423215              -16.63388416
              28.63942634                6.90725739               88.07892582                0.00010000                3.34986672               -1.44049646               -8.67169662               -4.19354984              -11.59114871              -23.69388571
              29.68720258                6.33874405               87.55721005                0.00010000                5.85093905               -1.84290406              -13.29277860               -2.81371343               -7.45354355              -30.54859819
              30.75644513                5.77889623               87.07897922                0.31330224                6.92425453               -1.57440187              -16.86953875               -1.36771862               -3.17670512              -35.82540097
              21.27029414               12.33993910               91.61054341                0.95782069                0.00172607                0.07955186               -0.09558618                0.00587604               -0.00843019                0.60384642
              22.27031140               11.79111617               91.19574528                0.72994993               -0.00339127               -0.01485561                0.02180723                0.00554406               -0.02295608               -0.12146437
              23.27022632               11.24221040               90.78079933                0.00010000               -0.97224320               -0.11114765                0.14488222                0.18495100                1.05072387               -0.84953065
              24.25086654               10.69723574               90.38735873                0.00010000               -2.68378181               -0.17455055                3.11757582               -0.09499426                0.62816196               -0.52662952
              25.21655068               10.14871112               89.94748033                0.00010000               -3.53253780               -0.21022664                3.85194014               -1.05104331               -4.13114299               -1.81399100
              26.18021578                9.59468201               89.45501522                0.00010000               -3.13397733               -0.14188348                2.40894285               -2.11872988               -9.26191255               -4.71774946
              27.15387113                9.03512962               88.91458550                0.00010000               -1.61096010                0.03551227               -0.98003762               -2.99248895              -13.49483828               -9.04400306
              28.14799658                8.47090848               88.34008903                0.00010000                0.82720867                0.30951983               -5.95285558               -3.48617251              -15.67353086              -14.45615778
              29.17041531                7.90351770               87.75408039                0.00010000                3.77464556                0.68107688              -11.94954553               -3.41364479              -14.64797664              -20.47527973
              30.22348949                7.33695135               87.18766765                0.00010000                6.60944546                1.23146387              -18.07438289               -2.43527863               -9.36725237              -26.40444528
              31.30260422                6.78059043               86.67933708                0.31382958                7.91147243                1.76893543              -22.99654144               -1.12299196               -4.16008630              -31.28301398
              21.81964493               13.34064738               91.47148374                0.95596796                0.00516513                0.06308951               -0.10326091                0.00480638               -0.00876293                0.56465775
              22.81969658               12.79098364               91.05310741                0.75136741               -0.00785799               -0.01192282                0.02926748                0.00423551               -0.02080875               -0.12518703
              23.81948777               12.24124273               90.63459062                0.00010000               -1.09525205               -0.08591956                0.16742380                0.17529662                1.15545578               -0.80284596
              24.79779154               11.69520592               90.23963783                0.00010000               -3.00156250               -0.22072307                3.56939358                0.01588947                0.63041337               -0.65488828
              25.75945652               11.14665356               89.78913206                0.00010000               -3.94406102               -0.19086108                4.34801738               -0.67415214               -4.83929869               -1.78424491
              26.71891032               10.59449302               89.27568645                0.00010000               -3.50404161                0.10228419                2.57400070               -1.44435145              -10.69562133               -4.15994371
              27.68937569               10.03888786               88.70480046                0.00010000               -1.84083033                0.68515548               -1.48580329               -2.10194651              -15.49682604               -7.62424087
              28.68209371                9.48051818               88.09316285                0.00010000                0.78674477                1.53369835               -7.40763115               -2.50930829              -17.92531186              -11.93566098
              29.70511058                8.92087892               87.46788936                0.00010000                3.96652853                2.60782909              -14.54163145               -2.48621528              -16.69692963              -16.73337530
              30.76142428                8.36337332               86.86585742                0.00010000                7.07982730                3.80058015              -21.88444104               -1.73515382              -10.63783400              -21.50312879
              31.84670713                7.81427494               86.33200587                0.31399182                8.52828455                4.79736713              -27.97555240               -0.83023415               -4.81532400              -25.53691920
              22.36971775               14.34120089               91.33217731                0.95485106                0.00830177                0.05033141               -0.11102775                0.00316991               -0.00773692                0.53108408
              23.36980076               13.79087771               90.91042996                0.76201265               -0.01038892               -0.00983378                0.03383779                0.00326692               -0.01498098               -0.11743396
              24.36950997               13.24049201               90.48860768                0.00010000               -1.20136335               -0.06918709                0.18334242                0.13001613                1.37009478               -0.76157296
              25.34577350               12.69282128               90.09444750                0.00010000               -3.28647136               -0.23218127                3.93232123                0.02319110                0.89884891               -0.73807807
              26.30378054               12.14489390               89.63734513                0.00010000               -4.33395216               -0.14528636                4.77209846               -0.41686920               -5.11605923               -1.67181926
              27.25909445               11.59672769               89.10898553                0.00010000               -3.89867479                0.33327982                2.77684909               -0.90003765              -11.53787317               -3.46035500
              28.22580705               11.04883273               88.51560253                0.00010000               -2.16375521                1.24795498               -1.76404534               -1.32202952              -16.80309257               -5.99589537
              29.21581935               10.50158245               87.87607544                0.00010000                0.60144057                2.54914239               -8.38540764               -1.59606762              -19.47375538               -9.11945698
              30.23783586                9.95567428               87.22110150                0.00010000                3.97855274                4.13109306              -16.37448161               -1.57188043              -18.13772582              -12.57329867
              31.29539040                9.41296295               86.59209790                0.00010000                7.31802251                5.82415921              -24.64905498               -1.07642577              -11.53251907              -15.94105920
              32.38419631                8.87653777               86.03879626                0.31427036                8.88059021                7.34308586              -31.65384300               -0.53535278               -5.28111150              -18.69460239
              22.92035468               15.34165401               91.19265584                0.95382821                0.01161187                0.04353958               -0.12065053                0.00106480               -0.00081309                0.48744791
              23.92047080               14.79078696               90.76780013                0.78766647               -0.01050778               -0.00850235                0.03353725                0.00161419               -0.01145084               -0.10805499
              24.92014453               14.23985899               90.34277711                0.00010000               -1.33086658               -0.06040353                0.19017870                0.07923974                1.79736531               -0.64521670
              25.89385347               13.69056230               89.95395293                0.00010000               -3.64659035               -0.19148846                4.29468772               -0.01644036                1.59239174               -0.72046377
              26.84721272               13.14374783               89.49539177                0.00010000               -4.84413650               -0.08661471                5.27403816               -0.24978945               -4.93925877               -1.40931965
              27.79697074               12.60115861               88.95843513                0.00010000               -4.45661887                0.52162543                3.19264281               -0.47267712              -11.90723700               -2.59103780
              28.75808034               12.06384696               88.34975504                0.00010000               -2.68199684                1.67455024               -1.65518524               -0.68146312              -17.69383002               -4.16750132
              29.74333080               11.53150102               87.69019813                0.00010000                0.21060634                3.28046731               -8.76374750               -0.83974848              -20.69137230               -6.10166038
              30.76229247               11.00350079               87.01355089                0.00010000                3.78507386                5.19477267              -17.36413908               -0.83563208              -19.34110256               -8.21987858
              31.81903228               10.47985651               86.36552160                0.00010000                7.32789821                7.22594717              -26.29297459               -0.56063275              -12.28954485              -10.14247317
              32.90885043                9.96113665               85.80016915                0.31445253                8.98181536                9.15924881              -33.90621436               -0.31634647               -5.70331490              -11.29769081
              23.47147313               16.34207168               91.05270940                0.95197284                0.01549422                0.04299722               -0.13315408               -0.00068200                0.03221239                0.37161431
              24.47162807               15.79070767               90.62519421                0.63315254               -0.00768476               -0.00737959                0.02738525                0.00032553                0.08153732               -0.11614266
              25.47131943               15.23928394               90.19869850                0.00010000               -1.50361123               -0.05516493                0.18300085                0.05609128                2.58109957               -0.49736302
              26.44155584               14.68899151               89.82100657                0.00010000               -4.15654992               -0.14314299                4.79430810               -0.00026191                2.85176229               -0.40208641
              27.38818843               14.14316161               89.36744819                0.00010000               -5.60070298               -0.07282076                6.07477397               -0.12608565               -4.18940622               -0.95296091
              28.32954178               13.60716020               88.82746479                0.00010000               -5.31765302                0.62674189                4.02745962               -0.17569361              -11.96692872               -1.48243990
              29.28183537               13.08232373               88.20944282                0.00010000               -3.50856158                1.91261086               -0.98806671               -0.24446470              -18.48233439               -2.16985741
              30.25937055               12.56719179               87.53581035                0.00010000               -0.45338199                3.67823619               -8.42761503               -0.32736783              -22.00091691               -3.03051974
              31.27276773               12.05956974               86.84301354                0.00010000                3.35856646                5.76761435              -17.46377816               -0.35119359              -20.78685753               -3.97791498
              32.32654188               11.55748189               86.18125845                0.00010000                7.12706758                7.97339902              -26.83603991               -0.23957325              -13.25377954               -4.75752993
              33.41530908               11.05972275               85.61163315                0.31443778                8.87672024               10.12147530              -34.73946978               -0.19317807               -6.27116298               -4.55233967
              24.02306907               17.34251395               90.91107992                0.97568514                0.01959816                0.04422686               -0.14752768               -0.02786313                0.19014228                0.27868466
              25.02326506               16.79063937               90.48230444                0.75851889               -0.00432826               -0.00682934                0.01550303               -0.02421455                0.28551016               -0.12483563
              26.02298251               16.23875569               90.05545895                0.31144229               -1.66472467               -0.05282504                0.17118573                0.01931088                4.10493387               -0.43847115
              26.98997056               15.68769944               89.70287752                0.30762787               -4.82300979               -0.12920725                5.80938969                0.01825824                5.69784396               -1.02934102
              27.92652231               15.14229142               89.25820614                0.30781345               -6.78379106               -0.08701891                7.47792486                0.13308877               -2.96444381               -1.28330694
              28.85429474               14.61369345               88.71955240                0.30760121               -6.66814284                0.65332509                5.54160639                0.46568358              -12.03029619               -1.37859536
              29.79315946               14.10209918               88.09594860                0.30829947               -4.73786507                1.97754450                0.41258169                0.70102313              -19.61492186               -1.43553081
              30.75953744               13.60506575               87.41168178                0.30876328               -1.40904805                3.78739557               -7.28895121                0.85438347              -23.88987135               -1.49498330
              31.76497849               13.11885307               86.70525791                0.31000429                2.72751821                5.92833363              -16.67732610                0.93401314              -23.10707906               -1.51153393
              32.81408780               12.63932449               86.02927060                0.31245699                6.77633354                8.18425929              -26.43853976                0.99024646              -15.30809138               -1.37198516
              33.90050517               12.16356616               85.45483760                0.65730227                8.64173624               10.38434125              -34.52496549                0.94377535               -7.98363821               -0.11768101
              18.93547798                7.48152311               93.30322255                0.98003585               -0.02551413               -0.00500844                0.08863362               -0.01692617               -0.42106557                0.39152167
              19.93522284                6.93323817               92.90201370                0.96402823               -0.02198762               -0.03046936                0.11663251               -0.02156282               -0.57497679                0.06020452
              20.93503823                6.38504873               92.49775818                0.94420375               -0.02723284               -0.06173706                0.18026587               -0.01341988               -0.61987277               -0.04421217
              21.93467818                5.83740895               92.09518579                0.66203788               -0.06510675               -0.05367892                0.19741191                0.01551497               -0.59025961               -0.22545776
              22.93373609                5.29039231               91.69080684                0.66259640               -0.11577308               -0.03795717                0.26017734                0.01628623               -0.44180499               -0.10032757
              23.93236272                4.74373064               91.28978951                0.68129928               -0.13428620               -0.03055476                0.24085403                0.01852504               -0.09707042               -0.06853302
              24.93105037                4.19720897               90.89122951                0.72366618               -0.11431147               -0.00797767                0.15621765                0.01443355                0.14780926               -0.05890471
              25.93007649                3.65084489               90.49449432                0.80221150               -0.06351451                0.02309688                0.02405960                0.01127140                0.27440426               -0.06169831
              26.92978008                3.10460552               90.09817355                0.95810709                0.00965835                0.05704073               -0.14616312               -0.00071735                0.21132061               -0.05375021
              27.93026966                2.55838483               89.69999764                0.96782221                0.07516392                0.09363137               -0.29351873               -0.01312087                0.07194033               -0.02091574
              28.93128335                2.01216857               89.30118527                0.98943986                0.10136985                0.13215973               -0.43960883               -0.01500780                0.00067999               -0.12489115
              19.48359366                8.48147303               93.16231487                0.96064396               -0.03492563                0.02302812                0.06120591               -0.02736459               -0.10899678                0.53498190
              20.48324440                7.93293348               92.76106596                0.90970044               -0.03875095               -0.01930360                0.08858973               -0.03384220               -0.16669809                0.08893685
              21.48281864                7.38443136               92.35889129                0.91267219               -0.05414322               -0.05861646                0.13515174               -0.00481529               -0.18417189               -0.12993903
              22.48216154                6.83687216               91.95724213                0.91193505               -0.10402663               -0.02778246                0.17239315                0.01051312               -0.11856925               -0.16055937
              23.48073811                6.29001274               91.55610793                0.91178833               -0.15109480               -0.02432328                0.21702737                0.01693967                0.01876317               -0.06377777
              24.47913964                5.74342510               91.15696532                0.91677071               -0.15502642               -0.01819405                0.20511339                0.01880817                0.22640538               -0.03955677
              25.47763758                5.19712920               90.75971205                0.92396780               -0.13243559                0.00015893                0.13903171                0.02142482                0.40604857               -0.03034713
              26.47649093                4.65107586               90.36397635                0.93102348               -0.08173206                0.02764279                0.02161328                0.02197469                0.51296249               -0.03785271
              27.47600294                4.10517593               89.96878596                0.93434710               -0.00670023                0.06008623               -0.13946165                0.01516789                0.46287064               -0.05543039
              28.47635692                3.55932114               89.57204679                0.94121627                0.06733000                0.09562257               -0.29609660                0.00540027                0.27239913               -0.03558659
              29.47734954                3.01349017               89.17333074                0.97770813                0.09926120                0.13231848               -0.43485776                0.00555250                0.13746374               -0.15886636
              20.03200979                9.48198367               93.02444121                0.96492745               -0.04221227                0.07400624                0.01843289               -0.01777610               -0.03562328                0.70294025
              21.03158766                8.93285210               92.62078111                0.90469471               -0.05032741               -0.00353980                0.05229262               -0.00613896                0.00976338                0.10995333
              22.03100324                8.38387640               92.21841606                0.00010000               -0.11403032               -0.08424345                0.09437624                0.12996218                0.27821020               -0.40951629
              23.02930706                7.83685330               91.82041987                0.00010000               -0.17406450                0.31459337                0.14478644                0.03401232                0.41941117                0.74988329
              24.02752195                7.28990585               91.42182799                0.00010000               -0.18423136                0.27792514                0.17393744               -0.84532242                0.40296871                0.26487490
              25.02562243                6.74336676               91.02424424                0.00010000               -0.18469256               -0.10552138                0.17349069               -1.88573303                0.51232868               -1.92199119
              26.02382810                6.19721215               90.62825859                0.00010000               -0.15765900               -0.79313255                0.12328728               -2.70108803                0.65649734               -5.64257995
              27.02246925                5.65139775               90.23364116                0.00010000               -0.09949704               -1.73659497                0.01813316               -2.93799934                0.75387230              -10.54660298
              28.02183816                5.10580725               89.83945091                0.00010000               -0.02029126               -2.89603111               -0.13158857               -2.23461488                0.73524498              -16.04708952
              29.02206342                4.56029728               89.44434515                0.00010000                0.06091000               -4.16907552               -0.30339359               -0.15893810                0.51172635              -21.21101909
              30.02305636                4.01481494               89.04585213                0.32618929                0.09929313               -6.01213559               -0.43896807                3.86684396                0.31236843              -24.95119923
              20.58150128               10.48295315               92.88675718                0.96369993               -0.02723878                0.10236437               -0.01908274                0.00967838                0.01319839                0.70056710
              21.58122890                9.93286268               92.48021262                0.78324080               -0.00423019               -0.00753380                0.01927187                0.02384379                0.01559742                0.03377367
              22.58141668                9.38274649               92.07399761                0.00010000               -0.22082824               -0.12394630                0.03759232                0.58383254                1.65846376               -0.69859869
              23.57681233                8.84316403               91.70010238                0.00010000               -1.20492436                0.36979577                2.27356681                0.43066187                2.40930933                1.82650847
              24.55731819                8.29557125               91.29308858                0.00010000               -2.13468271                0.32792373                2.94505837               -1.55128653               -0.86620493                0.77681740
              25.53411868                7.74131467               90.85314288                0.00010000               -2.08666823               -0.27221544                2.34299351               -3.68462906               -4.18567859               -3.57555751
              26.51558483                7.18126654               90.38396766                0.00010000               -1.24914160               -1.35244310                0.63643964               -5.35938465               -7.00782378              -10.89064496
              27.50913585                6.61634396               89.89265461                0.00010000                0.34131398               -2.85646131               -2.03621302               -6.02231589               -8.82756772              -20.49600711
              28.52241111                6.04725531               89.39027162                0.00010000                2.75173118               -4.73023495               -5.47394888               -5.10408741               -8.93471351              -31.35208310
              29.56417047                5.47593963               88.89335702                0.00010000                6.16199940               -6.95175371               -9.23160548               -2.69957473               -6.35858864              -41.93412459
              30.64565110                4.89324746               88.42310943                0.31088132                8.14806272               -8.96633598              -12.44616828                1.33703981               -2.37995572              -50.83834078
              21.13238429               11.48403096               92.74856839                0.96008431               -0.01130917                0.09736295               -0.04609261                0.01364307               -0.00278809                0.65282394
              22.13227120               10.93270142               92.33832265                0.75672727               -0.00028759               -0.01373539                0.01414213                0.02595898               -0.00595816               -0.05690317
              23.13237854               10.38139747               91.92817450                0.00010000               -0.35878331               -0.12343580                0.07274261                0.72383893                2.37047329               -0.78294886
              24.12509554                9.84424921               91.56536722                0.00010000               -1.70164837               -0.07057817                3.58842645                0.75658347                3.25934073                1.08619439
              25.09834557                9.29646432               91.14715760                0.00010000               -2.94304935               -0.15071026                4.66104335               -0.80519342               -1.90220802               -0.00071636
              26.06623455                8.73792245               90.67047660                0.00010000               -2.83672333               -0.43189199                3.53583611               -2.38293859               -7.32301635               -3.93783786
              27.04161111                8.17016329               90.14120641                0.00010000               -1.51001900               -0.89491856                0.49903516               -3.60583691              -11.92313697              -10.34259379
              28.03603417                7.59426852               89.57241141                0.00010000                0.92748155               -1.53553978               -4.18166428               -4.21948964              -14.71884824              -18.67429197
              29.06016074                7.01120255               88.98502333                0.00010000                4.30228062               -2.35124324              -10.11656385               -4.09159568              -14.49047295              -28.16570313
              30.12207978                6.42126221               88.40931338                0.00010000                7.75103830               -3.26174057              -16.54949618               -2.87754737               -9.63326382              -37.86560915
              31.21518150                5.83548822               87.88767917                0.31125190                9.31017237               -3.25265709              -22.02120897               -1.48940238               -4.21432535              -46.19827262
              21.68443322               12.48490041               92.60976792                0.95748316               -0.00516574                0.07537015               -0.06184737                0.01366263               -0.00730859                0.60317372
              22.68438156               11.93258797               92.19594055                0.76549675               -0.00437777               -0.00904270                0.01883050                0.01958614               -0.01783625               -0.08677302
              23.68434567               11.38027777               91.78202880                0.00010000               -0.37522074               -0.09516623                0.10561794                0.69543235                2.80998323               -0.77906087
              24.67687715               10.84175246               91.42466989                0.00010000               -1.84022907               -0.40383106                4.48389951                0.89124623                3.79297805                0.56106355
              25.64754109               10.29255704               90.99458614                0.00010000               -3.20581049               -0.58365430                5.74103573               -0.32472976               -2.65282274               -0.54690492
              26.61276094                9.73267683               90.48695248                0.00010000               -3.02095324               -0.59208611                4.14883837               -1.48745173               -9.35980399               -3.96631651
              27.58712202                9.16336817               89.90916071                0.00010000               -1.45270731               -0.44986398                0.05369916               -2.42090197              -14.99698707               -9.38893304
              28.58370679                8.58563317               89.27888662                0.00010000                1.32317462               -0.18496015               -6.18144544               -3.05349755              -18.29626627              -16.40714093
              29.61358551                8.00023044               88.62439621                0.00010000                4.93135278                0.19284360              -14.04072953               -3.23815884              -17.75221129              -24.51021342
              30.68233385                7.41070482               87.98633522                0.00010000                8.69127539                0.82408146              -22.57010503               -2.53469149              -11.68693680              -32.96461124
              31.78741102                6.82819431               87.41802136                0.31126133               10.50771713                1.54095058              -30.14117809               -1.21914008               -5.27662387              -40.72274083
              22.23728242               13.48553836               92.47061277                0.95564181                0.00031428                0.05434448               -0.07250544                0.01036209               -0.00733954                0.56673308
              23.23728556               12.93252057               92.05336802                0.77655566               -0.00798612               -0.00578046                0.02441672                0.01495612               -0.01581834               -0.09467854
              24.23712270               12.37949415               91.63604227                0.00010000               -0.33221859               -0.06680091                0.12717715                0.48967771                3.16444679               -0.74728166
              25.23064119               11.83617259               91.28231607                0.00010000               -1.80980423               -0.67928716                5.10947470                0.66142709                4.28050841                0.07951462
              26.20092661               11.28479124               90.84231320                0.00010000               -3.24834053               -0.92102808                6.45789305               -0.14686769               -3.04641487               -0.99467593
              27.16567438               10.72608073               90.31015756                0.00010000               -3.03449423               -0.68668729                4.48103997               -0.89423358              -10.59849413               -3.81614976
              28.14023673               10.16116601               89.69452435                0.00010000               -1.37862161                0.01443797               -0.42721561               -1.53371082              -16.89286965               -8.15110348
              29.13810195                9.59056932               89.01649789                0.00010000                1.50445904                1.11701714               -7.84605541               -2.04628793              -20.50973647              -13.73418731
              30.17032591                9.01505942               88.30978986                0.00010000                5.26600656                2.56550087              -17.18117670               -2.26674535              -19.81343021              -20.20687999
              31.24342208                8.43774384               87.62186228                0.00010000                9.27469037                4.25083828              -27.39044684               -1.76034289              -12.98339873              -27.05310868
              32.35581972                7.86630723               87.01377177                0.31169594               11.23976371                5.80411373              -36.73403270               -0.89606054               -5.95538570              -33.48708991
              22.79067605               14.48598730               92.33121751                0.95444803                0.00488491                0.03930666               -0.08211986                0.00663071               -0.00575614                0.53302637
              23.79072490               13.93247236               91.91072819                0.77506311               -0.00944293               -0.00465009                0.02731070                0.01035477               -0.01017321               -0.09392479
              24.79048720               13.37894175               91.49021342                0.00010000               -0.29581509               -0.04956523                0.14182868                0.14252044                3.57449019               -0.71921868
              25.78480860               12.82816672               91.14131749                0.00010000               -1.78958013               -0.88749049                5.57952492                0.14565158                4.94028873               -0.35262341
              26.75469559               12.27413648               90.69550766                0.00010000               -3.31535527               -1.17360748                7.01752815               -0.20379617               -3.03493651               -1.33792442
              27.71850150               11.71894308               90.14607606                0.00010000               -3.13681893               -0.71797246                4.78435110               -0.48492046              -11.22482991               -3.47531468
              28.69195921               11.16365693               89.50267268                0.00010000               -1.48069358                0.46411337               -0.70109735               -0.79651791              -18.04715936               -6.63254591
              29.68888762               10.60797351               88.78897335                0.00010000                1.45584386                2.24071697               -8.98281444               -1.12805508              -21.97192621              -10.66220260
              30.72107609               10.05154046               88.04287274                0.00010000                5.34957774                4.46989966              -19.41490824               -1.29988506              -21.22753390              -15.32713287
              31.79587918                9.49572159               87.31712758                0.00010000                9.56434626                6.95628171              -30.89123856               -1.02153797              -13.88439928              -20.20088250
              32.91236302                8.94427659               86.67853799                0.31172429               11.64838374                9.34152718              -41.58508429               -0.55579810               -6.43236643              -24.68590509
              23.34444491               15.48632450               92.19158946                0.95343842                0.00932981                0.03256597               -0.09360991                0.00241762                0.00155074                0.48758376
              24.34453821               14.93242757               91.76808499                0.78810995               -0.00830782               -0.00418188                0.02489744                0.00544404               -0.00727892               -0.09290495
              25.34427875               14.37850284               91.34444737                0.00010000               -0.30893535               -0.04229860                0.14777332               -0.30339184                4.19659377               -0.61885572
              26.33835950               13.81842278               91.00489546                0.00010000               -1.91022116               -1.06840235                6.02179651               -0.55038802                6.03070018               -0.63467933
              27.30607433               13.26131909               90.55924598                0.00010000               -3.59519901               -1.40853900                7.63856065               -0.33434364               -2.53765655               -1.44000831
              28.26645552               12.71172128               90.00035018                0.00010000               -3.53991922               -0.71022796                5.31658160               -0.17437573              -11.35150982               -2.85580149
              29.23527594               12.17044828               89.33832336                0.00010000               -1.93990987                0.84503002               -0.52726591               -0.21029455              -18.80029531               -4.78802630
              30.22765732               11.63538366               88.59921774                0.00010000                1.06520955                3.08250072               -9.39812868               -0.39965051              -23.14897807               -7.26004687
              31.25658013               11.10445741               87.82456795                0.00010000                5.12989360                5.81981907              -20.59963939               -0.54801803              -22.45632526              -10.11776125
              32.33025519               10.57686947               87.07222999                0.00010000                9.55068087                8.83659791              -32.94974995               -0.45326696              -14.67813612              -12.94507821
              33.44759375               10.05313778               86.41423649                0.31230168               11.73385589               11.86178625              -44.53428071               -0.31260427               -6.88427190              -15.06719233
              23.89851827               16.48663862               92.05150881                0.95122654                0.01371713                0.03347494               -0.10778613               -0.00087824                0.03320275                0.37017186
              24.89865544               15.93238873               91.62539606                0.62655793               -0.00470626               -0.00300429                0.01473197                0.00142968                0.08168171               -0.10878071
              25.89842414               15.37809578               91.20028835                0.00010000               -0.38354211               -0.03926812                0.13915349               -0.84743469                5.25856117               -0.48367897
              26.89098460               14.80679867               90.87756810                0.00010000               -2.18569603               -1.50299342                6.63928257               -0.87291743                7.84044988               -0.42650360
              27.85471022               14.24596570               90.44038058                0.00010000               -4.25499019               -1.59802859                8.64687790               -0.32932947               -1.31634990               -1.17033026
              28.80588479               13.70473852               89.87892200                0.00010000               -4.53096379               -0.68417837                6.38382476                0.03590738              -11.16610937               -1.77585608
              29.76409095               13.18055753               89.20577600                0.00010000               -2.94996571                1.08569294                0.35387295                0.08214351              -19.54564926               -2.58669610
              30.74688548               12.66962353               88.44898738                0.00010000                0.22694883                3.55623925               -8.90524476               -0.02688737              -24.57300998               -3.66770106
              31.76862992               12.16793684               87.65335884                0.00010000                4.56239997                6.55138825              -20.63602168               -0.14974949              -24.09819736               -4.94189664
              32.83813348               11.67245354               86.88224776                0.00010000                9.24721988                9.83454924              -33.55612782               -0.15159548              -15.79013844               -6.11488640
              33.95357432               11.18151231               86.21639767                0.31185169               11.54408421               13.21132159              -45.57997250               -0.20941092               -7.54363547               -6.18156450
              24.45292713               17.48699400               91.90973176                0.97541899                0.01825082                0.03553767               -0.12251521               -0.02176542                0.18758960                0.27693713
              25.45310964               16.93236748               91.48236913                0.75400892               -0.00035093               -0.00212452               -0.00027222               -0.01840600                0.28206590               -0.12167415
              26.45292011               16.37771748               91.05692561                0.31049698               -0.00392022               -0.03783010                0.12662252               -1.75063154                7.37388966               -0.43072774
              27.45303123               15.78836292               90.77121656                0.30740519               -2.56861112               -1.84357580                8.00540995               -1.21328467               12.01162616               -1.57648323
              28.40154789               15.22935852               90.34734909                0.30742784               -6.02247005               -1.66071829               10.51179233                0.16750656                0.50610112               -1.87643694
              29.33258183               14.69803772               89.78849023                0.30780815               -6.47570378               -0.67008088                8.38702411                0.80988482              -11.12110781               -1.93123008
              30.27203381               14.19216214               89.10853474                0.30783050               -4.64207830                1.16046024                2.22254881                1.21782309              -20.90462186               -1.94665444
              31.23974027               13.70650845               88.33827254                0.30824518               -1.06393431                3.68849198               -7.34002659                1.45163076              -26.89486390               -1.99805395
              32.25075513               13.23548518               87.52519860                0.30908365                3.69537728                6.75483367              -19.47786126                1.56512073              -26.97304846               -2.02795663
              33.31364781               12.77356045               86.73560930                0.31058992                8.72664350               10.11069098              -32.85634027                1.64538472              -18.35422911               -1.89238461
              34.42528800               12.31736421               86.06283914                0.65612318               11.16401847               13.58518937              -45.12292063                1.55174280               -9.69145786               -0.37717905
              19.33252516                7.62637513               94.30432915                0.97947645               -0.02579759               -0.01113313                0.12413657               -0.02687594               -0.38605441                0.36905710
              20.33226718                7.07491521               93.90321528                0.96099735               -0.01154095               -0.03370814                0.12059783               -0.03373740               -0.51709693                0.05735698
              21.33229434                6.52368303               93.49947736                0.91507203                0.00097785               -0.06673450                0.15884284               -0.01802930               -0.57083356               -0.05092081
              22.33228674                5.97335805               93.09689801                0.67301557               -0.00844105               -0.04760073                0.15147203                0.04461049               -0.54231978               -0.19723425
              23.33212552                5.42437189               92.69301714                0.67880051               -0.04562313               -0.02839793                0.19000049                0.04070533               -0.40175912               -0.08750395
              24.33137428                4.87610740               92.29175602                0.69436158               -0.08231774               -0.01372729                0.16306034                0.03713492               -0.11362736               -0.05828856
              25.33047916                4.32829883               91.89240686                0.72522943               -0.08033571                0.00921893                0.09037324                0.03405596                0.09763122               -0.04676941
              26.32976756                3.78080645               91.49449626                0.78212650               -0.04584479                0.03267532               -0.01346024                0.02884329                0.20963328               -0.05154668
              27.32956227                3.23349136               91.09686111                0.92408756                0.00800877                0.04907443               -0.12077309                0.01245826                0.14895537               -0.04776803
              28.32992774                2.68615904               90.69755839                0.95751726                0.05300724                0.06733856               -0.20756011               -0.00220159                0.02791270               -0.02132123
              29.33062241                2.13880263               90.29767166                0.98091880                0.06946744                0.08721776               -0.28909270               -0.00414998               -0.02863320               -0.11560599
              19.88371632                8.62626380               94.16315373                0.95958598               -0.04404615                0.02382141                0.09876443               -0.03457793               -0.09087558                0.50855298
              20.88327586                8.07457812               93.76200044                0.90747283               -0.04118476               -0.01993044                0.09497224               -0.04511971               -0.13326918                0.08351635
              21.88289262                7.52301568               93.36014542                0.90853612               -0.04437226               -0.06221441                0.11475542               -0.00407397               -0.14162268               -0.13260088
              22.88238841                6.97288204               92.95872739                0.90721672               -0.08673657               -0.01178827                0.12940382                0.03057611               -0.07329831               -0.13814494
              23.88115789                6.42408791               92.55793599                0.90683141               -0.13031306               -0.00655588                0.15359292                0.03649215                0.05190315               -0.06015862
              24.87978215                5.87597013               92.15862323                0.91067406               -0.13438465                0.00315764                0.13310910                0.03490345                0.22171074               -0.03843276
              25.87847020                5.32839102               91.76074761                0.91723585               -0.11612103                0.01924828                0.07547992                0.03546234                0.36987219               -0.02989538
              26.87745973                4.78113320               91.36397000                0.92282461               -0.07298239                0.03779358               -0.01498794                0.03067258                0.45254733               -0.03601887
              27.87701055                4.23398210               90.96746289                0.92326550               -0.01048224                0.05391013               -0.12492943                0.01876124                0.39575335               -0.04999779
              28.87725009                3.68683243               90.56950978                0.92129112                0.04633850                0.07108842               -0.21859884                0.00759678                0.22296425               -0.03415702
              29.87793732                3.13967481               90.16978818                0.96203034                0.06872359                0.08830724               -0.29375883                0.00806459                0.10742176               -0.14047967
              20.43520494                9.62685156               94.02484739                0.96405496               -0.05920396                0.08437260                0.05573840               -0.01978324               -0.02549266                0.67176250
              21.43461290                9.07451660               93.62134749                0.90465111               -0.06479995               -0.00041095                0.05889290               -0.00467931                0.02954740                0.10069106
              22.43390894                8.52243874               93.21924451                0.00010000               -0.13934341               -0.09612758                0.07284877                0.17924391                0.31487491               -0.41875536
              23.43182603                7.97312228               92.82165235                0.00010000               -0.20708362                0.92590817                0.10165588                0.66679860                0.46736767                2.03783863
              24.42976727                7.42424077               92.42326924                0.00010000               -0.20284024                0.96451920                0.11491028               -0.08798464                0.44298608                1.93384060
              25.42776923                6.87617056               92.02564150                0.00010000               -0.18709657                0.44122298                0.10688832               -1.14994801                0.53230854               -0.56924031
              26.42602534                6.32868380               91.62917777                0.00010000               -0.14896490               -0.54478230                0.06329919               -2.04684297                0.64178529               -5.19835435
              27.42478993                5.78156232               91.23362748                0.00010000               -0.08935370               -1.93235813               -0.01606141               -2.35995518                0.70007520              -11.53040468
              28.42423826                5.23456956               90.83814861                0.00010000               -0.02014809               -3.71342812               -0.12250307               -1.58430875                0.65587357              -18.89495040
              29.42438697                4.68758081               90.44165503                0.00010000                0.04303377               -5.83368581               -0.23569181                1.00710741                0.44506373              -26.15853467
              30.42509894                4.14056877               90.04218403                0.31687119                0.07119708               -9.30950983               -0.30681970                6.55988170                0.26850952              -31.75624521
              20.98799057               10.62795125               93.88676819                0.96291401               -0.03954823                0.11252590                0.01556615                0.01748263                0.01206709                0.67521310
              21.98759509               10.07456990               93.48043305                0.83015112               -0.00593773               -0.00509194                0.02420224                0.03303557                0.00847959                0.03935528
              22.98787182                9.52109313               93.07423316                0.00010000                0.31636319               -0.13316122                0.01454482                1.25972815                2.94793292               -0.66997766
              23.99392235                8.99140020               92.72653442                0.00010000               -0.57609453                1.13655155                3.08038077                2.14274894                4.80976414                4.44802473
              24.97634993                8.44337829               92.32760424                0.00010000               -2.07910961                1.25527194                4.02534735               -0.08013857                0.39208516                4.10138426
              25.95234016                7.88479459               91.88143244                0.00010000               -2.21041744                0.42968914                3.38564208               -2.32289347               -3.83619559               -0.90576667
              26.93214158                7.31749538               91.39378061                0.00010000               -1.39826489               -1.12755539                1.42946217               -4.16397535               -7.51480256               -9.99656121
              27.92437486                6.74248604               90.87303393                0.00010000                0.35821542               -3.34761914               -1.75349042               -5.02802016              -10.23320166              -22.37249708
              28.93930589                6.15971354               90.33195456                0.00010000                3.35090795               -6.23754109               -6.10059165               -4.19253357              -11.08811603              -36.89512825
              29.99139302                5.57015871               89.79154013                0.00010000                8.19265693               -9.95635736              -11.23605206               -1.93672172               -8.43950696              -51.79252312
              31.10315902                4.95348461               89.28273745                0.30907152               11.17660024              -14.02749627              -16.06129624                2.84899494               -3.36651057              -65.65433264
              21.54231728               11.62910207               93.74828380                0.95962410               -0.01855477                0.10034763               -0.01505069                0.02187544               -0.00177316                0.63682243
              22.54213173               11.07441476               93.33847025                0.79767306               -0.00220362               -0.01172870                0.01567303                0.03860760               -0.00302652               -0.03180027
              23.54227321               10.51977551               92.92875564                0.00010000                0.51320594               -0.11658611                0.04689774                1.56316908                4.41778561               -0.70797324
              24.55239585                9.99585331               92.60729813                0.00010000               -0.37515471                0.00539815                4.88621972                2.49085504                7.10271343                3.10754944
              25.53477011                9.44934621               92.20212587                0.00010000               -2.26007881               -0.03804310                6.41161287                0.68863700                0.35495018                2.53597344
              26.50719427                8.88476434               91.71374963                0.00010000               -2.48578646               -0.45599338                5.19523363               -0.85542697               -6.40727249               -2.02337293
              27.48505438                8.30613269               91.15149846                0.00010000               -1.25914561               -1.17311768                1.68052686               -2.01493634              -12.25518660               -9.95705764
              28.48201136                7.71460994               90.53098603                0.00010000                1.38302684               -2.19034246               -3.93985021               -2.69265289              -16.31069077              -20.63152292
              29.51271492                7.10981874               89.87659455                0.00010000                5.49350521               -3.55833160              -11.48174035               -2.87698425              -17.03558187              -33.25255152
              30.59188147                6.48845366               89.22622012                0.00010000               10.13560582               -5.25242423              -20.28819012               -2.25336533              -11.84466216              -46.91751110
              31.71542704                5.86001885               88.63855504                0.30922757               12.35455706               -5.67208003              -28.56584244               -1.31645881               -5.31744065              -60.04717483
              22.09780271               12.62995820               93.60930647                0.95709682               -0.01089100                0.07151918               -0.03354517                0.02123040               -0.00514789                0.59623397
              23.09769380               12.07433533               93.19612189                0.79496406               -0.00530340               -0.00561618                0.01810200                0.03110926               -0.01135742               -0.05753836
              24.09769664               11.51876141               92.78291169                0.00010000                0.82374789               -0.08315202                0.07494743                1.43641450                5.35792454               -0.71400325
              25.11416876               10.99150817               92.47703672                0.00010000                0.17574989               -0.78523511                6.07575360                2.42954748                8.63091228                2.06430090
              26.10121164               10.44261743               92.06230104                0.00010000               -1.78618107               -1.17538413                7.86079015                1.00415843                0.33973297                1.25851873
              27.07844514                9.87567472               91.53799199                0.00010000               -1.96071938               -1.28589503                6.10412780               -0.05246967               -7.86868765               -2.72770802
              28.06199725                9.29403302               90.91565948                0.00010000               -0.58046912               -1.18894384                1.33780886               -0.84359764              -14.88188117               -9.42357887
              29.06683576                8.69867919               90.21646012                0.00010000                2.29626104               -0.94311184               -6.16511472               -1.54320013              -19.55662166              -18.37500933
              30.10792247                8.08854691               89.47326580                0.00010000                6.46449258               -0.57769746              -16.13928871               -2.14031484              -20.04178631              -29.12922948
              31.19612561                7.46511023               88.73626555                0.00010000               11.28884995                0.15325641              -27.77097247               -2.13054877              -13.73954486              -41.05575919
              32.33369947                6.84004301               88.07651352                0.30924408               13.75738663                1.19988268              -39.19364114               -1.08905207               -6.30492037              -53.19708155
              22.65398763               13.63053246               93.47003363                0.95529168               -0.00369159                0.04632647               -0.04575819                0.01592521               -0.00470375                0.56441278
              23.65395071               13.07430243               93.05359574                0.79281923               -0.00794823               -0.00265385                0.02199936                0.02437996               -0.00929659               -0.06901987
              24.65382866               12.51811247               92.63713416                0.00010000                1.15900339               -0.05294369                0.09521408                0.92799996                6.05127484               -0.69567721
              25.67713078               11.98014861               92.34182732                0.00010000                0.84290325               -1.41593750                6.86402424                1.64211653                9.81463178                1.05552769
              26.67068673               11.42583852               91.91828992                0.00010000               -1.12007455               -2.07073982                8.76273354                0.80047144                0.49604158                0.09895382
              27.65472929               10.85904644               91.36530725                0.00010000               -1.27543809               -1.93229687                6.55054946                0.27514909               -8.60984734               -3.20833321
              28.64517796               10.28235381               90.69625615                0.00010000                0.09520925               -1.08251134                0.82179220               -0.16647106              -16.30626979               -8.53590442
              29.65663347                9.69574770               89.93624174                0.00010000                2.91498110                0.34696783               -8.10773469               -0.73720054              -21.34295865              -15.62953024
              30.70347759                9.09826479               89.12426582                0.00010000                7.05704593                2.29033105              -19.92706260               -1.35102190              -21.77242020              -24.20986801
              31.79777439                8.49151879               88.31804848                0.00010000               12.01514192                4.67336827              -33.78660906               -1.41683641              -14.85368213              -33.86703192
              32.94378042                7.88401650               87.59732522                0.30976664               14.60060343                7.11559707              -47.76773776               -0.79879441               -6.90817245              -43.83091610
              23.21058126               14.63088473               93.33053491                0.95441151                0.00201240                0.02909627               -0.05650034                0.01010292               -0.00240869                0.53150847
              24.21060138               14.07428225               92.91097618                0.77908645               -0.00853974               -0.00207191                0.02337391                0.01672002               -0.00347625               -0.07491187
              25.21041047               13.51770253               92.49144425                0.00010000                1.43418263               -0.03527640                0.10904243                0.11722152                6.70841162               -0.68016095
              26.23928504               12.96318942               92.20603800                0.00010000                1.39563886               -1.92652552                7.41470517                0.30190940               10.99487418                0.11251594
              27.23832324               12.40120263               91.77769570                0.00010000               -0.59261035               -2.78818925                9.40940176                0.20787565                0.95430285               -0.91357453
              28.22743283               11.83702878               91.20467255                0.00010000               -0.81783358               -2.39248956                6.89561694                0.36570185               -8.81007247               -3.42048081
              29.22196657               11.27238280               90.50158059                0.00010000                0.43739686               -0.86853487                0.49202221                0.33093341              -17.05782629               -7.26463562
              30.23618077               10.70561854               89.69641915                0.00010000                3.15821866                1.52691806               -9.46603691               -0.02780445              -22.46116982              -12.35097787
              31.28513094               10.13435353               88.83280334                0.00010000                7.29282001                4.61973347              -22.63998517               -0.51824142              -22.94345988              -18.52215962
              32.38203717                9.55857759               87.97427313                0.00010000               12.37986075                8.21579882              -38.14767272               -0.69859763              -15.63983354              -25.40630355
              33.53272816                8.98235495               87.20709457                0.30999327               15.06909919               11.89583104              -54.00923246               -0.45368548               -7.34123089              -32.38166093
              23.76739464               15.63111438               93.19078364                0.95301969                0.00726710                0.02240445               -0.06930530                0.00373228                0.00538491                0.48487805
              24.76746731               15.07426100               92.76829808                0.77888723               -0.00643534               -0.00171722                0.01881157                0.00866689               -0.00041099               -0.08273233
              25.76726593               14.51740694               92.34573258                0.00010000                1.61007798               -0.02852063                0.11329009               -0.93673761                7.56194433               -0.59533792
              26.79966887               13.94161810               92.07438886                0.00010000                1.68694714               -2.45245409                7.90405639               -1.41723166               12.57805034               -0.60449387
              27.80100487               13.37007474               91.64816298                0.00010000               -0.44028529               -3.47753725               10.10043499               -0.41185797                1.89973847               -1.54718160
              28.79086316               12.81119665               91.06476676                0.00010000               -0.88989997               -2.67628771                7.49350493                0.41498639               -8.53420197               -3.19593365
              29.78320687               12.26498312               90.33920972                0.00010000                0.16217435               -0.60021866                0.68499534                0.69899268              -17.50322357               -5.49409578
              30.79410665               11.72628606               89.50223556                0.00010000                2.84734199                2.45822119               -9.95869530                0.49115439              -23.43656818               -8.57484465
              31.84015371               11.19065946               88.60155810                0.00010000                7.08471849                6.28738121              -24.06113895                0.09805827              -24.07029156              -12.33961187
              32.93580102               10.65583477               87.70652660                0.00010000               12.34991403               10.66136330              -40.67853169               -0.15316130              -16.40220353              -16.36584414
              34.08715199               10.12193312               86.90948353                0.30993192               15.13509752               15.25669275              -57.75439315               -0.21974511               -7.79184973              -19.89554004
              24.32436268               16.63133282               93.05055368                0.95104245                0.01194816                0.02462028               -0.08453559               -0.00091653                0.03432581                0.36735226
              25.32448216               16.07424791               92.62548885                0.61141140               -0.00220346               -0.00006259                0.00515832                0.00222589                0.08544195               -0.10624585
              26.32431861               15.51713212               92.20148157                0.00010000                1.68952242               -0.02701672                0.10362143               -2.28803168                8.96033555               -0.47280425
              27.35827261               14.91414033               91.95379223                0.00010000                1.80944642               -3.63726233                8.61225076               -2.26847475               15.06432106               -0.54215871
              28.36050754               14.33165189               91.54038575                0.00010000               -0.87242137               -3.96245396               11.28442069               -0.61357527                3.74449916               -1.53116973
              29.34082418               13.78350303               90.95514128                0.00010000               -1.98252630               -2.76321232                8.76173355                0.42751520               -7.98122996               -2.18337654
              30.32085701               13.26037842               90.21652028                0.00010000               -1.02483350               -0.36672623                1.75602210                0.66788844              -18.10345301               -3.09659584
              31.32032751               12.75478297               89.35770545                0.00010000                1.83431959                3.01241392               -9.32109448                0.52961959              -24.89179025               -4.41537897
              32.35754340               12.26010116               88.43029310                0.00010000                6.36863839                7.19774800              -24.03441136                0.25244722              -25.84821549               -6.08548170
              33.44770028               11.77180486               87.51013589                0.00010000               11.92965698               11.94594734              -41.34430294                0.04746573              -17.62969504               -7.77832359
              34.59613654               11.28748881               86.70003370                0.31035859               14.84362641               17.06032618              -59.02323004               -0.17838825               -8.52662061               -8.29891137
              24.88154612               17.63160679               92.90862962                0.97523637                0.01663993                0.02739692               -0.09861393               -0.01635989                0.18380766                0.27498981
              25.88171252               17.07425974               92.48229900                0.74685036                0.00333735                0.00118347               -0.01173174               -0.01397266                0.28320743               -0.12253861
              26.88161287               16.51686661               92.05799140                0.30984341                2.90335410               -0.02655105                0.09146807               -4.53991844               11.85838710               -0.42609603
              27.93977960               15.86887285               91.86298572                0.30758838                1.88789005               -4.52674809               10.36905293               -3.15134789               20.95968689               -2.39068575
              28.91937067               15.29082566               91.46844199                0.30757806               -3.45463374               -4.08262271               13.64105732                0.23929064                6.30550574               -2.72329411
              29.87068693               14.75593240               90.88729288                0.30767290               -4.70429842               -2.75706300               11.26830782                1.32742142               -7.80207785               -2.69234510
              30.82528470               14.25764859               90.14039958                0.30770689               -3.28553114               -0.27298305                4.10369271                1.97286600              -19.69825542               -2.63471043
              31.80497631               13.78653434               89.26488125                0.30714465                0.14480330                3.17513696               -7.30468888                2.31317098              -27.66060731               -2.67471947
              32.82818077               13.33461442               88.31570068                0.30802675                5.21931871                7.45132654              -22.45932040                2.47470528              -29.30340891               -2.73296920
              33.90936268               12.89475371               87.37214380                0.30897436               11.20177792               12.29488568              -40.28407419                2.59250150              -20.74146288               -2.62345818
              35.05221633               12.46313965               86.55237919                0.65506559               14.28536461               17.56508403              -58.26748820                2.44657178              -11.15047354               -0.84818397
              19.72998464                7.77125509               95.30570528                0.97887570               -0.02519481               -0.01292420                0.14270738               -0.03419863               -0.34906133                0.34496211
              20.72973269                7.21681500               94.90442565                0.95812591               -0.00229044               -0.03434053                0.11781032               -0.04258055               -0.45727638                0.05295956
              21.72993883                6.66269420               94.50093504                0.90664023                0.02796589               -0.06820022                0.12896322               -0.01843486               -0.51152409               -0.05552131
              22.73029200                6.10980550               94.09821523                0.69635298                0.04520327               -0.04505751                0.11560530                0.06681712               -0.48532827               -0.16882808
              23.73084289                5.55880454               93.69460685                0.69779308                0.02042267               -0.02470719                0.13684761                0.05499120               -0.36642673               -0.07748969
              24.73070046                5.00883045               93.29305072                0.69976358               -0.02900667               -0.00594889                0.10719063                0.04555322               -0.13417522               -0.05402370
              25.73026276                4.45959207               92.89303698                0.70910314               -0.04427796                0.01683098                0.04743154                0.04435156                0.04308245               -0.04311245
              26.72981490                3.91086648               92.49422511                0.73556347               -0.02828517                0.03577807               -0.03163299                0.04389636                0.14237413               -0.04459134
              27.72969705                3.36244660               92.09575809                0.82685716                0.01012307                0.04418728               -0.11122459                0.02757265                0.09393122               -0.05176612
              28.73001736                2.81405561               91.69584644                0.95200086                0.03935418                0.04857422               -0.15303271                0.00619764               -0.00741088               -0.02565878
              29.73048414                2.26562342               91.29540341                0.97673059                0.04667782                0.05447870               -0.18404935                0.00248517               -0.04571805               -0.10128620
              20.28408274                8.77112585               95.16429016                0.95897734               -0.04954119                0.02746888                0.12094500               -0.03967077               -0.07214866                0.47943243
              21.28358733                8.21647159               94.76296540                0.90525068               -0.04117562               -0.01908472                0.09468555               -0.05324254               -0.09855412                0.07611704
              22.28325923                7.66201219               94.36118640                0.90580179               -0.03411634               -0.06403214                0.09318823               -0.00298092               -0.09485664               -0.13352892
              23.28290500                7.10935492               93.95983021                0.90472792               -0.06894515               -0.00012280                0.09476270                0.04414751               -0.02559524               -0.11533252
              24.28188033                6.55855747               93.55917979                0.90420458               -0.10713867                0.00549337                0.10148213                0.04828324                0.08106995               -0.05520522
              25.28076223                6.00877096               93.15962750                0.90735151               -0.10960332                0.01711509                0.07521446                0.04312603                0.21436660               -0.03870074
              26.27968826                5.45976038               92.76122165                0.91241239               -0.09678162                0.03100010                0.02741345                0.04341827                0.33336770               -0.03155695
              27.27882660                4.91122426               92.36367659                0.91621556               -0.06550210                0.04296187               -0.03479854                0.04065516                0.39417112               -0.03356271
              28.27837822                4.36288847               91.96628737                0.91434483               -0.01678354                0.04849850               -0.10806250                0.02740541                0.33686123               -0.04635925
              29.27849093                3.81454135               91.56767481                0.90896317                0.02814823                0.05203116               -0.15826302                0.00958307                0.17909645               -0.03293854
              30.27894118                3.26616821               91.16745556                0.95385501                0.04502560                0.05586684               -0.19010361                0.00690629                0.07842968               -0.11699359
              20.83849973                9.77180447               95.02555598                0.96295497               -0.07182392                0.09475756                0.07929282               -0.02060847               -0.01475392                0.63568976
              21.83778149                9.21643330               94.62195897                0.90496753               -0.07519257                0.00277189                0.06149114               -0.00223635                0.05008069                0.08893038
              22.83699588                8.66141355               94.21987303                0.00010000               -0.15759072               -0.10881928                0.05481660                0.21922382                0.35163948               -0.42733628
              23.83462968                8.10980304               93.82245299                0.00010000               -0.23016825                1.85619066                0.06179850                1.71161953                0.51375430                3.78557908
              24.83239251                7.55891441               93.42412619                0.00010000               -0.21348015                2.00924151                0.06035690                1.38756360                0.48065686                4.20878874
              25.83036007                7.00917276               93.02638201                0.00010000               -0.18573450                1.31601234                0.04491844                0.58769115                0.54816354                1.37561235
              26.82867782                6.46021207               92.62952458                0.00010000               -0.14300835               -0.03728752                0.01026152               -0.17240063                0.62548792               -4.27352194
              27.82749991                5.91172572               92.23331994                0.00010000               -0.08748758               -1.98443947               -0.03829904               -0.46621184                0.65096313              -12.28718302
              28.82692807                5.36341657               91.83700085                0.00010000               -0.02853109               -4.59908319               -0.09764919                0.35674425                0.58064576              -22.01625955
              29.82692929                4.81509624               91.43963132                0.00010000                0.02202424               -7.95086383               -0.16534511                3.47153516                0.37952022              -32.19283237
              30.82736856                4.26674076               91.03971574                0.31158375                0.04392722              -14.11892106               -0.19626818               11.01370533                0.22459004              -40.64224061
              21.39441290               10.77302100               94.88706850                0.96189053               -0.04793826                0.12123311                0.03899718                0.02441384                0.01165544                0.64360277
              22.39393352               10.21652703               94.48069667                0.87741808               -0.00694662               -0.00283639                0.02797240                0.03860778                0.00327808                0.03991823
              23.39427397                9.65983581               94.07428851                0.00010000                1.28515086               -0.14270388                0.00278492                2.24310958                4.69823777               -0.64310091
              24.41963653                9.14647874               93.76171000                0.00010000                0.79939577                2.30474318                3.97986858                4.90281931                8.20985639                8.00770894
              25.41026188                8.59874230               93.37359553                0.00010000               -1.42090703                2.67862892                5.13555905                2.76065238                2.59363614                8.61121723
              26.39121839                8.03509121               92.92085572                0.00010000               -1.82873010                1.58613421                4.44518621                0.93143789               -2.33730352                2.90420790
              27.37368728                7.45901463               92.41255690                0.00010000               -1.24602674               -0.55344031                2.36178472               -0.64812931               -6.70084173               -8.17275601
              28.36629786                6.87153547               91.85758480                0.00010000                0.42276530               -3.67569226               -1.15544772               -1.54417291              -10.49788571              -23.77385944
              29.38214259                6.27090681               91.26825979                0.00010000                3.91497901               -7.92881455               -6.41489139               -0.93622326              -12.71867346              -42.88039404
              30.44459744                5.65552408               90.66863598                0.00010000               10.68918282              -13.84548353              -13.35301302                0.45898689              -10.69490399              -63.69144283
              31.59592624                4.98378979               90.10188351                0.30700054               15.13288039              -21.29860485              -20.64337876                5.66628583               -4.57789477              -85.22690820
              21.95197595               11.77422913               94.74826738                0.95900697               -0.02371061                0.10271325                0.00775622                0.02907028               -0.00061546                0.61466724
              22.95173884               11.21637658               94.33863611                0.83447754               -0.00347892               -0.01076616                0.01699592                0.04730097                0.00066027               -0.01400446
              23.95190637               10.65855948               93.92911245                0.00010000                2.10203651               -0.11083136                0.02577793                2.79183444                7.18429581               -0.64140516
              24.99377957               10.15589790               93.66309162                0.00010000                2.35433594                0.10152777                6.27104709                5.21985124               12.56501862                5.79785612
              25.99899309                9.61248699               93.27538986                0.00010000               -0.25315309                0.14105309                8.11992946                3.40580630                4.28268065                5.91804752
              26.98871651                9.04089544               92.77438128                0.00010000               -0.98610554               -0.42630832                6.77134288                2.37333117               -3.39519202                0.68050992
              27.97927097                8.44914326               92.17481695                0.00010000               -0.19961202               -1.44378592                2.95631844                1.73227108              -10.13498949               -8.95706963
              28.98472427                7.83821188               91.49361441                0.00010000                2.24720145               -2.93291040               -3.34123748                1.21835990              -15.62471720              -22.32360111
              30.02421500                7.20484028               90.75538853                0.00010000                6.92508883               -5.04661154              -12.49689317                0.53882301              -18.11896601              -38.77550048
              31.12322604                6.53818657               90.00354958                0.00010000               12.99739261               -7.88813985              -24.32797347               -0.21869087              -13.54306607              -57.76513623
              32.28416286                5.84076866               89.31636232                0.30786138               16.09368122               -8.91536397              -36.78566445               -0.49726834               -6.27545285              -78.15883165
              22.51069941               12.77507527               94.60909702                0.95663359               -0.01502220                0.06845225               -0.01176107                0.02805269               -0.00232257                0.58399684
              23.51054919               12.21631171               94.19630259                0.81699343               -0.00550430               -0.00453454                0.01797217                0.04020872               -0.00457455               -0.03543145
              24.51058933               11.65761918               93.78352775                0.00010000                2.97784265               -0.07557175                0.05167041                2.51039154                8.77209319               -0.65758077
              25.57010605               11.14850929               93.54618496                0.00010000                4.13955731               -1.38080156                7.70632162                4.79713402               15.46380434                4.00502536
              26.59338047               10.60156336               93.15180194                0.00010000                1.59613497               -2.05556658                9.82182424                3.32150943                5.47162218                3.61014039
              27.60202874               10.02656504               92.60903503                0.00010000                0.88178961               -2.28309635                7.82932790                2.76851213               -3.62504087               -0.98273843
              28.61101627                9.43013891               91.93591688                0.00010000                1.64696487               -2.23082224                2.59027846                2.51090439              -11.49007315               -9.07171644
              29.63496804                8.81287727               91.15558432                0.00010000                4.09640455               -2.00960957               -5.87491140                1.91722522              -17.64360827              -20.20692040
              30.69294436                8.16997458               90.30161043                0.00010000                8.46635985               -1.67578761              -17.96657597                0.68698892              -20.03245466              -34.15076808
              31.80429524                7.49776128               89.43091577                0.00010000               14.39361637               -0.78954740              -33.45760925               -0.72145343              -14.72277363              -50.63163105
              32.98081668                6.80548251               88.63414853                0.30774144               17.65214459                0.91695946              -50.45120861               -0.48088042               -6.89400890              -69.13129310
              23.07006411               13.77559818               94.46969760                0.95549111               -0.00650154                0.03960953               -0.02448671                0.02106761               -0.00105877                0.55758831
              24.06999910               13.21628589               94.05380801                0.80153370               -0.00737493               -0.00199598                0.02070774                0.03233537               -0.00172306               -0.04978668
              25.06991661               12.65704804               93.63794655                0.00010000                3.78894845               -0.04395305                0.07073379                1.55001354                9.87941465               -0.65095259
              26.14577807               12.12828187               93.41959655                0.00010000                5.87254526               -2.53268917                8.59249723                3.13381075               17.54866587                2.25880319
              27.18736752               11.57137566               93.01756787                0.00010000                3.48665696               -3.77857165               10.78926214                2.43591315                6.45336360                1.47698153
              28.21551121               10.99523351               92.44116855                0.00010000                2.79046604               -3.77455438                8.25107603                2.47687861               -3.46342799               -2.32547216
              29.24317684               10.40452682               91.71096019                0.00010000                3.38609482               -2.73641307                1.91361688                2.54129933              -11.92245535               -8.70299643
              30.28323310                9.79801968               90.85434319                0.00010000                5.49469634               -0.89585654               -8.19711248                2.01355726              -18.42924808              -17.47013905
              31.35307077                9.17132453               89.91124860                0.00010000                9.50279710                1.69152059              -22.49480315                0.78922466              -20.91094231              -28.54595628
              32.47328904                8.52239562               88.94613010                0.00010000               15.30160133                5.06780579              -40.80473272               -0.38603223              -15.33094675              -41.80039306
              33.65910279                7.85910785               88.05841702                0.30815317               18.58137501                8.95012736              -61.28918183               -0.37483538               -7.26614937              -56.64816808
              23.62974535               14.77586746               94.33008750                0.95403189                0.00006885                0.02025567               -0.03578675                0.01341381                0.00226196                0.52603327
              24.62974604               14.21627179               93.91119567                0.77067175               -0.00758679               -0.00128189                0.02109039                0.02273084                0.00535387               -0.06206838
              25.62959361               13.65674012               93.49239427                0.00010000                4.43543036               -0.02446355                0.08535080                0.05469836               10.81463622               -0.64832591
              26.71845464               13.09785551               93.28961160                0.00010000                7.27767437               -3.48515992                9.15793582                0.54819227               19.35064605                0.61861887
              27.77514710               12.52599193               92.88369569                0.00010000                4.99802573               -5.18451279               11.41992044                0.97710617                7.52080118               -0.43353475
              28.81841516               11.95107396               92.28398840                0.00010000                4.19544914               -4.89498191                8.52993882                1.93161217               -2.99249463               -3.28645268
              29.85905608               11.37541065               91.51251313                0.00010000                4.50131610               -2.94500744                1.43528313                2.42260043              -11.96472170               -7.81595665
              30.90844148               10.79496014               90.59965261                0.00010000                6.26484182                0.22903939               -9.84858341                2.08694095              -18.88122357              -14.04037573
              31.98435292               10.20380499               89.59007304                0.00010000               10.01748954                4.44254406              -25.74447208                1.09848789              -21.56417581              -21.96412383
              33.10879127                9.59911740               88.55417413                0.00010000               15.77712968                9.56471053              -46.08850884                0.08383571              -15.85032871              -31.36443862
              34.29989551                8.98448505               87.59835334                0.30806581               19.11042414               15.15900009              -69.01553402               -0.12622943               -7.58809998              -41.66812166
              24.18952372               15.77600329               94.19020335                0.95281770                0.00573264                0.01361155               -0.04923242                0.00515067                0.01034213                0.47896994
              25.18958105               15.21626025               93.76846122                0.75553881               -0.00484305               -0.00044472                0.01457125                0.01229165                0.00888713               -0.07910510
              26.18942686               14.65655877               93.34671317                0.00010000                4.89545256               -0.01796215                0.08803611               -1.89738532               11.91355900               -0.57898009
              27.28749010               14.05857868               93.16297659                0.00010000                8.21321651               -4.52484342                9.63237721               -2.69805866               21.48989786               -0.68835374
              28.35369119               13.46768540               92.76125468                0.00010000                5.86173160               -6.54643167               12.09485949               -0.40703754                9.03612611               -1.77908048
              29.40472473               12.89733387               92.15022027                0.00010000                4.70257388               -5.62645425                9.11193270                1.48258872               -2.14185526               -3.60968035
              30.44774267               12.34562667               91.35202327                0.00010000                4.59264226               -2.89874434                1.58370019                2.28341171              -11.91234950               -6.22415250
              31.49657758               11.80260047               90.40004383                0.00010000                6.15702967                1.18550598              -10.45868654                2.06920535              -19.47061917               -9.93078526
              32.57088326               11.26017541               89.34334517                0.00010000                9.88540567                6.41398200              -27.41889248                1.29858056              -22.43974438              -14.72941118
              33.69428569               10.71368983               88.25865935                0.00010000               15.74798127               12.60762377              -49.09085346                0.45600798              -16.50147592              -20.22966369
              34.88584289               10.16228785               87.25914863                0.30828258               19.15571975               19.40766862              -73.55098470                0.02734148               -8.00048953              -25.63137017
              24.74933444               16.77613969               94.04981809                0.95053173                0.01019453                0.01693127               -0.06436370               -0.00063923                0.03508940                0.36297163
              25.74943639               16.21626289               93.62549922                0.58540695               -0.00034829                0.00180838               -0.00207281                0.00360740                0.09259944               -0.10929880
              26.74932748               15.65638088               93.20236078                0.00010000                5.19652240               -0.01914309                0.07728512               -4.44649928               13.68647026               -0.46692958
              27.85336684               15.00735864               93.04981312                0.00010000                8.94618357               -6.82082272               10.37401229               -4.35166508               24.74743519               -0.80840548
              28.92825115               14.39506330               92.66606900                0.00010000                5.83794143               -7.44526198               13.38294264               -0.95770611               11.65227938               -2.08461139
              29.97012567               13.83854487               92.05415667                0.00010000                3.56032846               -5.87231283               10.51178309                1.11152039               -1.09349921               -2.71065279
              30.99945772               13.31743576               91.24089644                0.00010000                3.25755915               -2.69586730                2.79237609                1.64315222              -12.24826344               -3.66547349
              32.03527685               12.81867026               90.26256549                0.00010000                4.98887275                1.80309912               -9.69967644                1.46491549              -20.84418760               -5.21083768
              33.09923517               12.33208463               89.17267061                0.00010000                9.02610682                7.49176175              -27.31482708                0.95703761              -24.25825514               -7.32356777
              34.21579898               11.85126987               88.05536170                0.00010000               15.20055598               14.16928224              -49.76738627                0.42040748              -17.78523639               -9.64525228
              35.40324629               11.37263843               87.03593307                0.30830867               18.74473080               21.67108449              -74.98130301               -0.06490190               -8.77739661              -10.80487154
              25.30926453               17.77634191               93.90775948                0.97486209                0.01474832                0.02022278               -0.07634377               -0.01154173                0.17864591                0.27266868
              26.30941201               17.21629642               93.48213449                0.73404552                0.00683037                0.00335214               -0.01944298               -0.01073837                0.28897917               -0.12766726
              27.30940113               16.65617591               93.05875497                0.30907810                7.61811856               -0.02049695                0.06667835               -8.69934421               17.57243467               -0.42595789
              28.46177438               15.92216222               92.97859762                0.30744479                9.69748526               -8.51964182               12.52767877               -6.02903292               32.77200082               -3.55987109
              29.50335084               15.31878016               92.62017024                0.30787189                2.14041499               -7.62831347               16.20089439                0.39623876               15.04727906               -3.88108752
              30.50458268               14.77988762               92.01385638                0.30747375               -0.14352527               -5.86572547               13.46100465                2.09215942               -0.78331755               -3.68467625
              31.50048033               14.29170932               91.19060860                0.30737024                0.33221701               -2.57264366                5.56173051                3.04100328              -14.07163346               -3.50897795
              32.51122702               13.83866245               90.19217876                0.30696464                2.84720335                1.99921990               -7.25002199                3.51008309              -24.01948146               -3.53782373
              33.55742440               13.41001064               89.07601219                0.30662804                7.54565120                7.79260132              -25.28448628                3.73957355              -28.26178503               -3.64924807
              34.66214004               12.99707547               87.92992781                0.30755889               14.21916710               14.58056003              -48.26527448                3.91905087              -21.45135038               -3.58581097
              35.84180774               12.59570954               86.89748938                0.65424683               17.96676981               22.30711143              -73.83486558                3.71955180              -11.91205350               -1.54255525
              20.12810319                7.91610462               96.30718330                0.97813458               -0.02112923               -0.01028763                0.14371243               -0.03900463               -0.30863423                0.31859948
              21.12789190                7.35889490               95.90557149                0.95540500                0.00855474               -0.03277542                0.10652127               -0.05007382               -0.39673584                0.04647995
              22.12827428                6.80206988               95.50205663                0.93358301                0.05082352               -0.06627667                0.09741090               -0.02152905               -0.43802521               -0.04891211
              23.12890837                6.24675152               95.09921011                0.73386396                0.08436038               -0.04138899                0.08380753                0.07779294               -0.41080822               -0.13586778
              24.12996149                5.69367622               94.69575410                0.71673926                0.06761373               -0.02117568                0.10086422                0.05814276               -0.32784361               -0.06724830
              25.13026064                5.14187336               94.29389984                0.69662562                0.01024638               -0.00085360                0.07404315                0.04624953               -0.14917000               -0.05406060
              26.13016642                4.59106725               93.89335549                0.67885908               -0.01833529                0.02050398                0.02926843                0.04912005               -0.00566301               -0.04716687
              27.12989393                4.04101167               93.49386360                0.67378651               -0.01734245                0.03554587               -0.03227599                0.05486070                0.07187589               -0.04232748
              28.12981957                3.49139747               93.09463662                0.72135044                0.01201300                0.04146924               -0.10802149                0.04187177                0.03533981               -0.04469863
              29.13013419                2.94198912               92.69449773                0.80277603                0.03872640                0.03996551               -0.15435135                0.01672045               -0.03334286               -0.04373104
              30.13059410                2.39267261               92.29399067                0.96364427                0.04599019                0.03499972               -0.17774843                0.00338107               -0.04035761               -0.12896494
              20.68492286                8.91600174               96.16557263                0.95775136               -0.05143290                0.03411938                0.12761778               -0.04342445               -0.05347007                0.44709576
              21.68440853                8.35856715               95.76389415                0.90303524               -0.03960881               -0.01654823                0.08799496               -0.05945331               -0.06385481                0.06685211
              22.68413068                7.80140711               95.36200919                0.90398946               -0.02627025               -0.06399834                0.07254976               -0.00280411               -0.04433041               -0.12842165
              23.68388312                7.24633763               94.96062265                0.90415512               -0.05743423                0.01012760                0.06630186                0.04984741                0.02511069               -0.09019948
              24.68298200                6.69346446               94.55996563                0.90384965               -0.09277518                0.01622911                0.06220929                0.05085435                0.10965694               -0.04699539
              25.68202762                6.14186483               94.16012752                0.90594962               -0.09467658                0.02906096                0.03207385                0.04406496                0.20913314               -0.03930976
              26.68108847                5.59127229               93.76129588                0.90977464               -0.08750959                0.04054298               -0.00190843                0.04665260                0.29859602               -0.03575090
              27.68027743                5.04136712               93.36327402                0.91064358               -0.06694537                0.04493912               -0.03492190                0.04894341                0.32585687               -0.03319827
              28.67974956                4.49181216               92.96530164                0.90667275               -0.03068008                0.04372419               -0.08000981                0.03709406                0.26415742               -0.03556941
              29.67966383                3.94238878               92.56634452                0.90190928                0.00974275                0.03869347               -0.11669692                0.01693667                0.13522045               -0.03664386
              30.67994441                3.39302261               92.16598610                0.92157924                0.02805862                0.03117019               -0.13663795                0.00477355                0.05928252               -0.11408597
              21.24210389                9.91678701               96.02643325                0.96170781               -0.08064245                0.10550805                0.08981381               -0.02008255               -0.00421383                0.59510171
              22.24129746                9.35856394               95.62257731                0.90527960               -0.08280859                0.00619918                0.06037563                0.00175078                0.06968136                0.07563234
              23.24044772                8.80078991               95.22034084                0.00010000               -0.17247506               -0.12077073                0.04081424                0.25413462                0.38345217               -0.43078143
              24.23784796                8.24695407               94.82288832                0.00010000               -0.24981668                3.22890590                0.03133131                3.40701107                0.55268859                6.01550399
              25.23545138                7.69400080               94.42447638                0.00010000               -0.22569247                3.54372522                0.01643178                4.07977163                0.51278797                7.05143366
              26.23333411                7.14245458               94.02653987                0.00010000               -0.19271061                2.65073275               -0.00845989                4.12412019                0.56199753                3.86020755
              27.23159717                6.59187811               93.62938300                0.00010000               -0.15005941                0.87377981               -0.03012224                3.98815338                0.61191396               -2.83193265
              28.23033293                6.04191045               93.23286150                0.00010000               -0.10286862               -1.73263757               -0.04126168                3.94153407                0.59818457              -12.64073039
              29.22953980                5.49227195               92.83619563                0.00010000               -0.05352225               -5.40470914               -0.05936187                4.74921096                0.49986994              -25.20097644
              30.22926248                4.94276299               92.43834813                0.00010000               -0.00589509              -10.49885917               -0.09219104                8.26157312                0.30697051              -39.33664359
              31.22942190                4.39329602               92.03825866                0.30767533                0.01594164              -21.03613739               -0.10738613               18.31138613                0.17676988              -52.15029890
              21.80096735               10.91811191               95.88754813                0.96099914               -0.05267020                0.12899445                0.05183396                0.03110420                0.01187171                0.60794968
              22.80044064               10.35869113               95.48099250                0.90369925               -0.00720535               -0.00175986                0.03093438                0.04410960                0.00071198                0.03507082
              23.80082324                9.79899169               95.07428886                0.00010000                2.91859058               -0.15408712                0.00281412                3.66402567                6.92498029               -0.61934905
              24.85881246                9.31091575               94.80613179                0.00010000                3.41268420                4.01906985                4.84174511                9.24590588               12.76020560               12.56207081
              25.86907692                8.76433896               94.43031542                0.00010000                0.39101312                4.77499727                5.92962204                7.88232073                6.11804835               14.22157268
              26.86663272                8.19487948               93.97033616                0.00010000               -0.38406282                3.38703240                5.09116415                7.54690744                1.23435143                7.73836420
              27.86139567                7.60874788               93.44101630                0.00010000               -0.39592281                0.58766062                3.16141373                7.16795895               -3.12101469               -5.36109321
              28.85871426                7.00671437               92.84992498                0.00010000                0.62427848               -3.58860276               -0.17601729                6.67913077               -7.96897382              -24.34578144
              29.87388124                6.38371798               92.20365674                0.00010000                4.25784826               -9.56569328               -6.02769967                6.82789267              -12.55206105              -48.81032667
              30.94387123                5.73241159               91.52447987                0.00010000               13.56124224              -18.59459223              -15.25264929                5.96828754              -12.66203117              -77.46787714
              32.14510608                4.97229986               90.86986988                0.30578216               20.12348541              -31.43594144              -26.48260633               10.73235677               -5.95290429             -110.75672210
              22.36156752               11.91936690               95.74843893                0.95839723               -0.02676508                0.10480033                0.02250649                0.03507277               -0.00005519                0.58857746
              23.36129987               11.35852874               95.33881016                0.86997081               -0.00319524               -0.01181681                0.01747291                0.05361032                0.00279551               -0.00443449
              24.36150361               10.79770817               94.92927119                0.00010000                4.80594720               -0.11080027                0.00883157                4.56198135               10.66051441               -0.59077595
              25.45741881               10.32733547               94.73271907                0.00010000                7.38152272                0.20939943                7.46872524                9.40753862               19.85110460                9.13068266
              26.50913407                9.78950074               94.36452446                0.00010000                4.12222669                0.41516324                9.15168695                8.07884252               10.53577079               10.01200468
              27.53986334                9.21019523               93.84917648                0.00010000                2.69936956               -0.28234011                7.49584415                8.46636179                3.23516938                4.02448840
              28.56312146                8.60363132               93.21062483                0.00010000                2.45410490               -1.61462139                3.79254323                9.20969991               -3.21173484               -7.34761498
              29.58894544                7.97013839               92.46416128                0.00010000                3.86394874               -3.64511884               -2.40685513                9.34412750               -9.96319669              -23.51388974
              30.64040043                7.30095809               91.62665668                0.00010000                8.55504530               -6.70232548              -12.68401256                7.93967221              -15.49794244              -44.30565912
              31.76004635                6.57087115               90.73966065                0.00010000               16.19460286              -11.12572536              -28.20083210                4.44399532              -13.55831411              -70.10797863
              32.96429249                5.76457719               89.90284175                0.30635658               20.42461416              -12.84687047              -47.04141172                1.58298908               -6.60822277             -101.14087302
              22.92334511               12.92020791               95.60907125                0.95627081               -0.01735319                0.06634227                0.00315475                0.03359448                0.00105946                0.56720179
              23.92317158               12.35845480               95.19648134                0.83636506               -0.00444883               -0.00575573                0.01708484                0.04676059                0.00232931               -0.02066228
              24.92325614               11.79677569               94.78394510                0.00010000                6.59995346               -0.07406340                0.03318807                4.03868720               12.99765039               -0.61039277
              26.05517065               11.31510374               94.63116315                0.00010000               11.22689394               -2.27187156                8.97583372                8.34652536               24.47262104                6.30705594
              27.14779402               10.77264223               94.25873753                0.00010000                8.33293651               -3.30081684               10.78216387                7.15884364               13.50179435                6.36486895
              28.22182938               10.18923268               93.69457855                0.00010000                6.89262430               -3.63058016                8.33543820                7.80091432                5.16904997                1.15911382
              29.28564650                9.57645545               92.96746505                0.00010000                6.32203302               -3.59668374                3.10682995                8.75060358               -2.06163929               -8.30103276
              30.34827004                8.93381200               92.09896189                0.00010000                7.31477136               -3.39308822               -5.42798140                8.60153350               -9.37789095              -21.65691108
              31.43194193                8.24967147               91.11393428                0.00010000               11.04309964               -3.10375134              -19.05401864                6.45782462              -14.99007482              -39.12825567
              32.56913203                7.50989708               90.06711337                0.00010000               17.87059237               -1.93092852              -39.06925900                2.48158383              -13.10538867              -61.20683240
              33.78935378                6.71536245               89.06748934                0.30655486               22.02217422                1.11355719              -64.12359425                1.02609222               -6.36041027              -88.41803047
              23.48574564               13.92069374               95.46954389                0.95486347               -0.00783364                0.03458681               -0.00963636                0.02524108                0.00332211                0.54623962
              24.48566730               13.35841363               95.05400990                0.80615560               -0.00586117               -0.00335591                0.01936690                0.03816327                0.00649062               -0.03690820
              25.48562841               12.79622690               94.63854884                0.00010000                8.14077384               -0.04031481                0.05242405                2.42577675               14.54434303               -0.61290196
              26.64848278               12.28189804               94.51367727                0.00010000               14.62767928               -4.14609908                9.80091789                5.35416979               27.59417782                3.59442273
              27.77818200               11.72348441               94.13407516                0.00010000               12.17928140               -6.18985498               11.56661428                5.11270170               15.58215169                3.02694359
              28.89206841               11.13758363               93.53032877                0.00010000               10.76861063               -6.34923364                8.48259996                6.25746790                6.70107719               -1.20997395
              29.99355421               10.53169764               92.73452849                0.00010000                9.78458453               -5.07274331                2.07226872                7.30272144               -0.88133987               -8.54966609
              31.08776010                9.90227663               91.77229949                0.00010000                9.99588123               -2.73508021               -8.25572090                6.99558816               -8.47441550              -18.96180744
              32.19347184                9.23888306               90.67436976                0.00010000               12.81134730                0.66515082              -24.38344504                4.86799642              -14.38542940              -32.72694973
              33.34398704                8.53225257               89.50195383                0.00010000               19.02058801                5.44312378              -47.76014542                1.77917621              -12.81907466              -50.24091307
              34.57388360                7.78684833               88.37154158                0.30666297               22.98965548               11.64492279              -77.21466559                0.62227351               -6.31850461              -71.34017186
              24.04841017               14.92089965               95.32981918                0.95379817               -0.00084754                0.01347216               -0.02103100                0.01580830                0.00795500                0.51627339
              25.04840169               14.35838768               94.91139799                0.75517239               -0.00614538               -0.00191456                0.01941092                0.02688351                0.01638999               -0.05552979
              26.04828726               13.79596939               94.49315127                0.00010000                9.32974231               -0.01830315                0.06890759               -0.04062975               15.74382203               -0.62241805
              27.23499654               13.23218176               94.38919671                0.00010000               17.30376024               -5.71242677               10.25790527                0.96591393               30.04475544                1.08485845
              28.39436246               12.64884513               94.00609411                0.00010000               15.18844830               -8.56822909               12.01380201                2.31839779               17.38221361                0.03441898
              29.53876550               12.06224801               93.37527132                0.00010000               13.63227322               -8.43744289                8.54393825                4.56722598                8.06704874               -3.05217407
              30.66700793               11.47500059               92.53028625                0.00010000               12.11154411               -5.97904451                1.33980817                5.92222486                0.06911992               -8.13637464
              31.78099639               10.87911039               91.49944749                0.00010000               11.61589914               -1.87595753              -10.24832282                5.67930799               -7.96862077              -15.42745515
              32.89932591               10.26297449               90.31791389                0.00010000               13.78769512                3.72952996              -28.15506509                3.94603165              -14.28324928              -25.19239032
              34.05675029                9.61875956               89.05250295                0.00010000               19.66409103               10.89006730              -53.88300154                1.56337120              -12.95973603              -37.47997305
              35.29260773                8.94826091               87.82678389                0.30669181               23.58574434               19.24388282              -86.24131218                0.56413794               -6.48990962              -51.85654639
              24.61108574               15.92096319               95.18979899                0.95251403                0.00494833                0.00682370               -0.03448022                0.00581702                0.01586147                0.46988682
              25.61113523               15.35837534               94.76858951                0.72029796               -0.00320015                0.00004893                0.01143916                0.01437122                0.02116263               -0.08257424
              26.61102174               14.79586084               94.34749330                0.00010000               10.18950467               -0.01088306                0.07221370               -3.26394851               17.06305131               -0.56990969
              27.81492532               14.16764950               94.26703640                0.00010000               19.17309835               -7.49152827               10.62606969               -4.46122266               32.73917878               -0.96216677
              28.99448371               13.55211983               93.89006017                0.00010000               17.11660736              -10.89005146               12.55899217               -0.19838138               19.55615675               -2.17247256
              30.15725747               12.96883477               93.24700541                0.00010000               15.03263082               -9.82970699                9.01527109                3.26790883                9.63674433               -4.04525777
              31.29513632               12.41211675               92.37088373                0.00010000               12.80574451               -6.32584845                1.38412729                4.81988547                0.77301162               -6.82699504
              32.41337236               11.86475748               91.29306183                0.00010000               11.88034890               -1.03395544              -10.99111061                4.60150544               -8.02579789              -11.07958579
              33.53274330               11.31347366               90.05318025                0.00010000               13.82978434                5.89941468              -30.04286148                3.27763099              -14.78890839              -16.93892943
              34.68996804               10.75005392               88.72470953                0.00010000               19.67101784               14.44358952              -57.25145392                1.51175649              -13.44039423              -24.09267234
              35.92616366               10.17172599               87.43846384                0.30669017               23.61956142               24.23948589              -91.37949520                0.50911335               -6.83418223              -31.76101223
              25.17370221               16.92103612               95.04926641                0.95049985                0.00892589                0.01071013               -0.04800463               -0.00058312                0.03461336                0.35753357
              26.17379147               16.35838866               94.62544739                0.54706411                0.00159566                0.00302600               -0.00742505                0.00384988                0.10336932               -0.11834241
              27.17373412               15.79575173               94.20302727                0.00010000               10.78608141               -0.01508858                0.06051400               -7.52303836               19.21203782               -0.46714473
              28.38951309               15.08235119               94.16127247                0.00010000               20.77377261              -11.37715384               11.31353601               -7.29142982               36.80524195               -1.29258168
              29.58920957               14.43104410               93.80804460                0.00010000               17.73068295              -12.35591991               13.84675830               -1.30617716               23.06846924               -2.85850036
              30.74412675               13.86565387               93.16537694                0.00010000               13.91366778              -10.29976575               10.45024397                2.23821336               11.29047119               -3.31139377
              31.86748293               13.34848362               92.27236780                0.00010000               11.37714167               -6.20360196                2.65768537                3.15853721                0.81764427               -4.19079627
              32.97166959               12.85843128               91.16371192                0.00010000               10.60495799               -0.41030851              -10.13665911                2.91449444               -9.18729285               -5.91190895
              34.07958209               12.38096278               89.88399656                0.00010000               12.85317520                7.07363201              -29.82436332                2.08263914              -16.51408934               -8.47412210
              35.22873309               11.90763135               88.51478816                0.00010000               18.99318875               16.19256706              -57.82605907                1.04891455              -14.67758190              -11.48294619
              36.45944586               11.43305063               87.20040764                0.30676114               23.07127724               26.87249743              -92.81815147                0.17635147               -7.58430598              -13.44626874
              25.73636901               17.92117739               94.90710274                0.97479072                0.01276035                0.01412664               -0.05595854               -0.00747285                0.17187108                0.27061549
              26.73649661               17.35843586               94.48191014                0.71531531                0.01147135                0.00471988               -0.02332156               -0.01040134                0.30004228               -0.13746629
              27.73659844               16.79555906               94.05932496                0.30881910               14.86538702               -0.01926679                0.05369056              -14.63003960               24.28525407               -0.43308780
              29.03380436               15.94010643               94.11353929                0.30778487               22.42295261              -14.22447645               13.81671746              -10.09875569               47.29851482               -5.18208922
              30.18505749               15.30500143               93.79245987                0.30736261               12.53889304              -12.60426729               16.99934715                0.72144307               27.29474110               -5.37445613
              31.28458222               14.76283945               93.15651297                0.30723654                9.02360805              -10.28144130               13.67057604                3.19771061               11.67898036               -4.88379736
              32.36552965               14.28804471               92.25163419                0.30685903                7.73004346               -6.04389053                5.69370453                4.49026506               -1.18086393               -4.52746770
              33.43918308               13.85655131               91.11988081                0.30636919                7.98331828               -0.18799755               -7.33227283                5.09642925              -12.60976278               -4.56903685
              34.52519602               13.45494630               89.81001095                0.30616900               10.98377019                7.39835207              -27.29613554                5.42909064              -20.89785754               -4.78343332
              35.65885849               13.07390526               88.40683831                0.30570499               17.68280593               16.62739112              -55.72958295                5.72402166              -18.82165690               -4.79546789
              36.87885214               12.70917594               87.07568188                0.65330073               21.99936466               27.61253102              -91.09944988                5.46769480              -11.23797567               -2.43996253
              20.52703558                8.06084841               97.30857953                0.97714566               -0.01109360               -0.00305955                0.12614471               -0.04144019               -0.26651107                0.29064090
              21.52692464                7.50109928               96.90655608                0.95303365                0.02520580               -0.02964684                0.08523420               -0.05697495               -0.33709863                0.04000595
              22.52753969                6.94181084               96.50288326                0.95271116                0.07268655               -0.06512904                0.07364130               -0.03136715               -0.36406344               -0.03485786
              23.52837837                6.38426308               96.09989138                0.78176409                0.10283012               -0.03903491                0.05877162                0.06852308               -0.32489951               -0.09600599
              24.52959630                5.82903651               95.69662413                0.72805757                0.08686467               -0.01412258                0.07693397                0.04876848               -0.27293809               -0.05465349
              25.53011567                5.27529387               95.29453158                0.67819371                0.02947207                0.00508675                0.06143005                0.03646874               -0.13811859               -0.05502897
              26.53018574                4.72276794               94.89362235                0.63547993               -0.00721915                0.02499123                0.03554739                0.02805447               -0.02186136               -0.04821325
              27.52997128                4.17119908               94.49357959                0.60548116               -0.02080104                0.03633196               -0.00878090                0.00940133                0.02405815               -0.02616834
              28.52976972                3.62022258               94.09359766                0.62224545                0.00125825                0.03954938               -0.08930777               -0.00346809               -0.03311485               -0.01947432
              29.52999645                3.06948741               93.69275941                0.67068336                0.04606913                0.04706660               -0.20086800               -0.00702328               -0.09418479               -0.04675690
              30.53069110                2.51905326               93.29184845                0.87899023                0.06946510                0.05652363               -0.30483031               -0.02815821               -0.07286255               -0.18704582
              21.08637031                9.06081782               97.16684251                0.95616150               -0.04966327                0.04412952                0.11883198               -0.04691391               -0.03565839                0.41258639
              22.08587368                8.50080281               96.76472530                0.90137259               -0.03630957               -0.01258392                0.07566337               -0.06576945               -0.03103861                0.05787286
              23.08564412                7.94115955               96.36263740                0.90348949               -0.02114550               -0.06462926                0.05565322               -0.00579268                0.00548477               -0.11948716
              24.08545077                7.38387273               95.96115625                0.90431704               -0.05377676                0.01704468                0.04445552                0.04526345                0.07689023               -0.06155909
              25.08456859                6.82889528               95.56042397                0.90450332               -0.09180656                0.02783953                0.03330323                0.04362150                0.14580748               -0.03462781
              26.08361464                6.27534474               95.16026898                0.87724997               -0.10274542                0.04372006                0.00057244                0.03501537                0.22630843               -0.03975020
              27.08251368                5.72301785               94.76118348                0.80764442               -0.11383323                0.05425299               -0.01037521                0.03131995                0.29906099               -0.03682687
              28.08133797                5.17156240               94.36297815                0.75524648               -0.09614044                0.05305411               -0.02502385                0.01399544                0.30476504               -0.02143277
              29.08059087                4.62061807               93.96468718                0.73378594               -0.04135503                0.04096840               -0.05577563                0.00324010                0.23122825               -0.01918839
              30.08051087                4.06995808               93.56534087                0.67342408                0.01263985                0.03703002               -0.10149308                0.00048197                0.12236753               -0.03988815
              31.08084367                3.51961850               93.16472280                0.77674956                0.03327921                0.03988711               -0.16483428               -0.01436835                0.07627576               -0.15015466
              21.64612732               10.06173100               97.02735226                0.96022406               -0.08597957                0.11782471                0.08770582               -0.01877623                0.00553995                0.55183343
              22.64526752                9.50084760               96.62316648                0.90549475               -0.08867002                0.00963943                0.05606272                0.00603001                0.08701802                0.06155159
              23.64435392                8.94051825               96.22068932                0.00010000               -0.18598067               -0.13205369                0.03211673                0.28732658                0.40974177               -0.42799945
              24.64154791                8.38460397               95.82307961                0.00010000               -0.26785995                5.20083318                0.01224964                6.12191786                0.58297720                8.65773539
              25.63899672                7.82959330               95.42445483                0.00010000               -0.24272520                5.71151979               -0.01460438                8.77070978                0.54050757               10.17551566
              26.63669341                7.27616827               95.02621281                0.00010000               -0.22011223                4.59385730               -0.05542359               10.79247990                0.59730004                6.51900578
              27.63459448                6.72385300               94.62892213                0.00010000               -0.20212199                2.37665408               -0.04830359               12.26281912                0.63603171               -1.04805146
              28.63265097                6.17226016               94.23249470                0.00010000               -0.15778184               -0.91211655               -0.03964078               13.00644652                0.60900432              -12.39698582
              29.63143884                5.62104195               93.83581361                0.00010000               -0.08226523               -5.81894270               -0.03476263               13.69617271                0.49833525              -27.97951896
              30.63100566                5.07022801               93.43778750                0.00010000               -0.01779747              -13.25520337               -0.05198656               17.17209287                0.31844893              -47.38394655
              31.63108289                4.51985101               93.03756802                0.30634271                0.00772276              -30.77731225               -0.10337896               30.22452334                0.22937220              -67.05741331
              22.20776160               11.06317431               96.88810518                0.95960560               -0.05545680                0.13732811                0.05431338                0.03738091                0.01398396                0.57065727
              23.20720703               10.50099560               96.48131535                0.90398623               -0.00636604               -0.00242739                0.03293650                0.05195602                0.00312345                0.02488126
              24.20763428                9.93851847               96.07434479                0.00010000                5.58035263               -0.17152691                0.00928366                5.68738108                9.55731162               -0.60588036
              25.31881408                9.48788939               95.85854490                0.00010000                8.03921027                6.44381130                5.38832365               15.93038435               18.47817321               17.97810721
              26.36841848                8.94312568               95.49218797                0.00010000                4.31952268                7.73558403                5.64306471               16.67934310               11.59234498               20.37217382
              27.40520454                8.36722188               95.02267901                0.00010000                3.16298426                6.04872739                4.39004868               19.90256859                8.44651747               12.89255298
              28.43167817                7.77055093               94.47578518                0.00010000                1.95367071                2.59446097                3.10175090               22.57775965                5.90026710               -1.89343015
              29.44427795                7.15332007               93.85406446                0.00010000                1.24341508               -2.66814982                1.09392707               23.52329018                0.62594358              -23.71894311
              30.45654647                6.50423922               93.14770580                0.00010000                4.04328607              -10.62962001               -4.26360799               22.94259412               -7.69752926              -53.65156707
              31.52514367                5.80485401               92.36358300                0.00010000               16.47708374              -23.84172571              -16.10203468               17.23510330              -13.02701959              -92.23926855
              32.78608815                4.90407225               91.57223138                0.30509282               26.09444727              -44.97596354              -34.25806888               19.64949012               -7.20251360             -143.53617389
              22.77123237               12.06447757               96.74871751                0.95757113               -0.02698857                0.10700114                0.02847130                0.03908964                0.00036603                0.56121739
              23.77096248               11.50079905               96.33898556                0.90158046               -0.00123120               -0.01484344                0.01779664                0.05625208                0.00306194               -0.00331431
              24.77120774               10.93708771               95.92928908                0.00010000                9.22929566               -0.11923956                0.00350934                7.04536934               14.65197680               -0.55870431
              25.95554840               10.51348020               95.81246612                0.00010000               16.10216744                0.29014112                7.91842258               15.65846084               28.97915362               12.88043309
              27.09325109                9.98430498               95.45842360                0.00010000               12.58855641                0.80921812                8.20118847               15.76225501               20.11064670               14.29910781
              28.20731952                9.39714282               94.92429816                0.00010000               10.34001956                0.06865762                5.81254806               19.14574586               15.97567378                7.47730901
              29.30005148                8.77574221               94.25066782                0.00010000                8.10544777               -1.51681668                2.97822531               22.77381564               12.53910716               -5.37362823
              30.36942848                8.11889716               93.44547731                0.00010000                6.93526464               -4.08596185               -1.50314120               24.46851871                5.53200958              -23.93447692
              31.43875678                7.40844955               92.50170828                0.00010000               10.32231065               -8.22714162              -11.38646035               22.14706261               -4.72427451              -49.01363196
              32.57587469                6.59339350               91.43953294                0.00010000               19.34397133              -14.67612743              -30.86159340               13.76854596               -9.26135505              -82.86844180
              33.82563620                5.62033174               90.37553409                0.30519134               24.97615110              -16.78250919              -59.81513884                6.03224264               -5.18943320             -128.77113461
              23.33590042               13.06531434               96.60916011                0.95574407               -0.01784992                0.06487359                0.01107732                0.03674815                0.00445212                0.54754829
              24.33572193               12.50069873               96.19664429                0.86088045               -0.00199531               -0.00839896                0.01456979                0.04904157                0.00841841               -0.01217470
              25.33586052               11.93613368               95.78419151                0.00010000               12.45220570               -0.07519422                0.01623359                6.14609243               17.71533085               -0.57194542
              26.58476604               11.49369222               95.72570164                0.00010000               23.20702236               -3.56717139                9.08927069               13.48816275               35.52046164                8.67878229
              27.80000097               10.95931004               95.36744522                0.00010000               20.59580891               -4.98735134                9.09949618               13.20053893               25.49658335                9.11463766
              28.99668222               10.36859503               94.77574380                0.00010000               18.26995854               -5.34007790                5.79430968               16.13322302               21.24586293                3.37672723
              30.16540014                9.74021460               93.99805348                0.00010000               15.21293878               -5.25149575                1.48502365               19.32668160               17.74278315               -7.14660044
              31.30094099                9.07160083               93.04702469                0.00010000               12.97956265               -5.02996102               -5.30371968               20.19784159               10.41059920              -22.31599745
              32.42499139                8.33969639               91.92053006                0.00010000               14.38457061               -4.78218141              -18.79546006               16.83408509               -0.14157474              -43.12729858
              33.58863241                7.51133146               90.64953059                0.00010000               21.39325682               -3.06028652              -43.43726078                8.62933613               -5.99807015              -71.39340607
              34.85285653                6.56842207               89.35167665                0.30554638               26.42241202                2.63390633              -80.08183377                4.10511033               -3.41094976             -109.50448288
              23.90119855               14.06577504               96.46950488                0.95456477               -0.00745789                0.03117446               -0.00123118                0.02792349                0.00789323                0.53126346
              24.90112397               13.50063107               96.05419535                0.81041997               -0.00312201               -0.00585718                0.01696999                0.04143040                0.01443502               -0.02892876
              25.90113611               12.93558383               95.63899503                0.00010000               15.05056646               -0.03931924                0.03733006                3.61582536               19.61721163               -0.58089931
              27.20213530               12.44213677               95.61561491                0.00010000               29.06114737               -6.37493354                9.53244113                8.53074982               39.63566400                4.83058763
              28.48235905               11.88455795               95.24890016                0.00010000               27.34720655               -9.43073659                9.30092914                9.24601413               28.84305243                4.48861862
              29.74907943               11.29034126               94.61082055                0.00010000               25.06101342               -9.76206011                5.32958201               12.25180603               24.52475375                0.02666858
              30.98357932               10.67071230               93.75240557                0.00010000               21.24120463               -8.19433410               -0.11560201               14.94094323               21.01484182               -7.91857319
              32.17390352               10.01829794               92.68922878                0.00010000               17.60642626               -5.29760671               -8.69933946               15.12970229               13.48746741              -19.56316860
              33.33570785                9.31280592               91.42357970                0.00010000               17.29161060               -0.92748483              -24.83387424               11.72654498                2.33862080              -35.73596517
              34.51973573                8.53218777               89.99092719                0.00010000               22.89246731                5.77153851              -53.19658568                5.61490430               -4.65515665              -57.66996872
              35.79355719                7.67300986               88.51412371                0.30527563               27.38214612               15.60048993              -94.78309888                2.51615501               -2.91818572              -85.88985204
              24.46674683               15.06593782               96.32966688                0.95353520               -0.00050864                0.00893787               -0.01235617                0.01744500                0.01372005                0.50288206
              25.46674174               14.50058158               95.91158388                0.73290340               -0.00377508               -0.00358584                0.01754927                0.02977521                0.02855342               -0.05466489
              26.46667133               13.93534730               95.49377242                0.00010000               16.98325873               -0.01496282                0.05688057               -0.16415744               20.98857030               -0.60167276
              27.80640692               13.36619354               95.49476970                0.00010000               33.50227164               -8.74385957                9.68836999                1.64597594               42.60830750                1.35915970
              29.13671676               12.77069531               95.12397173                0.00010000               32.45785365              -13.11362482                9.34249459                4.48232751               31.37593818                0.38345372
              30.45556399               12.17335383               94.45486716                0.00010000               29.97727791              -13.20090809                5.01399259                8.65946211               26.85940140               -2.67584427
              31.73626232               11.57632791               93.53930929                0.00010000               25.29387150              -10.18535414               -1.16875534               11.29310148               23.04719651               -7.97087206
              32.96144142               10.96564870               92.39468615                0.00010000               20.46850736               -5.07768112              -10.99046536               11.23401772               15.02235890              -15.97353682
              34.14563246               10.32114669               91.02697173                0.00010000               18.96425653                2.12541151              -28.94280821                8.44315435                3.22074472              -27.30869680
              35.34072655                9.62676223               89.47651410                0.00010000               23.79514869               11.86817016              -59.77014913                3.98718349               -4.46254560              -42.45877463
              36.62153544                8.88043187               87.87352710                0.30530820               28.08088889               24.02170014             -104.40768872                1.77163549               -2.98769715              -61.24864542
              25.03225993               16.06595380               96.18951375                0.95207501                0.00500720                0.00243915               -0.02493708                0.00645122                0.02101937                0.45804903
              26.03231000               15.50055935               95.76869000                0.66804988               -0.00094647               -0.00030847                0.00866463                0.01659730                0.03608333               -0.09322925
              27.03224100               14.93528457               95.34815745                0.00010000               18.36984045               -0.00704899                0.06333753               -5.11139728               22.45104541               -0.56845913
              28.39970681               14.26725958               95.37549798                0.00010000               36.63021596              -11.55947155                9.83800417               -6.74758461               45.77143020               -1.49543671
              29.76484532               13.62228545               95.01243452                0.00010000               35.84646275              -16.76008603                9.64398836                0.39314106               34.23493542               -2.71504558
              31.11663606               13.02632310               94.33052570                0.00010000               32.61505861              -15.52721976                5.30747738                6.03838330               29.19697797               -4.35314421
              32.41714649               12.46700522               93.37970581                0.00010000               26.85645174              -11.17292712               -1.25134599                8.58172662               24.42674093               -7.02735823
              33.65376510               11.91674432               92.18022162                0.00010000               21.31554546               -4.60178006              -11.82724651                8.33848718               15.50864947              -11.59487081
              34.84345740               11.35531415               90.74248794                0.00010000               19.32145630                4.23123969              -30.90878100                6.25257645                3.09219142              -18.35552208
              36.04019422               10.76955117               89.11363028                0.00010000               23.90966156               15.63599681              -63.23847658                3.16197189               -4.77499540              -27.13658163
              37.32165063               10.15344386               87.43155872                0.30562190               28.14564055               29.30315709             -109.72011792                1.32855879               -3.25575616              -37.30521672
              25.59766473               17.06598661               96.04885800                0.95012243                0.00781748                0.00638770               -0.03539515                0.00024243                0.03182430                0.35135726
              26.59774291               16.50057542               95.62535072                0.49030853                0.00392110                0.00311243               -0.01096927                0.00501739                0.11727883               -0.13320750
              27.59774316               15.93520632               95.20357106                0.00010000               19.33557175               -0.01829019                0.05062084              -11.71676187               24.92799339               -0.47433365
              28.98445434               15.13500411               95.27608384                0.00010000               39.38864526              -17.66363909               10.37666393              -11.24048872               50.61400857               -2.05628784
              30.38551606               14.43549359               94.94300416                0.00010000               37.35787739              -18.99124771               10.84412854               -1.53840068               38.72803790               -3.79730944
              31.73161189               13.86280944               94.26316155                0.00010000               31.59797825              -16.31917427                6.69418659                3.98638467               31.51590604               -3.83327092
              33.01747563               13.35286937               93.29405015                0.00010000               25.41451687              -11.21890141                0.02407058                5.35761929               24.91248360               -4.47186904
              34.23990223               12.87361309               92.05983230                0.00010000               20.02007585               -4.09001916              -10.90973753                4.98960087               14.67257822               -6.26959354
              35.41787714               12.40577148               90.57618335                0.00010000               18.29670217                5.34995210              -30.53039550                3.74607141                1.62700894               -9.24786924
              36.60583627               11.93948217               88.89884052                0.00010000               23.12220419               17.37573270              -63.58851562                2.02826433               -5.80567214              -12.94640747
              37.88032123               11.46649501               87.17957004                0.30572259               27.44849546               32.14589717             -110.98507522                0.58680737               -3.83482236              -15.84824086
              26.16308716               18.06608155               95.90664031                0.97472539                0.01034760                0.00949420               -0.03768229               -0.00375217                0.16303269                0.26889673
              27.16319063               17.50062160               95.48166806                0.68558305                0.01949505                0.00461880               -0.02134698               -0.01336639                0.31713063               -0.15169868
              28.16347706               16.93491877               95.05982878                0.30815826               25.57095650               -0.02875481                0.05510429              -22.75834991               31.35616015               -0.45509637
              29.67460976               15.91398680               95.25493197                0.30723779               42.13974593              -22.10173166               13.11394109              -15.60737144               63.77741793               -7.34256384
              31.00627198               15.24246050               94.96015718                0.30801239               30.21891023              -19.30330860               14.08714449                1.37323247               43.58739735               -7.14824467
              32.27898797               14.69993961               94.28726790                0.30770188               25.36116188              -16.28698246                9.88632681                4.74594222               31.88426215               -6.14125282
              33.51349522               14.24262719               93.30448269                0.30710710               21.08335155              -11.02421827                3.06176033                6.35217522               22.86978584               -5.57842987
              34.70065500               13.83494394               92.04553331                0.30608008               16.95072674               -3.86691567               -7.91626019                7.05957729               11.37309346               -5.68084491
              35.85250975               13.46231319               90.53008948                0.30519874               15.96904908                5.65417073              -27.48733881                7.56935510               -2.67458177               -6.14800899
              37.02003598               13.11706582               88.81533616                0.30508040               21.34256692               17.75836565              -60.61741925                8.12240173              -10.12174025               -6.31086510
              38.27936109               12.79636181               87.07550038                0.65258123               25.93251073               32.98667964             -108.36027309                7.83358449               -7.90838566               -3.64667009
              20.92681987                8.20539148               98.30970619                0.97616791                0.00263252                0.00892682                0.09082336               -0.04106486               -0.22375411                0.25942733
              21.92684619                7.64335658               97.90727617                0.95124660                0.04189223               -0.02423780                0.05479144               -0.06168407               -0.27595973                0.03585717
              22.92765771                7.08186444               97.50352945                0.95131111                0.09116535               -0.06531348                0.05543733               -0.03757411               -0.29583046               -0.02179098
              23.92866950                6.52230167               97.10038555                0.82454049                0.11024045               -0.03834483                0.04437509                0.05243667               -0.24890594               -0.05901848
              24.92986252                5.96498347               96.69729277                0.71479993                0.09152756               -0.00422584                0.05822098                0.04210509               -0.20144444               -0.03875790
              25.93050005                5.40929799               96.29512844                0.63456971                0.04093280                0.00906058                0.05970196                0.02928527               -0.08253391               -0.05420112
              26.93068118                4.85498072               95.89406643                0.57720142               -0.00501333                0.02552471                0.06189143               -0.01240694                0.02924148               -0.02114824
              27.93039979                4.30169118               95.49368798                0.53462471               -0.03518616                0.03321803                0.04451402               -0.06066364                0.04917192                0.01827639
              28.92997746                3.74882895               95.09285046                0.53316944               -0.02000368                0.03834969               -0.04064221               -0.08661105               -0.06665449                0.02161279
              29.92999971                3.19589106               94.69048037                0.56345827                0.04906594                0.06718659               -0.23796947               -0.07471408               -0.18625391               -0.05048753
              30.93095877                2.64318299               94.28789407                0.81182344                0.09590622                0.11169608               -0.49410599               -0.09607805               -0.17990786               -0.34682196
              21.48844412                9.20548075               98.16794927                0.95440141               -0.04512438                0.05847674                0.09627553               -0.04833552               -0.01959017                0.37424116
              22.48799287                8.64311420               97.76540741                0.89985486               -0.03173425               -0.00758324                0.05900430               -0.07074345               -0.00175962                0.05058505
              23.48780943                8.08121131               97.36312225                0.90397492               -0.01792585               -0.06709554                0.04365422               -0.00621383                0.04987918               -0.10856165
              24.48763435                7.52191822               96.96151176                0.90534135               -0.05120087                0.02092306                0.03112707                0.04012007                0.12286498               -0.03327841
              25.48678541                6.96494121               96.56063170                0.90081449               -0.09200368                0.03818224                0.00687123                0.03680934                0.18410821               -0.02075010
              26.48579428                6.40938859               96.16013897                0.71715135               -0.12124500                0.05633408               -0.02228887                0.03037547                0.27975363               -0.04015354
              27.48436051                5.85523596               95.76108838                0.59561080               -0.14626239                0.06673309               -0.01520603               -0.00052484                0.37809924               -0.01469991
              28.48286903                5.30202336               95.36277355                0.50594173               -0.11745536                0.05966244               -0.03364608               -0.04008839                0.41379468                0.01284654
              29.48201141                4.74921245               94.96418613                0.45487638               -0.03967399                0.04170028               -0.06934427               -0.06120911                0.38486565                0.00548855
              30.48207555                4.19656293               94.56431466                0.39827107                0.03473314                0.04754369               -0.11221650               -0.05175809                0.29301851               -0.08758502
              31.48270607                3.64429995               94.16268942                0.63705738                0.06305151                0.07280938               -0.28539961               -0.05182170                0.26444576               -0.39393869
              22.05058624               10.20656101               98.02818736                0.95878139               -0.08854765                0.13395274                0.07151747               -0.01648147                0.01451027                0.50591890
              23.04970076                9.64320492               97.62369857                0.90576919               -0.09284089                0.01277360                0.04942428                0.01160753                0.10178094                0.04678601
              24.04872942                9.08052253               97.22098318                0.00010000               -0.19793826               -0.14684908                0.03139798                0.32228520                0.42819155               -0.42112061
              25.04574200                8.52272013               96.82313331                0.00010000               -0.28005445                7.95865831                0.00489185               10.40614823                0.60243121               11.45243548
              26.04312833                7.96574711               96.42418429                0.00010000               -0.24645955                8.64362281               -0.04137993               16.88544224                0.55994029               12.77109003
              27.04081281                7.41042467               96.02543140                0.00010000               -0.25462097                7.26282999               -0.09006994               22.83699226                0.66856770                8.35482027
              28.03803591                6.85631538               95.62841693                0.00010000               -0.25956361                4.69488157               -0.06164270               27.80574042                0.75061970                0.38332275
              29.03562154                6.30288443               95.23206868                0.00010000               -0.19111027                0.86647714               -0.05907785               30.48955284                0.77448894              -11.45541672
              30.03421371                5.74966296               94.83550038                0.00010000               -0.08722426               -5.22102375               -0.05907369               31.11791043                0.73700671              -29.43588969
              31.03387705                5.19684193               94.43730840                0.00010000                0.01172954              -15.53410728               -0.10521553               33.58529589                0.60905939              -55.53966761
              32.03444830                4.64463917               94.03619108                0.30885089                0.05712495              -44.03448169               -0.49982190               49.83237263                0.75235967              -86.79648417
              22.61482667               11.20815980               97.88863440                0.95844073               -0.05631712                0.14876489                0.04434428                0.04361202                0.01875643                0.53336544
              23.61426350               10.64336968               97.48165123                0.90415439               -0.00433754               -0.00356987                0.03244559                0.06016471                0.00947863                0.01096834
              24.61473992               10.07827433               97.07447453                0.00010000                9.81346165               -0.19175857                0.02001371                8.50274385               12.33420206               -0.59888591
              25.81053274                9.68109138               96.91389827                0.00010000               16.10248960                9.75336345                5.05725558               26.08323530               25.88151331               23.81577837
              26.93678972                9.13781367               96.54317671                0.00010000               12.07165622               11.72392688                2.63906680               31.49702196               20.21319042               25.50930328
              28.05196586                8.55464519               96.05813713                0.00010000               10.56129228                9.81259757                0.44781754               41.88198631               22.79819278               16.65681581
              29.14801556                7.94913360               95.50305132                0.00010000                7.36733266                5.87875349                0.84678912               50.96981237               25.07408208                1.07708367
              30.19931251                7.31935290               94.87180352                0.00010000                3.11982746               -0.21979068                1.74525851               55.42910073               21.51668426              -21.66284927
              31.21041211                6.64479197               94.11838458                0.00010000                2.97463696              -10.09008843               -0.55861318               54.20867408                8.85684895              -55.61373923
              32.25880525                5.88588078               93.20243918                0.00010000               18.66734662              -28.46436116              -13.88358683               39.29673624               -7.30060657             -105.42464127
              33.58375904                4.76361031               92.18470850                0.30425058               32.49537897              -61.74649734              -45.79642763               35.47561427               -6.22211604             -184.58804560
              23.18103873               12.20953631               97.74900835                0.95647604               -0.02491953                0.11058552                0.02432375                0.04167759                0.00269842                0.53566565
              24.18078953               11.64313352               97.33916610                0.90151490                0.00119314               -0.01840789                0.01754802                0.05980500                0.00631641               -0.00884972
              25.18106259               11.07668736               96.92934138                0.00010000               16.35389150               -0.13217477                0.01023648               10.42096793               18.58835207               -0.54362392
              26.50786736               10.71778740               96.89108753                0.00010000               30.92261862                0.22196064                6.39473462               24.76658636               40.24392281               16.29034498
              27.79951496               10.20022565               96.52854823                0.00010000               27.96326209                1.33223810                2.57249583               27.98915161               35.07746000               17.62422606
              29.06713261                9.60667662               95.96542744                0.00010000               24.66047437                0.77998196               -0.91339487               36.89186573               39.70498271                9.90279866
              30.29272445                8.97389045               95.27018934                0.00010000               19.07062847               -0.86739496               -1.45541182               45.65088504               43.37294161               -3.67664762
              31.44854517                8.29848862               94.43409845                0.00010000               12.95674317               -3.78061628               -2.16834014               50.43318357               38.71621575              -23.29891614
              32.55185932                7.54786119               93.39892748                0.00010000               12.62241299               -8.97689505               -8.55817614               47.26292585               22.98251884              -51.32663673
              33.70099343                6.62755471               92.12242879                0.00010000               21.83211033              -17.76230353              -30.49470975               31.05334145                5.68147909              -93.35666970
              34.98850152                5.40970923               90.70653898                0.30447922               28.75080871              -18.84635672              -75.06199504               14.86963298                1.47477878             -157.70349546
              23.74846581               13.21037151               97.60929279                0.95517966               -0.01572515                0.06379689                0.01176861                0.03719231                0.00718064                0.52847152
              24.74830855               12.64300152               97.19677273                0.89964764                0.00198001               -0.01190314                0.01104061                0.04678157                0.01095527               -0.00778926
              25.74850541               12.07563083               96.78426977                0.00010000               21.70088088               -0.08296793                0.00701721                8.90097873               22.07574556               -0.54158419
              27.18232617               11.68553060               96.81294857                0.00010000               42.95890591               -5.41728349                6.29368810               20.61255857               48.64988084               10.50215336
              28.60768352               11.16445843               96.44072745                0.00010000               41.69061031               -7.17476905                1.77110512               22.25183402               43.45088175               11.08838730
              30.01613838               10.57024483               95.81046474                0.00010000               38.07688718               -7.38414965               -2.52322009               28.96263668               49.37402246                5.16708275
              31.36922127                9.93178570               94.99716553                0.00010000               30.89335349               -7.09100380               -4.18230735               35.81070578               53.69137946               -5.64471788
              32.63400545                9.24374058               93.99288750                0.00010000               22.86916330               -6.75684102               -6.86286325               38.56292527               48.65469458              -21.44481219
              33.82660453                8.46525407               92.73802508                0.00010000               19.20092974               -6.50695514              -16.85299171               33.67903281               32.02090897              -44.26090900
              35.01802404                7.53063471               91.19836815                0.00010000               24.51190692               -3.78425070              -44.39588247               19.03877902               11.56366094              -77.94281933
              36.31684267                6.38668318               89.46585267                0.30468375               29.88186291                6.87458073              -97.11200736                9.63611322                4.51399104             -127.46302851
              24.31652256               14.21081225               97.46951927                0.95412274               -0.00567133                0.02884549                0.00227434                0.02755859                0.01191247                0.51393342
              25.31646585               13.64289546               97.05434930                0.83057854                0.00152639               -0.01008952                0.01247152                0.03872078                0.02054828               -0.02170403
              26.31655309               13.07502800               96.63929544                0.00010000               25.74125451               -0.04286531                0.02119380                5.14568553               24.03895051               -0.54665101
              27.83129094               12.60944173               96.70432609                0.00010000               52.16421609               -9.30243590                5.90364540               12.81697378               53.24403470                5.46840655
              29.35983741               12.05673027               96.32009375                0.00010000               52.38835675              -13.57392948                0.91036069               15.18260710               47.76264090                5.39369439
              30.87905807               11.45899363               95.63692041                0.00010000               48.78027062              -14.06094299               -3.86939041               20.99088492               54.15747287                1.18295330
              32.33544282               10.83207037               94.73221645                0.00010000               40.36386176              -12.17513977               -6.38501562               26.16348851               58.75124889               -6.58283024
              33.68633531               10.16335180               93.59831270                0.00010000               30.15515095               -8.75468836              -10.63560266               27.27136906               53.52905592              -18.37065024
              34.93854584                9.41772208               92.17769228                0.00010000               23.70023006               -3.36808791              -23.12473415               22.19131147               35.93611136              -35.63907036
              36.16033991                8.55186970               90.43802211                0.00010000               26.52905047                5.81231351              -54.29850330               11.61993636               13.56473740              -60.88721254
              37.46912685                7.54720084               88.47587960                0.30493737               30.87869423               20.95849026             -111.71506684                5.63237009                5.21689420              -95.73569154
              24.88485056               15.21094842               97.32957205                0.95318629                0.00166591                0.00603987               -0.00739912                0.01668382                0.01799155                0.48625812
              25.88486722               14.64279973               96.91174897                0.71049878                0.00111445               -0.00757724                0.01445929                0.02862246                0.03889309               -0.05572396
              26.88487285               14.07477352               96.49428888                0.00010000               28.60480806               -0.01674911                0.04621079               -0.33181330               25.37480748               -0.58671581
              28.45696338               13.49948188               96.58296411                0.00010000               58.84554591              -12.65075462                5.46735552                2.64961154               56.38877351                1.22162856
              30.06178376               12.89297984               96.19294400                0.00010000               60.18262980              -18.89718927                0.27683047                7.69306931               50.80656479                0.45883802
              31.66061597               12.28902597               95.47555118                0.00010000               56.31745527              -19.27580648               -4.69746927               14.50853637               57.23082757               -2.09975102
              33.18813287               11.68828290               94.50691114                0.00010000               46.65825722              -15.76208211               -7.74191397               18.90766175               61.56254431               -6.98980059
              34.59378112               11.06864681               93.27963818                0.00010000               34.68899960               -9.78189425              -13.02508382               19.20186603               55.76061189              -14.90270118
              35.88191286               10.39789231               91.73905773                0.00010000               26.35814470               -1.02852378              -27.10158189               15.04334009               37.29173084              -26.82616472
              37.12094401                9.64688098               89.85709997                0.00010000               27.84574616               11.65630850              -60.42674827                7.65090598               13.86768298              -43.93154724
              38.43882779                8.80585298               87.73863012                0.30455945               31.78837729               28.61889336             -120.46796242                3.70043998                5.13689671              -66.62334299
              25.45315362               16.21093304               97.18930025                0.95165884                0.00595717               -0.00058573               -0.01735653                0.00622139                0.02384014                0.44304652
              26.45321319               15.64274391               96.76876280                0.59906186                0.00405245               -0.00266411                0.00544621                0.01583717                0.05236216               -0.10876095
              27.45323467               15.07469302               96.34876005                0.00010000               30.64318296               -0.00898992                0.05232659               -7.48146259               26.84683931               -0.58271995
              29.06607685               14.35642663               96.46379648                0.00010000               63.54600158              -16.88452161                5.26718802               -9.52548752               59.83397165               -2.34199423
              30.72415470               13.67878648               96.08293994                0.00010000               65.39244424              -24.28022930                0.29503911                1.59798588               54.28351111               -3.26455305
              32.37392574               13.07347750               95.35315496                0.00010000               60.49102585              -22.83898662               -4.57673542               10.04125802               60.20837060               -4.26481143
              33.93397522               12.51682873               94.34585681                0.00010000               49.34187397              -17.70067707               -7.92296154               13.75826943               63.40973931               -6.44293318
              35.36076322               11.96771391               93.05651690                0.00010000               36.36016279              -10.04595434              -13.86545153               13.47648554               56.59658292              -10.92128597
              36.66117847               11.39715161               91.43500463                0.00010000               27.23170701                0.52557727              -28.91564391               10.42415735               37.39393003              -18.07623283
              37.90539736               10.78499587               89.45994000                0.00010000               28.20065846               15.00581710              -63.53965418                5.53580188               13.59699202              -28.07063342
              39.22519164               10.11957871               87.24406148                0.30470450               31.97942869               33.31455855             -125.19372011                2.58141302                4.86169775              -40.64540076
              26.02135325               17.21093671               97.04855850                0.94927561                0.00707368                0.00288315               -0.02604705                0.00200076                0.02558977                0.34146595
              27.02142399               16.64274645               96.62522801                0.40819943                0.01038113                0.00116439               -0.01132513                0.00472907                0.13325791               -0.15116526
              28.02156087               16.07459373               96.20403969                0.00010000               32.04680872               -0.03756659                0.03192302              -17.18659663               29.57098106               -0.50006500
              29.66236016               15.16179145               96.36880575                0.00010000               67.75658729              -26.04338731                5.63885961              -16.21355035               65.42090267               -3.04914153
              31.37669262               14.40737525               96.02492717                0.00010000               68.05193635              -27.55279934                1.44161405               -1.46152017               59.84961439               -4.66652272
              33.02339889               13.83224624               95.29926068                0.00010000               59.61846140              -24.08379032               -3.16437293                6.54551596               63.06899429               -3.96266566
              34.56906185               13.33426936               94.27284921                0.00010000               47.97945318              -18.06088499               -6.68462399                8.30831144               64.24711570               -4.18379025
              35.98298795               12.86772773               92.94551717                0.00010000               35.20261033               -9.80907543              -12.95541109                7.72047229               56.10597195               -5.97081790
              37.27311405               12.40840386               91.27338865                0.00010000               26.31224990                1.35111221              -28.40017775                5.99963282               36.30276673               -9.23846323
              38.50923295               11.94699732               89.24301785                0.00010000               27.40881550               16.48504082              -63.63203043                3.46778635               12.95706697              -13.60224434
              39.82129036               11.47214415               86.98070613                0.30472256               31.20574133               36.24015793             -126.40663039                1.27289998                4.68233772              -17.84127219
              26.58957416               18.21099071               96.90634910                0.97454142                0.00765987                0.00540020               -0.02135781               -0.00026015                0.14903919                0.26293238
              27.58965075               17.64276720               96.48148320                0.63898267                0.04417900                0.00207546               -0.01191368               -0.02977429                0.33885334               -0.16628950
              28.59045774               17.07394169               96.06042705                0.30803857               40.96867811               -0.06520385                0.06735288              -33.47072926               37.49289106               -0.53349604
              30.40902432               15.83555889               96.37581811                0.30691991               71.70058842              -32.62325586                8.42036580              -22.64414388               81.03475792              -10.12851478
              32.02446950               15.12773050               96.07420276                0.30766697               58.44588161              -27.96447551                4.46407909                2.58982876               65.03982273               -8.80591977
              33.57794195               14.59180169               95.35423951                0.30752627               52.00952295              -24.04445487               -0.30835416                6.84833273               63.21705297               -7.22559486
              35.06465996               14.15561103               94.31286940                0.30690664               43.15481074              -17.86583288               -3.99435578                8.54634718               62.36656245               -6.38396739
              36.44103816               13.77153240               92.96155561                0.30574036               31.86207850               -9.61953225              -10.04171549                9.23316227               53.53611976               -6.73849799
              37.70190153               13.42417385               91.26026418                0.30477019               23.49873114                1.57699945              -24.98518100               10.03696205               33.01303356               -7.70644492
              38.91101279               13.11469668               89.19448992                0.30435989               24.92272225               16.76993612              -59.60138722               11.18838441                9.34462704               -8.50794315
              40.20035598               12.84438187               86.90847642                0.65211891               28.93431916               37.22377125             -122.44969118               10.87507987                0.85556407               -5.56555460
              21.32742054                8.34955080               99.31039600                0.97519579                0.01616436                0.02706706                0.04471776               -0.03551857               -0.17199661                0.21271093
              22.32758219                7.78555393               98.90765191                0.94936043                0.05465824               -0.01618209                0.01881427               -0.05973650               -0.20959730                0.03016893
              23.32851371                7.22218943               98.50399201                0.94992813                0.10273731               -0.06548329                0.03229998               -0.03381662               -0.22807962               -0.00759876
              24.32963693                6.66083029               98.10077888                0.82654965                0.11554038               -0.03708922                0.02929565                0.04587297               -0.19097788               -0.02575289
              25.33082452                6.10158350               97.69778855                0.65997089                0.10271973                0.00052555                0.04002112                0.04782615               -0.12686331               -0.02384199
              26.33169133                5.54418878               97.29572562                0.55796389                0.06932552                0.00499274                0.05715776                0.04204872                0.03143316               -0.03376316
              27.33221103                4.98830108               96.89486018                0.50048973                0.02396817                0.00722775                0.10059639               -0.01675943                0.19445932                0.06019677
              28.33217069                4.43339347               96.49446988                0.46417859               -0.02833957                0.00451567                0.11528332               -0.08133629                0.20939691                0.12573571
              29.33164424                3.87798350               96.09278482                0.45690190               -0.04714625                0.00944284                0.03386754               -0.11893559               -0.01107971                0.09460840
              30.33122777                3.32080909               95.68800002                0.47162308                0.03106565                0.05692643               -0.20542335               -0.10885001               -0.27195401               -0.01552327
              31.33226555                2.76252612               95.28196633                0.75341248                0.10377813                0.09165859               -0.60008007               -0.11654459               -0.34799097               -0.60106177
              21.89106223                9.34982147               99.16876802                0.95259066               -0.03967172                0.08067266                0.06078408               -0.04420761               -0.00518175                0.31887714
              22.89066551                8.78539211               98.76590539                0.89851797               -0.02624323               -0.00072147                0.03963174               -0.06808690                0.02161723                0.04159723
              23.89053736                8.22153459               98.36351048                0.90378348               -0.01334433               -0.07229329                0.03704164                0.00182933                0.08103524               -0.08933268
              24.89039862                7.66045940               97.96177879                0.90518407               -0.04569146                0.02179401                0.02347073                0.04063256                0.14724912               -0.00087689
              25.88962353                7.10158876               97.56056140                0.74871710               -0.08227981                0.04432869               -0.01755324                0.04261136                0.21349469               -0.01207711
              26.88875303                6.54423871               97.15982320                0.49561489               -0.10912236                0.05388681               -0.03860658                0.04626974                0.34343909               -0.03573081
              27.88744109                5.98837336               96.76087936                0.35675489               -0.11184554                0.06277136               -0.06096722               -0.00207608                0.51424791                0.05610727
              28.88651612                5.43343863               96.36230523                0.26942778               -0.03470081                0.03641933               -0.11534732               -0.07044117                0.69043369                0.14177233
              29.88674707                4.87807793               95.96330029                0.21390558                0.06759196                0.00711027               -0.14935904               -0.13826274                0.85398528                0.10935681
              30.88786796                4.32137835               95.56309654                0.17597711                0.13179963                0.02505278               -0.13910560               -0.16834230                0.76998019               -0.16461879
              31.88938306                3.76344271               95.15901481                0.55397868                0.15151069               -0.03119420               -0.37516933                0.01139432                0.68681034               -1.13325414
              22.45539511               10.35116426               99.02878261                0.95710028               -0.08877848                0.15995786                0.03557959               -0.01043319                0.02278204                0.44873687
              23.45450733                9.78553950               98.62415497                0.90586530               -0.09560530                0.01776614                0.03982551                0.02351335                0.11247743                0.02987329
              24.45348301                9.22074356               98.22131728                0.00010000               -0.20559558               -0.16760215                0.04442074                0.36302935                0.43194790               -0.40868187
              25.45039542                8.66126617               97.82317745                0.00010000               -0.27927857               11.78956726                0.01118472               17.95350308                0.59515962               13.77013705
              26.44789744                8.10247008               97.42362723                0.00010000               -0.22816460               12.36795217               -0.07291350               31.14101176                0.58553477               12.90977409
              27.44583213                7.54526651               97.02441141                0.00010000               -0.24639258               10.80617235               -0.09923883               44.98135929                0.74211407                7.11289771
              28.44296959                6.98955651               96.62768928                0.00010000               -0.23874159                8.09734171               -0.09710155               56.04538400                1.02721720               -0.04728377
              29.44105729                6.43412186               96.23131314                0.00010000               -0.10151647                4.22973428               -0.16224058               63.06657345                1.59968065              -10.48843323
              30.44093926                5.87812571               95.83463213                0.00010000                0.07194242               -2.47702986               -0.43863765               65.17445028                2.77912701              -28.43789023
              31.44249614                5.32131014               95.43568319                0.00010000                0.37127286              -15.50687759               -1.01267889               65.43580961                4.38110839              -61.69406194
              32.44836471                4.76190224               95.02757158                0.39843301                0.58685706              -61.07396299               -6.60410927               84.44541590               10.49328204             -119.84782962
              23.02210307               11.35302063               98.88899206                0.95771824               -0.05465956                0.16841156                0.01760382                0.05146722                0.02505933                0.49342121
              24.02155647               10.78574743               98.48196427                0.90452010               -0.00158930               -0.00194745                0.02700717                0.07051869                0.01794189               -0.00404030
              25.02207128               10.21818255               98.07474506                0.00010000               17.30928471               -0.21617821                0.04146406               12.40368286               14.61864523               -0.59454580
              26.36774217                9.89625074               97.95969001                0.00010000               30.31860718               13.94853132                1.38055437               42.07949198               34.54251257               28.18885498
              27.62844343                9.34894780               97.54496931                0.00010000               26.67758088               16.83843418               -8.18595484               56.83371732               40.23328408               26.36246991
              28.90129379                8.76036215               97.03163536                0.00010000               24.55249998               14.88023335               -8.53198983               80.76591664               52.75452524               15.23078477
              30.11949343                8.15032019               96.49272096                0.00010000               17.89922996               10.92692757               -5.91316352              100.67704405               63.25723274                0.86410909
              31.25927838                7.51803331               95.88896963                0.00010000                9.17771823                4.88565022               -2.18164173              112.60872513               66.67382874              -19.12719108
              32.30304779                6.82853733               95.13653353                0.00010000                2.67646165               -5.79247012                0.93972639              113.11725255               56.49510822              -51.76717511
              33.31280762                6.01124080               94.08591126                0.00010000               19.70296958              -29.54895044               -7.19749245               82.64113742               26.43222518             -110.66491182
              34.69710718                4.54196345               92.65630283                0.30370883               38.42995648              -78.83922911              -59.58516752               64.99959961                9.75443311             -228.42288298
              23.59097085               12.35453249               98.74920398                0.95573089               -0.02150667                0.11761096                0.00923892                0.04586126                0.00763822                0.50938726
              24.59075578               11.78550055               98.33933652                0.90106710                0.00412531               -0.01938465                0.01425016                0.06475440                0.01389241               -0.01544520
              25.59105336               11.21642000               97.92949381                0.00010000               28.52321103               -0.14173043                0.01615969               14.69322769               21.05296942               -0.53243192
              27.16122000               10.94023680               97.94036081                0.00010000               56.47035093               -0.28770129               -2.21066143               37.81912880               55.20405062               18.02234839
              28.72046038               10.43923876               97.50987352                0.00010000               54.92790333                2.02922308              -13.33108739               47.28466910               66.46091738               18.16748298
              30.25977807                9.84287118               96.90603026                0.00010000               48.91894664                2.00407858              -14.21358734               64.76435509               84.77392614               10.01050081
              31.69883931                9.20809506               96.22155958                0.00010000               37.76182916                0.74864677              -11.42849987               81.31376101               97.65097498               -2.80937014
              33.01501465                8.53183486               95.40211051                0.00010000               25.56187560               -1.97714874               -7.74679440               91.40390962               98.04216879              -21.03634488
              34.21007682                7.76227631               94.33054475                0.00010000               18.34390607               -7.64119629               -7.49836806               87.76887003               79.71547256              -48.27497101
              35.38189278                6.73033113               92.82963874                0.00010000               23.84172901              -18.71795237              -24.73427106               60.10558862               43.21185070              -94.25232820
              36.68691140                5.18511766               90.87429419                0.30402230               30.50186248              -14.60712881              -88.57640958               31.03165911               18.87946385             -174.89648777
              24.16108416               13.35537285               98.60939549                0.95450947               -0.01201072                0.06209799                0.00611858                0.03898363                0.00984940                0.50547641
              25.16096405               12.78535974               98.19686510                0.89956226                0.00577171               -0.01399016                0.00760137                0.04890362                0.01547704               -0.00593457
              26.16119959               12.21534794               97.78433185                0.00010000               37.01709627               -0.08941482                0.00541895               12.30109714               24.00751902               -0.51304843
              27.90130598               11.89049672               97.85157540                0.00010000               75.51514157               -7.93737198               -4.52701113               29.95910002               63.20660047               10.26349520
              29.67150242               11.38953227               97.40286732                0.00010000               76.32093066               -9.95117362              -16.49954210               34.72520914               75.93937768               11.09885546
              31.42772459               10.80044372               96.72527939                0.00010000               69.26512716               -9.69786438              -17.34840828               46.80444876               96.35733843                5.84808283
              33.05680497               10.16529313               95.91440734                0.00010000               55.27253691               -8.93924904              -14.97836701               58.82096551              110.16278709               -3.64747879
              34.53317533                9.47849034               94.90976743                0.00010000               40.15619753               -8.38502995              -12.63786044               64.72072186              109.85892435              -17.68189197
              35.85992892                8.67571341               93.58347023                0.00010000               27.94513547               -8.16422215              -15.45126748               58.15176296               89.93860699              -38.83186693
              37.09207804                7.63688175               91.76161294                0.00010000               27.41191968               -3.73097180              -38.27556436               34.25289214               49.34400300              -73.21001366
              38.40816731                6.24982087               89.40943650                0.30420001               31.60892739               15.02004602             -109.51209816               18.05734713               22.37573414             -131.03545211
              24.73177674               14.35577445               98.46955036                0.95343862               -0.00179746                0.02545782                0.00294742                0.02806357                0.01223018                0.48798216
              25.73175876               13.78522075               98.05444478                0.89833563                0.00807922               -0.01530686                0.00736487                0.03479877                0.02097613               -0.01499646
              26.73193832               13.21463170               97.63941891                0.00010000               42.72294584               -0.05997852                0.00977834                6.90106747               25.49510328               -0.48372206
              28.58621768               12.78148936               97.73368782                0.00010000               88.65396146              -12.96704971               -6.57698978               17.99024414               67.21509362                4.82780112
              30.50501755               12.24021529               97.26710737                0.00010000               91.69442517              -18.62531939              -18.95655921               22.80915508               80.28951598                5.13449269
              32.42010618               11.64891389               96.53343274                0.00010000               84.60972270              -19.26597315              -19.71822980               32.37917962              101.41623347                1.96540292
              34.19721201               11.02931008               95.62470525                0.00010000               68.94513127              -17.12007930              -17.64011842               41.09207994              115.48607519               -4.33308897
              35.79900881               10.36413426               94.47651672                0.00010000               50.87543292              -13.45499300              -16.25666601               44.05067630              114.92612744              -14.32110329
              37.21472066                9.59899186               92.96108502                0.00010000               34.69171715               -7.42011845              -20.93105927               37.28269028               93.90988994              -29.67078951
              38.49284315                8.65571170               90.90495712                0.00010000               30.37297153                4.46658258              -46.39350987               20.64782480               51.13375829              -54.27898959
              39.82218010                7.48551858               88.27982237                0.30382588               32.93369424               26.49811294             -120.69494522               10.63297643               22.88172118              -92.92498714
              25.30275282               15.35588201               98.32951890                0.95219371                0.00499527                0.00269145               -0.00068747                0.01890454                0.01929674                0.46104502
              26.30280277               14.78505360               97.91187307                0.72632475                0.00997572               -0.01578265                0.00977578                0.02025222                0.04299317               -0.05793262
              27.30295234               14.21414837               97.49469664                0.00010000               46.63622478               -0.03761660                0.02685765               -0.58460524               26.40532430               -0.51058979
              29.23552727               13.63115572               97.60411681                0.00010000               97.86543274              -17.34556513               -7.91254943                3.94330890               69.80836825                0.41786758
              31.26026099               13.01702588               97.12950834                0.00010000              102.53430626              -25.76020370              -20.45113038               12.00540226               83.36789037                0.18268129
              33.28621340               12.41512426               96.36091778                0.00010000               95.15826045              -26.57982625              -21.08450373               22.18230407              104.60950229               -1.32377251
              35.16342620               11.82289154               95.38447101                0.00010000               77.91468368              -22.85507973              -19.21031788               28.95167724              118.35956911               -4.98509001
              36.84450707               11.20939048               94.13418448                0.00010000               57.52895443              -16.58473253              -18.45003785               30.09798098              117.20993426              -11.51261054
              38.31400529               10.52731104               92.48494010                0.00010000               38.70003752               -6.97666465              -24.14582262               24.50075801               95.31894531              -21.95442483
              39.61850782                9.72621340               90.26797913                0.00010000               32.36038936                8.32544631              -50.92613248               13.13530784               51.37325845              -38.29914184
              40.96121308                8.77978313               87.46416785                0.30395498               34.27052563               30.64706289             -126.67519650                6.78004933               22.71274984              -62.93272146
              25.87381163               16.35582828               98.18916662                0.95079564                0.00858108               -0.00574629               -0.00394578                0.01191709                0.02434740                0.42078278
              26.87389744               15.78490510               97.76879893                0.53904827                0.01662332               -0.01109464                0.00035346                0.00875998                0.06284201               -0.12918284
              27.87414410               15.21387937               97.34920398                0.00010000               49.41544547               -0.03051763                0.02784478              -10.38471716               27.68561059               -0.55033256
              29.86220635               14.43457806               97.48084174                0.00010000              104.35064809              -23.45780352               -8.43532389              -12.62052549               73.22525045               -3.39351558
              31.96115706               13.72501122               97.01833530                0.00010000              109.78401249              -33.30627871              -20.62110024                3.72658732               87.20875452               -3.53925618
              34.05788660               13.11731737               96.23899099                0.00010000              101.04111378              -31.63263427              -21.09055747               15.30268057              107.76070588               -3.38557927
              35.98197934               12.57220848               95.22124658                0.00010000               81.93311642              -26.03552825              -19.47355831               20.39287437              120.19764309               -4.80943689
              37.69654893               12.03243961               93.90291259                0.00010000               60.29667814              -18.01162239              -19.21259278               20.21126231              118.03224255               -8.62141526
              39.18791290               11.45945857               92.16417506                0.00010000               40.32641427               -6.57841831              -25.55659945               16.11037605               95.43835056              -15.08694633
              40.50307722               10.82222062               89.84283719                0.00010000               33.13643602               10.33369765              -53.14356853                8.90767893               51.06685233              -24.89493382
              41.85064162               10.09845984               86.92768432                0.30378138               34.75644032               33.27357484             -129.84285211                4.49283860               22.42602775              -39.22273386
              26.44483752               17.35576708               98.04833706                0.92652548                0.00893634               -0.00346337               -0.01747451                0.00586868                0.02261155                0.32196402
              27.44492688               16.78483171               97.62512422                0.30092326                0.03737587               -0.00598316               -0.00769930               -0.01183767                0.13973019               -0.16802823
              28.44558504               16.21353802               97.20420952                0.00010000               51.35290151               -0.12026190               -0.02020013              -23.89880953               30.64598776               -0.52958375
              30.47198491               15.16199965               97.38886103                0.00010000              110.32341941              -36.85931395               -8.23737744              -22.16574296               79.99171387               -4.40225928
              32.65205342               14.35090030               96.97183644                0.00010000              113.65424138              -37.86101455              -18.90017484               -0.60190505               93.63796796               -4.98979626
              34.74506974               13.78247158               96.19987409                0.00010000              100.20540110              -33.59236599              -19.47155626                9.90282327              110.74607731               -3.06473866
              36.65616145               13.30218098               95.16035767                0.00010000               80.82062442              -26.86505067              -18.33548599               11.91087420              120.95996022               -3.05383173
              38.36148223               12.84915803               93.80072408                0.00010000               59.51351755              -18.21712526              -18.45763386               11.04976910              117.71403670               -4.81742924
              39.84643180               12.39574267               92.00817979                0.00010000               39.80889522               -6.25126644              -25.11500476                8.78262668               94.68799582               -8.05693693
              41.15766013               11.93288736               89.62619991                0.00010000               32.60798113               11.08710975              -53.04614194                5.25755125               50.45978347              -12.62473056
              42.49859142               11.44525463               86.65143744                0.30336003               34.09312875               36.55251556             -130.91417589                2.12961580               22.19081002              -18.81955385
              27.01579974               18.35575901               97.90621315                0.92182434                0.00900084               -0.00080719                0.00059907               -0.00113488                0.12899613                0.23962782
              28.01588975               17.78478543               97.48142979                0.56873281                0.16001116               -0.00462766               -0.00840148               -0.11795699                0.36037526               -0.16865376
              29.01899997               17.21147413               97.06117584                0.31150927               63.28197286               -0.20638890                0.01765286              -47.02818992               40.61458530               -1.08815839
              31.28152921               15.69739178               97.42333929                0.30689638              115.48235357              -46.46078774               -5.68775977              -31.22973059               99.07966247              -12.87515488
              33.32864704               14.96779093               97.04943876                0.30757410              101.15665933              -38.31093784              -15.52784337                5.06327495               98.23455847              -10.29319254
              35.30466239               14.44547005               96.28110082                0.30737310               91.24316651              -33.70015269              -17.06018105                9.31509277              110.14503746               -7.18728082
              37.15351037               14.03490747               95.22459557                0.30679189               75.96601101              -26.72735064              -16.31377890               10.86624495              119.43941927               -6.57057794
              38.82398261               13.66809710               93.84469900                0.30576413               56.31628690              -18.10609235              -16.00353464               11.22632734              116.57998979               -7.63913705
              40.27983611               13.33443324               92.03038586                0.30446800               36.73668347               -6.13094318              -21.72541945               12.13371647               93.48132178               -9.41940461
              41.55871628               13.04396282               89.62330841                0.30361458               29.43316399               11.10754623              -48.69256417               14.85946052               49.08027827              -11.20179705
              42.86849939               12.82951015               86.62650655                0.65186598               30.97831006               38.42555175             -126.41030150               15.54552957               21.01531686              -11.84639240
              21.72886812                8.49290165              100.31060055                0.97448113                0.01901237                0.05700320                0.00527745               -0.02510037               -0.09618163                0.12789035
              22.72905824                7.92745301               99.90765246                0.94840576                0.05505158               -0.00099161               -0.00963732               -0.04885510               -0.12170529                0.01671001
              23.72996915                7.36267551               99.50417545                0.94898803                0.09975779               -0.05761329                0.00272612               -0.02455223               -0.13982905                0.00329441
              24.73105340                6.79978679               99.10097146                0.76256820                0.12046827               -0.02846806                0.00388408                0.06177388               -0.11631237                0.00299846
              25.73237852                6.23896094               98.69809320                0.56035625                0.15018472               -0.00999476                0.00578781                0.09527625               -0.02071726               -0.00534496
              26.73405709                5.68042756               98.29627159                0.45214018                0.17237992               -0.04393761                0.02510068                0.08806815                0.22158115                0.03621832
              27.73582611                5.12414629               97.89607836                0.41106104                0.13029970               -0.06172789                0.09863442                0.03911388                0.46933996                0.16933399
              28.73666309                4.56853518               97.49599365                0.39713716                0.01998016               -0.05196436                0.12596698                0.03656295                0.45100833                0.19046051
              29.73622572                4.00969017               97.09352782                0.39310071               -0.06419818               -0.01379023                0.05667636                0.05002723                0.15680160                0.10584164
              30.73537912                3.44538755               96.68637190                0.38961749               -0.00796853                0.01998313               -0.10621107                0.00688268               -0.17382218                0.07995561
              31.73606635                2.87706478               96.27589247                0.69764681                0.06872235               -0.10351727               -0.44136879                0.02166237               -0.33779113               -0.51776406
              22.29406576                9.49347168              100.16916495                0.95109092               -0.03829977                0.12050312                0.01570946               -0.03140665                0.01310979                0.20652478
              23.29368276                8.92744309               99.76620005                0.89730208               -0.02545109                0.01452492                0.01908023               -0.05074484                0.03722791                0.02216601
              24.29355673                8.36209938               99.36386308                0.90188614               -0.00771672               -0.07805998                0.03112018                0.02178874                0.07196971               -0.05873105
              25.29352842                7.79950211               98.96198117                0.90166526               -0.02729205                0.02124256                0.01373216                0.05217285                0.11056158                0.02445059
              26.29301089                7.23886099               98.56028063                0.46945898               -0.05916613                0.02868722               -0.02671042                0.08563125                0.19978952               -0.00531776
              27.29234510                6.67998819               98.15936684                0.19800060               -0.04237246                0.02214524               -0.07441376                0.11019811                0.42117009                0.05333394
              28.29216344                6.12352901               97.75986904                0.13785989                0.09558378               -0.03090917               -0.20300018                0.19398821                0.74665278                0.31076460
              29.29425678                5.56801554               97.36046660                0.21037957                0.30681800               -0.10419051               -0.27901083                0.50162315                1.13391426                0.39857303
              30.29829980                5.00955226               96.96119895                0.42722824                0.37519322               -0.10091285               -0.25946589                1.33861697                1.49872182               -0.02570178
              31.30176064                4.44558739               96.56153255                0.47623733                0.31529687               -0.26207884               -0.19998459                2.98290000                1.43933750               -0.94487658
              32.30460574                3.87602961               96.15518603                0.62503981                0.28451000               -6.33351099               -0.38512896                9.26776302                1.27991141               -7.14909845
              22.86029716               10.49531171              100.02889895                0.95557236               -0.08815198                0.20675846               -0.01344629                0.00906470                0.03275148                0.31765721
              23.85941564                9.92774350               99.62449508                0.90654008               -0.09756309                0.03321118                0.02790328                0.04945954                0.10568283                0.01868352
              24.85834590                9.36111431               99.22187159                0.00010000               -0.20402003               -0.19462521                0.07692558                0.41492445                0.35812616               -0.33882463
              25.85533524                8.80021165               98.82335700                0.00010000               -0.23704179               16.40915028                0.02871336               30.80253455                0.45576299               12.86231782
              26.85360507                8.23953469               98.42272602                0.00010000               -0.18711016               16.99778911               -0.08077774               62.85789917                0.52880512                4.68258121
              27.85159304                7.68087047               98.02344662                0.00010000               -0.09632691               14.88269266               -0.26340167               87.54765156                1.20512163               -0.00023493
              28.85167853                7.12352810               97.62647490                0.02326079                0.45396270               12.45082344               -2.18011543              107.46217051                7.79161783               -5.37958573
              29.86067229                6.56645137               97.22882387                0.23012463                1.68738412                9.89980919               -6.79228931              123.94317728               33.76436626              -11.57664363
              30.88542621                6.00767191               96.82672762                0.71071818                3.39437409                5.19917939              -12.85091579              135.93837219               72.95867472              -23.12020265
              31.92855978                5.44014598               96.41705482                0.89985536                8.75554732               -8.34801984              -16.45848479              135.43212394              115.50353575              -51.34009471
              33.06053716                4.75039456               95.90410890                0.69161468               13.19773806              -76.37997835              -63.01408893              147.69780019              160.89616438             -191.47834096
              23.42938346               11.49760685               99.88898648                0.95649102               -0.05141153                0.20044618               -0.02215687                0.08150907                0.03022993                0.37630535
              24.42886934               10.92810731               99.48219137                0.90520635                0.00018115                0.00901380                0.01357343                0.09809705                0.02862621               -0.00597710
              25.42938708               10.35820688               99.07530381                0.00010000               30.11446998               -0.23311924                0.05649585               17.11647980               13.68313439               -0.48438048
              27.03115874               10.12768512               98.94150935                0.00010000               62.00614850               19.30686667              -28.23451101               69.84216630               95.27609827               29.15079072
              28.66951005                9.57881678               98.37945762                0.00010000               56.40729852               23.30713049              -26.60845511              107.97078610              114.06170015               16.38193997
              30.15930471                8.97764204               97.88749734                0.00010000               44.31579492               21.61860666              -23.30709107              149.65303644              135.08124335                7.54142908
              31.55582595                8.37254548               97.38478805                0.00010000               36.48359015               18.62442836              -19.75875867              184.31774306              147.30019688               -3.29188452
              32.88897652                7.76601172               96.82817068                0.00010000               29.37733459               14.52562721              -16.07163040              209.03607296              154.35219231              -17.18747631
              34.14337264                7.11353585               96.13717910                0.00010000               18.93519740                6.38765826              -11.09475228              217.29147937              150.40598187              -38.19118587
              35.26768046                6.27862699               95.05848933                0.00010000               24.73459649              -18.66697577               -7.67312114              166.39077156              110.34722171              -87.71794099
              36.63806457                4.34843004               92.99300515                0.30349809               37.03841073              -79.58743836              -46.24459991              117.79244303               59.13009015             -215.20293416
              24.00092641               12.49932063               99.74919313                0.95449467               -0.01488577                0.12639057               -0.01461530                0.07732002                0.01274402                0.39662304
              25.00077756               11.92792378               99.33945110                0.90197750                0.00856391               -0.01663704                0.00855481                0.09718404                0.01939282               -0.01379740
              26.00109769               11.35645193               98.92966457                0.00010000               51.53955571               -0.13810567                0.01792372               20.14918025               16.37943652               -0.42473949
              28.03156867               11.18634898               98.84687430                0.00010000              108.09830866               -1.51058102              -37.20195882               57.29946672              106.31708350               13.02671956
              30.16306386               10.70567729               98.26192648                0.00010000              100.96781984                2.51924557              -34.86567995               75.50753274              134.99680201               12.85379406
              32.05092507               10.11324260               97.68115570                0.00010000               79.32999211                4.10809845              -30.00596636              103.13898988              160.96195442                6.68650246
              33.74966371                9.49601667               97.04161934                0.00010000               62.47391556                4.15724855              -24.77650266              128.79421699              174.49040480               -1.96481459
              35.30040338                8.85696392               96.27916257                0.00010000               48.44884120                2.48423995              -19.90212766              145.62764660              178.94345040              -13.67395786
              36.71864053                8.13542507               95.24896012                0.00010000               36.05388180               -2.77296937              -16.22700856              142.00005304              166.37014315              -32.40662762
              38.02148101                7.06680646               93.62774337                0.00010000               27.90696876              -14.37554669              -19.99650145               96.72390427              118.15347203              -65.66336029
              39.27677991                5.15864580               90.93501078                0.30355250               25.52988923                0.60079553              -77.62820002               50.71621691               78.29932752             -139.42181033
              24.57372356               13.50013466               99.60941516                0.95302386               -0.00418359                0.05639239               -0.00440998                0.06658731                0.01228493                0.39092121
              25.57368173               12.92777457               99.19692476                0.89957243                0.01109625               -0.01681102                0.00465967                0.07746861                0.01945338               -0.00495922
              26.57394549               12.35544476               98.78437815                0.00010000               62.71204920               -0.07315768                0.00112064               15.79066749               17.55956146               -0.39270586
              28.82792271               12.09747350               98.72240834                0.00010000              133.94107971              -11.64463212              -44.04014697               39.50463012              111.76962333                6.98640769
              31.25276708               11.62920169               98.11073661                0.00010000              130.19112116              -13.64490940              -40.63244368               48.25747262              141.29990037                7.62938706
              33.43174513               11.05980401               97.46349658                0.00010000              106.76109466              -12.52896505              -34.76417411               66.26742757              169.08378354                4.82819638
              35.38798898               10.45569045               96.69759819                0.00010000               86.51879550              -11.03358756              -28.78900615               85.41545735              182.82241051               -1.00561028
              37.16212104                9.81569652               95.74013029                0.00010000               69.27710907              -10.22256177              -23.98359702               97.52303629              186.40594337               -9.72705200
              38.77353116                9.05807646               94.42899973                0.00010000               50.84083912              -10.62943259              -21.74803410               92.25411208              172.01765635              -23.06342634
              40.17893783                7.99111606               92.43285686                0.00010000               34.75895420               -5.34413720              -29.48242401               57.25831010              122.08241365              -46.34754413
              41.46871024                6.36044595               89.27561070                0.30324050               28.97724138               23.76619766              -91.13831882               31.94553375               79.94110697              -97.07032905
              25.14697833               14.50044848               99.46957822                0.95170779                0.00384910                0.02092048               -0.00108267                0.05413709                0.01027931                0.37718058
              26.14701682               13.92758756               99.05449660                0.77475821                0.01168912               -0.02438220                0.00657549                0.07039534                0.01721706               -0.01830612
              27.14721212               13.35498878               98.63949101                0.00010000               70.04437624               -0.03340530                0.00390085                8.63294387               17.44916354               -0.36088577
              29.54790435               12.95345634               98.57278630                0.00010000              150.93353449              -16.83940959              -48.49770231               23.40933296              113.65648095                2.68123014
              32.16588280               12.43277911               97.94096256                0.00010000              150.09402541              -24.18980776              -44.60520756               31.43902440              144.29200974                3.21953995
              34.54978486               11.86266330               97.24255581                0.00010000              126.80987688              -25.14058671              -38.05606963               45.43320144              172.45310971                1.88445598
              36.70208034               11.27534492               96.37941408                0.00010000              104.93466151              -23.18253371              -31.74230235               59.19589796              186.25378620               -1.56438400
              38.64847809               10.65251268               95.27317938                0.00010000               84.31114484              -20.18488936              -27.07201654               66.14405871              189.63302855               -7.31649282
              40.38830324                9.92283642               93.75907109                0.00010000               60.78998190              -15.11813459              -25.67848703               59.41884967              174.85136732              -16.56138980
              41.86427773                8.95992372               91.51015191                0.00010000               39.43637713               -2.40489907              -34.66383069               35.06884641              123.33106655              -32.42595286
              43.17703078                7.63396975               88.06198070                0.30326590               31.27530566               26.94453240              -96.89268284               19.00435835               80.33397955              -64.44061857
              25.72052815               15.50055307               99.32955830                0.95090032                0.00211931                0.00410285                0.00141534                0.04326677                0.01804807                0.36647395
              26.72054934               14.92728693               98.91194449                0.58109901                0.01037218               -0.03392270                0.00796500                0.08197167                0.04184309               -0.07400795
              27.72073559               14.35477666               98.49482603                0.00010000               74.88848503               -0.04076440               -0.00819257               -0.94548354               17.44807439               -0.39711813
              30.21831904               13.76068531               98.42471312                0.00010000              162.58025079              -22.48221152              -50.90548089                5.20875315              114.88883837               -0.46620935
              32.97234061               13.14540553               97.78392139                0.00010000              163.97621555              -33.35529235              -46.70540981               17.03023551              146.42675589               -0.11087163
              35.49784335               12.55699228               97.05386110                0.00010000              140.48584749              -34.79268499              -39.85691254               31.15389808              174.72414161               -0.38231577
              37.78205755               11.99203977               96.12270479                0.00010000              116.98336828              -31.52957919              -33.49858291               41.34662967              188.20136389               -2.22994785
              39.83751072               11.41199873               94.91063742                0.00010000               93.62197793              -26.18833402              -29.00885580               44.68377473              191.24634412               -5.94676410
              41.65449711               10.75571377               93.25614128                0.00010000               66.58353560              -17.53317174              -27.99557868               38.63684905              175.96175365              -12.17704610
              43.16918143                9.94301807               90.83857732                0.00010000               42.31041157               -1.55236525              -37.34119434               22.12851256              123.62397961              -22.61207289
              44.50070534                8.89933660               87.20512619                0.30344953               33.15239168               25.69423478              -99.33245709               11.98121095               79.99604269              -42.77938913
              26.29437595               16.50053054               99.18922134                0.94970480                0.00567205               -0.01118095                0.00497959                0.02300759                0.01963941                0.33666461
              27.29443267               15.92690911               98.76876987                0.37683248                0.02640589               -0.02659555               -0.00436234                0.07198720                0.07140690               -0.14391992
              28.29490407               15.35417349               98.34931694                0.00010000               78.35089342               -0.13732335               -0.04445597              -13.65443863               18.50225837               -0.48987588
              30.86145054               14.50381211               98.29509001                0.00010000              170.76382396              -31.47182944              -51.25538339              -15.61258770              117.17411419               -3.93022845
              33.71018055               13.76567326               97.67051793                0.00010000              173.23890194              -43.44648309              -46.62954076                6.45479033              149.49796218               -2.36691032
              36.32622858               13.16680960               96.93134381                0.00010000              148.19129660              -41.40753201              -40.00187950               21.55179673              177.07730256               -1.62120280
              38.67400648               12.64475334               95.95638564                0.00010000              122.61255033              -36.10980210              -33.89005835               28.36449523              189.40901618               -2.34525230
              40.77847958               12.12874600               94.67226504                0.00010000               97.80072019              -29.12030012              -29.70485435               28.96777485              191.76955960               -4.72346279
              42.63002088               11.57217299               92.92387264                0.00010000               69.23727816              -18.73297246              -28.94045482               24.35157205              176.07337936               -8.83147322
              44.16322515               10.92887641               90.39706863                0.00010000               43.69985305               -1.44932904              -38.49630675               14.08355016              123.44637388              -15.23075143
              45.50401794               10.14785445               86.64720444                0.30309256               34.07927965               24.87971207             -100.55184100                7.59411142               79.81555726              -27.51855685
              26.86823116               17.50032945               99.04820901                0.71325728                0.01149723               -0.02497295               -0.01253707                0.00979954                0.03085222                0.27352742
              27.86834613               16.92675502               98.62507402                0.15036174                0.12563282               -0.00630604               -0.00802034               -0.04181781                0.12935311               -0.18026776
              28.87074382               16.35203019               98.20363569                0.00010000               81.31106902               -0.79638069               -0.39727511              -31.47852098               22.24077310               -0.68119714
              31.49456751               15.13124872               98.20405820                0.00010000              178.38475495              -49.73564121              -48.78113530              -26.73251068              124.15699967               -6.39398161
              34.43843892               14.27647587               97.64692368                0.00010000              177.76158480              -49.95056253              -44.29795390                0.94057559              155.64616215               -2.92073316
              37.04979921               13.72884164               96.90982955                0.00010000              147.44860721              -44.06034902              -38.24176941               13.64125853              179.03994584               -1.24923004
              39.38741106               13.26984373               95.90613949                0.00010000              121.98236761              -37.45148388              -33.01513914               15.82973942              189.67919498               -1.41937039
              41.48944656               12.82959273               94.57636449                0.00010000               97.69935411              -29.89730851              -29.19323158               14.97893408              191.23905980               -2.80266441
              43.34139814               12.38105432               92.77108856                0.00010000               69.28622060              -19.03996831              -28.54802996               12.36682169              175.50646109               -5.14006115
              44.87517097               11.91403149               90.18209501                0.00010000               43.66166834               -1.62163376              -38.17438593                7.45745163              122.95941506               -8.26114940
              46.21463151               11.39693084               86.36242261                0.30332892               33.94605357               25.47306686             -100.83126988                3.80233945               79.58547721              -14.48778467
              27.44172080               18.50003108               98.90636108                0.79735137                0.01747688               -0.02983714                0.02213658                0.02415498                0.13041536                0.23185798
              28.44189557               17.92678299               98.48131517                0.51817959                0.95595712                0.00279675               -0.02941301               -0.73431627                0.39213881               -0.19275155
              29.46083995               17.33824587               98.06078011                0.41278382               98.02295359               -1.37843163               -3.95512271              -61.87457225               45.97829112               -6.74059960
              32.40235464               15.50909928               98.26206292                0.30603622              183.52795965              -62.21494364              -43.24129042              -37.80048012              143.05126866              -18.87275566
              35.13139914               14.76666201               97.76364590                0.30644207              160.16656203              -50.98138603              -39.12756479                8.12118930              158.45576736               -8.24060271
              37.60568588               14.28560262               97.01303589                0.30652179              137.92255154              -44.32390151              -36.01176729               12.04175001              177.44063550               -6.07528006
              39.88985017               13.89572366               95.98659382                0.30604062              118.05808939              -37.41200734              -31.69854520               12.50377145              188.67679614               -6.24345154
              41.96684767               13.53079983               94.64148491                0.30586231               95.15341924              -29.87929016              -27.55549091               12.52260929              191.63826957               -8.26521096
              43.79291855               13.19137362               92.82575579                0.30475351               66.48249924              -18.96807019              -25.73933274               13.43423660              176.13109552              -12.05498140
              45.29649766               12.89644374               90.22063864                0.30361933               41.06737371               -1.75877549              -34.94156878               15.42977647              123.34709282              -13.85614362
              46.61426603               12.65731578               86.38027039                0.65183368               31.77683713               26.03849384              -97.76857436               16.05065642               80.76420628              -17.89655277
              22.13139310                8.63497980              101.31050155                1.00000000                0.01800785                0.06737646               -0.00990016               -0.03257157               -0.05174044                0.06588172
              23.13157318                8.06879295              100.90745916                1.00000000                0.05025124                0.01998631               -0.01932934               -0.09111090               -0.07125738                0.01677693
              24.13239812                7.50288006              100.50404653                1.00000000                0.09098828               -0.02162198               -0.01289253               -0.11635421               -0.08723256                0.02908993
              25.13339294                6.93887084              100.10085656                1.00000000                0.13559568               -0.03079721               -0.01148972               -0.00897940               -0.07315641                0.02809135
              26.13511004                6.37710174               99.69790431                1.00000000                0.23724215               -0.02521572               -0.01888883                0.10495227                0.04170597                0.02636767
              27.13813779                5.81872265               99.29622764                1.00000000                0.33828680               -0.05922937               -0.00439567                0.29525776                0.35449725                0.04023767
              28.14187577                5.26410641               98.89683287                1.00000000                0.28018097                0.00857029                0.07545028                0.41656669                0.64304496               -0.00533819
              29.14374141                4.70825677               98.49698921                1.00000000                0.12631175                0.03230940                0.09955695                0.44489092                0.56210584               -0.05426156
              30.14440201                4.14475807               98.09391834                1.00000000                0.08226332               -0.03939799                0.03905271                0.31686253                0.26195843               -0.07394676
              31.14538667                3.57208691               97.68587580                1.00000000                0.10332958               -0.02890107               -0.04961048                0.16937758               -0.03821467               -0.00795933
              32.14646860                2.99358371               97.27313895                1.00000000                0.10819282               -0.13394039               -0.27535171                0.27025251               -0.23345952               -0.53077903
              22.69725424                9.63565356              101.16908221                1.00000000               -0.05422953                0.13580396               -0.00827421                0.00716450                0.03932591                0.11879525
              23.69671194                9.06899281              100.76628699                1.00000000               -0.05292999                0.05644514                0.00869420               -0.04572778                0.05545201                0.01766557
              24.69619564                8.50266384              100.36413289                1.00000000               -0.02598163               -0.01768582                0.02698028               -0.05222310                0.05221233               -0.00309144
              25.69619231                7.93856287               99.96205343                1.00000000                0.00190093                0.00567527                0.00722612               -0.02754759                0.06110365                0.05083292
              26.69623365                7.37684958               99.56002719                1.00000000                0.06978588               -0.00785104               -0.02534427                0.14206868                0.13635108                0.00422697
              27.69758803                6.81813036               99.15833493                1.00000000                0.25203636               -0.07956649               -0.10319123                0.76952179                0.36390092               -0.03999612
              28.70127438                6.26419212               98.75681936                1.00000000                0.51382312               -0.35303189               -0.30496792                7.09992120                0.83059825               -1.57098386
              29.70786449                5.70857986               98.35672502                1.00000000                0.71905898                1.33140667               -0.37415860               32.62612277                1.42535208               -6.01966066
              30.71565556                5.14436409               97.95811097                1.00000000                0.74015683                4.74917175               -0.30879765               71.53489155                1.85416755              -12.33404380
              31.72266762                4.57179790               97.55909685                1.00000000                0.60093806               11.27322766               -0.24356982              118.88395667                1.75076126              -16.34706399
              32.72767432                3.99224431               97.15131223                1.00000000                0.50066981              -44.95337052               -0.38738020              169.33020325                1.52839631              -63.67098764
              23.26485790               10.63769588              101.02851368                1.00000000               -0.12095468                0.22994980               -0.03852719                0.17477904                0.07600853                0.21175262
              24.26364835               10.06992185              100.62471303                1.00000000               -0.15371457                0.08395302                0.02179555                0.19650909                0.14037611                0.01527168
              25.26178361                9.50252634              100.22285579                1.00000000               -0.24960520               -0.09809396                0.09841997                0.46414235                0.29570459               -0.27169285
              26.25865625                8.93898434               99.82375172                1.00000000               -0.16998420               25.85931992                0.03947115              107.36681988                0.28989457              -14.47541213
              27.25838392                8.37694472               99.42201167                1.00000000                0.37647195               23.02682817               -0.07143487              157.28013842                0.24746886              -13.62034600
              28.26618569                7.81713132               99.01914338                1.00000000                6.75203855               21.76756512               -0.43032422              189.00506257               -0.43697054              -16.01598454
              29.39342469                7.25704578               98.58408697                1.00000000               32.49531025               20.25729700               -4.23879252              217.06516074                7.99081556              -19.61191121
              30.91609189                6.73488490               98.09546736                1.00000000               65.92285534               20.76826149              -13.33565120              243.43812088               55.21830216              -22.61604718
              32.71188180                6.23974150               97.57761382                1.00000000               87.95468464               24.90585188              -24.91138056              271.39298929              133.19786560              -28.96666493
              34.67518558                5.79755146               97.10651349                1.00000000               99.01490236               23.71977666              -31.05413318              239.80165905              184.14637989              -45.59185196
              36.69217985                4.09451630               95.76728980                1.00000000              101.69942634              -39.26207144             -113.68190989              193.84663498              229.24190010             -236.58289615
              23.83629787               11.64025256              100.88854893                1.00000000               -0.04862123                0.21701906               -0.04375498                0.33452591                0.06012232                0.28447098
              24.83581166               11.07067187              100.48223573                1.00000000                0.00590575                0.02846854                0.00443609                0.37366217                0.06053451               -0.00381495
              25.83641599               10.50070196              100.07587498                1.00000000              106.66493330               -0.18377354                0.05711671               26.72563389              -13.65890629               -0.40066726
              28.96911033               10.45574926               99.39499979                1.00000000              156.36367289               24.04439274              -54.65095620              151.66638544              140.64141983                1.43491064
              30.96368945                9.83738614               99.01280021                1.00000000               81.42389449               29.40454680              -36.66574121              206.27317436              187.94262680               -4.61565087
              32.59758822                9.25348166               98.56549354                1.00000000               58.05672846               29.17353351              -32.20037995              263.25452644              198.06562953               -8.07766065
              34.12482402                8.66933806               98.09754579                1.00000000               49.81714808               29.94714285              -28.72422654              303.38396380              207.00198064              -13.22361416
              35.59393118                8.12394509               97.56753702                1.00000000               47.80123833               30.57555974              -26.06336669              322.17970315              211.35010137              -18.77663359
              37.08084878                7.64248113               96.91463849                1.00000000               53.49974130               29.12908114              -22.25406159              319.96327130              211.99320507              -25.68593449
              38.66392601                7.04619343               95.93244884                1.00000000               46.49142810               12.25724640              -12.60404934              247.41238599              180.46317113              -57.08359440
              40.01067734                5.20700288               93.73141083                1.00000000               34.67513396                0.97797968              -26.15943219              163.39010801              117.15747652             -136.42069693
              24.41070979               12.64203626              100.74891168                1.00000000               -0.00375970                0.12768138               -0.02814534                0.34613579                0.03793233                0.30948072
              25.41067220               12.07049122              100.33950762                1.00000000                0.02545476               -0.02284043                0.00565206                0.36965401                0.03649452               -0.00712796
              26.41121889               11.49885087               99.92985229                1.00000000              127.23137852               -0.15172812                0.01877107               24.99361126              -16.14717938               -0.33614173
              29.95529977               11.41987220               99.19632164                1.00000000              208.74480631               -7.57181952              -65.05526605               65.37072216              136.50849146                2.14095533
              32.58611502               10.96503565               98.81255992                1.00000000              137.20122667                1.28488904              -44.93665627               88.67262719              197.78457991                4.80674804
              34.69932430               10.40060199               98.30591093                1.00000000              100.22627605                4.10629386              -37.52447640              125.79517232              210.51340384                1.96105744
              36.59064054                9.85598863               97.72602953                1.00000000               84.36092921                6.90240625              -31.55898134              162.87947764              219.00553390               -1.94873247
              38.38654289                9.34639609               97.00406795                1.00000000               79.91291729                8.29936941              -27.50946129              195.11479813              222.61270352               -7.92885871
              40.18889888                8.82232313               96.00600458                1.00000000               83.61843311                3.09263914              -24.29555350              211.15034944              218.30787316              -19.61664209
              42.05891155                8.04269639               94.42970871                1.00000000               72.47321151              -10.93355572              -19.80346538              165.74710526              169.52933367              -40.43522560
              43.63836311                6.11407590               91.32173019                1.00000000               57.94515649               -1.27792506              -61.32805978              122.67817168              125.36046816             -111.69402514
              24.98631067               13.64280619              100.60930729                1.00000000                0.00794651                0.05693297               -0.01078776                0.31267621                0.02381135                0.29800441
              25.98639013               13.07021506              100.19695829                1.00000000                0.02982840               -0.03281599                0.00335358                0.31896637                0.02318963               -0.00251768
              26.98690724               12.49766739               99.78435427                1.00000000              141.19749264               -0.09423842               -0.00238837               19.27554085              -20.01311691               -0.29550491
              30.81033999               12.30431287               98.97077246                1.00000000              238.47524815              -14.35315076              -75.16358852               48.39962524              138.53493668               -0.94545579
              33.75641220               11.86308392               98.59021845                1.00000000              170.60993486              -16.68071731              -52.05181580               58.31339370              203.32568433                1.51038876
              36.22253868               11.33560754               98.02999591                1.00000000              134.01036323              -15.21817497              -43.35006657               83.78474095              216.49979303                0.90037316
              38.43661946               10.80738618               97.33862721                1.00000000              115.36769830              -14.15364174              -35.89709732              112.76742841              224.86802763               -1.63894259
              40.52989265               10.28993248               96.43009549                1.00000000              108.54680049              -14.95494102              -31.00348045              136.12086050              227.27127706               -6.02598234
              42.60755547                9.70433391               95.14850954                1.00000000              107.86113446              -19.08503017              -28.04901888              141.17332187              220.49588052              -13.29872067
              44.68711534                8.82752232               93.17196446                1.00000000               85.69631478              -22.06121059              -26.08923997              103.73769000              172.72578023              -27.26078371
              46.32148177                7.18144438               89.58667012                1.00000000               63.43664305                7.65574126              -68.89405802               69.73415635              126.74771891              -66.88823123
              25.56214557               14.64317492              100.46952871                1.00000000                0.00447485                0.03810900               -0.00495076                0.26753551                0.02148152                0.28463969
              26.56219032               14.06983490              100.05457629                1.00000000                0.02431621               -0.04574446                0.00796932                0.28864759                0.01576019               -0.02156219
              27.56263189               13.49696610               99.63949693                1.00000000              149.78427118               -0.06436623                0.00059206               10.76061170              -23.00014805               -0.29334161
              31.55787574               13.13280918               98.76373377                1.00000000              257.92281673              -20.23925236              -80.90525250               28.41619512              137.77245391               -1.30297856
              34.72108823               12.63142131               98.37500322                1.00000000              193.64205605              -28.89154238              -56.59593456               38.33326190              205.94942122                0.12330473
              37.43071686               12.09623849               97.77231135                1.00000000              158.52879665              -30.84587936              -47.02444662               58.04343203              218.83599998                0.04669970
              39.89166416               11.57291580               96.98985921                1.00000000              139.06477533              -30.30325802              -38.95548735               79.25582383              227.09663414               -1.44930517
              42.21201237               11.04729727               95.93507639                1.00000000              129.15556587              -29.92814725              -33.81029902               93.69057661              229.23623195               -4.32594705
              44.47477548               10.44062252               94.44751528                1.00000000              122.22712532              -29.26826716              -31.15558104               92.59599468              222.47742982               -9.39544106
              46.65655488                9.60147218               92.21168051                1.00000000               92.52133197              -22.02335435              -29.84714053               64.07276803              173.95038667              -18.38561473
              48.32520212                8.26719072               88.34196871                1.00000000               66.86472426                7.87636160              -72.00119863               41.89957536              127.84595395              -42.13547359
              26.13834142               15.64356837              100.32954720                1.00000000                0.00304891                0.03679695               -0.00111000                0.22126977                0.02984362                0.28840471
              27.13837190               15.06930017               99.91203237                1.00000000                0.04018863               -0.04688685                0.00878828                0.29256778                0.03153573               -0.09190610
              28.13914519               14.49638007               99.49453279                1.00000000              155.29183886               -0.08469506               -0.02932485               -0.72675555              -24.46029886               -0.39876208
              32.24420868               13.89952783               98.58600719                1.00000000              271.02514711              -27.80903881              -83.87059277                5.77424577              137.63233216               -1.51573285
              35.55964813               13.28525308               98.19540014                1.00000000              209.88520753              -40.83752923              -58.85212456               20.64681953              207.61936923               -0.47818197
              38.44191283               12.71868995               97.56377953                1.00000000              175.55145131              -43.36568139              -49.00815719               39.94580125              220.36190854               -0.49813038
              41.07067716               12.20132102               96.71449935                1.00000000              154.70423129              -41.55235345              -40.82054338               55.51269259              228.37335177               -1.39256482
              43.53599746               11.69136953               95.55400736                1.00000000              141.73116523              -38.75269958              -35.66300610               63.50441475              230.37513281               -3.37596463
              45.90530046               11.11896856               93.92502852                1.00000000              130.30025206              -33.63703477              -33.11127550               60.27435611              223.43772895               -6.78198638
              48.14200250               10.38705523               91.52115524                1.00000000               96.13678662              -21.36921388              -31.74220776               40.60605355              174.90661641              -12.53475671
              49.82803619                9.33897161               87.47751871                1.00000000               68.60336940                6.18007762              -72.76074820               26.26558924              128.36943123              -27.30255966
              26.71510735               16.64391086              100.18926621                1.00000000                0.01226173                0.02647587                0.00448722                0.16778693                0.01768774                0.26498781
              27.71522997               16.06889716               99.76871168                1.00000000                0.13808870               -0.03095580               -0.00581894                0.25383532                0.03216291               -0.15462208
              28.71786913               15.49527220               99.34831486                1.00000000              158.46288387               -0.39645773               -0.10020845              -15.99988131              -23.35237404               -0.80356748
              32.88448765               14.57662841               98.45573407                1.00000000              279.84966846              -41.61903590              -83.93559322              -20.64866221              139.17519255               -1.35681344
              36.31486250               13.81467072               98.08574449                1.00000000              221.45386468              -54.29477007              -58.47734442                7.59268216              209.62916144               -0.57639279
              39.31356494               13.22892486               97.43895340                1.00000000              185.71879649              -52.14475251              -49.23904142               27.59690079              221.61868297               -0.22551520
              42.02923843               12.74186873               96.54344541                1.00000000              162.54440891              -47.88678156              -41.29402286               37.79258333              229.01630028               -1.01068398
              44.56445312               12.27224328               95.30881550                1.00000000              147.76692373              -43.37423324              -36.34495407               40.56649987              230.69338154               -2.50766737
              46.98457690               11.76788183               93.58536597                1.00000000              134.21098893              -36.39551301              -33.85066758               37.36873292              223.66037988               -4.81958266
              49.24867290               11.17408790               91.07291106                1.00000000               98.10521206              -22.14804394              -32.41575688               25.32111622              175.10885203               -8.40100372
              50.94668114               10.39079227               86.91664750                1.00000000               69.80082439                4.17306876              -73.05569366               16.75091545              128.63996438              -17.84155056
              27.29172454               17.64409788              100.04808632                1.00000000                0.03627277                0.00905888               -0.01226948                0.12794301                0.03708770                0.24632733
              28.29208727               17.06868106               99.62496381                1.00000000                0.98458878               -0.02245252               -0.01102102               -0.07817208               -0.21700138               -0.20090359
              29.31141632               16.48845091               99.19626401                1.00000000              160.98748217               -6.64494500               -0.73716714              -28.07925188              -16.51902425               -4.67000128
              33.51183691               15.06714711               98.41323832                1.00000000              287.38944997              -68.63505879              -79.08198777              -36.69460488              146.20760755               -1.27119076
              37.05920532               14.19935768               98.08587736                1.00000000              227.74079635              -62.25681444              -56.10463135                2.02873524              213.16665919                1.34532948
              40.06665284               13.67579490               97.43503870                1.00000000              186.20025424              -55.56865451              -47.47908474               18.05949766              222.39423918                0.79092996
              42.78321040               13.24358539               96.50005488                1.00000000              162.73307588              -49.63694726              -40.60846086               20.87244037              228.67097164               -0.26687127
              45.32131436               12.82388487               95.21685945                1.00000000              148.38100481              -44.98456195              -35.95050430               20.03029150              230.04499510               -1.33210251
              47.75083050               12.39105830               93.43721919                1.00000000              135.21000087              -39.19413381              -33.38693662               17.94684357              223.23587271               -2.48793995
              50.02551438               11.94409435               90.86271219                1.00000000               98.94076302              -24.21676066              -31.93828224               12.69226631              174.91398261               -4.41541507
              51.72964576               11.42243299               86.63481204                1.00000000               70.41313836                2.25456370              -72.76105765                8.72580709              128.71140985               -9.72540737
              27.86849987               18.64409204               99.90665588                1.00000000                0.08136291               -0.00058493                0.02948050                0.11314058                0.09647131                0.26305232
              28.86931350               18.06844811               99.48084153                1.00000000               14.46590836               -0.02329435               -0.04736389               -6.36331388               -3.48733213               -0.24571554
              30.15781804               17.36237330               98.98207339                1.00000000              178.51876452              -12.60776163               -7.87067205              -58.58587211               23.58140661              -19.00632049
              34.43968879               15.20392723               98.55851348                1.00000000              279.44856876              -86.32198780              -70.35494413              -46.85675557              167.97411866              -15.98968983
              37.74678941               14.56953443               98.26688747                1.00000000              209.54191951              -62.98232421              -49.67584311               14.43963663              211.65662731               -1.61174748
              40.63052718               14.11755177               97.56086547                1.00000000              177.59039251              -55.82431257              -45.21704150               15.36720157              218.67098986               -4.22240790
              43.29859726               13.74912978               96.59062467                1.00000000              159.35294279              -49.44556060              -39.59691500               14.28869968              227.51089473               -5.60240877
              45.81758604               13.37255204               95.29358918                1.00000000              146.23535126              -45.13328253              -34.78957349               11.37063611              231.32256318               -8.15180583
              48.22330429               12.98399915               93.51559921                1.00000000              132.67787533              -40.70591543              -31.01565841               13.10741131              224.58296627              -12.89944569
              50.47114354               12.68975269               90.92447704                1.00000000               97.06078644              -25.43416636              -29.61616049               17.15713664              175.24138167              -14.49262030
              52.16452002               12.43588355               86.67113507                1.00000000               69.33764745                1.34505614              -70.91353198               18.10051170              129.69120205              -18.51092053
         1          2         13         12        122        123        134        133  
         2          3         14         13        123        124        135        134  
         3          4         15         14        124        125        136        135  
         4          5         16         15        125        126        137        136  
         5          6         17         16        126        127        138        137  
         6          7         18         17        127        128        139        138  
         7          8         19         18        128        129        140        139  
         8          9         20         19        129        130        141        140  
         9         10         21         20        130        131        142        141  
        10         11         22         21        131        132        143        142  
        12         13         24         23        133        134        145        144  
        13         14         25         24        134        135        146        145  
        14         15         26         25        135        136        147        146  
        15         16         27         26        136        137        148        147  
        16         17         28         27        137        138        149        148  
        17         18         29         28        138        139        150        149  
        18         19         30         29        139        140        151        150  
        19         20         31         30        140        141        152        151  
        20         21         32         31        141        142        153        152  
        21         22         33         32        142        143        154        153  
        23         24         35         34        144        145        156        155  
        24         25         36         35        145        146        157        156  
        25         26         37         36        146        147        158        157  
        26         27         38         37        147        148        159        158  
        27         28         39         38        148        149        160        159  
        28         29         40         39        149        150        161        160  
        29         30         41         40        150        151        162        161  
        30         31         42         41        151        152        163        162  
        31         32         43         42        152        153        164        163  
        32         33         44         43        153        154        165        164  
        34         35         46         45        155        156        167        166  
        35         36         47         46        156        157        168        167  
        36         37         48         47        157        158        169        168  
        37         38         49         48        158        159        170        169  
        38         39         50         49        159        160        171        170  
        39         40         51         50        160        161        172        171  
        40         41         52         51        161        162        173        172  
        41         42         53         52        162        163        174        173  
        42         43         54         53        163        164        175        174  
        43         44         55         54        164        165        176        175  
        45         46         57         56        166        167        178        177  
        46         47         58         57        167        168        179        178  
        47         48         59         58        168        169        180        179  
        48         49         60         59        169        170        181        180  
        49         50         61         60        170        171        182        181  
        50         51         62         61        171        172        183        182  
        51         52         63         62        172        173        184        183  
        52         53         64         63        173        174        185        184  
        53         54         65         64        174        175        186        185  
        54         55         66         65        175        176        187        186  
        56         57         68         67        177        178        189        188  
        57         58         69         68        178        179        190        189  
        58         59         70         69        179        180        191        190  
        59         60         71         70        180        181        192        191  
        60         61         72         71        181        182        193        192  
        61         62         73         72        182        183        194        193  
        62         63         74         73        183        184        195        194  
        63         64         75         74        184        185        196        195  
        64         65         76         75        185        186        197        196  
        65         66         77         76        186        187        198        197  
        67         68         79         78        188        189        200        199  
        68         69         80         79        189        190        201        200  
        69         70         81         80        190        191        202        201  
        70         71         82         81        191        192        203        202  
        71         72         83         82        192        193        204        203  
        72         73         84         83        193        194        205        204  
        73         74         85         84        194        195        206        205  
        74         75         86         85        195        196        207        206  
        75         76         87         86        196        197        208        207  
        76         77         88         87        197        198        209        208  
        78         79         90         89        199        200        211        210  
        79         80         91         90        200        201        212        211  
        80         81         92         91        201        202        213        212  
        81         82         93         92        202        203        214        213  
        82         83         94         93        203        204        215        214  
        83         84         95         94        204        205        216        215  
        84         85         96         95        205        206        217        216  
        85         86         97         96        206        207        218        217  
        86         87         98         97        207        208        219        218  
        87         88         99         98        208        209        220        219  
        89         90        101        100        210        211        222        221  
        90         91        102        101        211        212        223        222  
        91         92        103        102        212        213        224        223  
        92         93        104        103        213        214        225        224  
        93         94        105        104        214        215        226        225  
        94         95        106        105        215        216        227        226  
        95         96        107        106        216        217        228        227  
        96         97        108        107        217        218        229        228  
        97         98        109        108        218        219        230        229  
        98         99        110        109        219        220        231        230  
       100        101        112        111        221        222        233        232  
       101        102        113        112        222        223        234        233  
       102        103        114        113        223        224        235        234  
       103        104        115        114        224        225        236        235  
       104        105        116        115        225        226        237        236  
       105        106        117        116        226        227        238        237  
       106        107        118        117        227        228        239        238  
       107        108        119        118        228        229        240        239  
       108        109        120        119        229        230        241        240  
       109        110        121        120        230        231        242        241  
       122        123        134        133        243        244        255        254  
       123        124        135        134        244        245        256        255  
       124        125        136        135        245        246        257        256  
       125        126        137        136        246        247        258        257  
       126        127        138        137        247        248        259        258  
       127        128        139        138        248        249        260        259  
       128        129        140        139        249        250        261        260  
       129        130        141        140        250        251        262        261  
       130        131        142        141        251        252        263        262  
       131        132        143        142        252        253        264        263  
       133        134        145        144        254        255        266        265  
       134        135        146        145        255        256        267        266  
       135        136        147        146        256        257        268        267  
       136        137        148        147        257        258        269        268  
       137        138        149        148        258        259        270        269  
       138        139        150        149        259        260        271        270  
       139        140        151        150        260        261        272        271  
       140        141        152        151        261        262        273        272  
       141        142        153        152        262        263        274        273  
       142        143        154        153        263        264        275        274  
       144        145        156        155        265        266        277        276  
       145        146        157        156        266        267        278        277  
       146        147        158        157        267        268        279        278  
       147        148        159        158        268        269        280        279  
       148        149        160        159        269        270        281        280  
       149        150        161        160        270        271        282        281  
       150        151        162        161        271        272        283        282  
       151        152        163        162        272        273        284        283  
       152        153        164        163        273        274        285        284  
       153        154        165        164        274        275        286        285  
       155        156        167        166        276        277        288        287  
       156        157        168        167        277        278        289        288  
       157        158        169        168        278        279        290        289  
       158        159        170        169        279        280        291        290  
       159        160        171        170        280        281        292        291  
       160        161        172        171        281        282        293        292  
       161        162        173        172        282        283        294        293  
       162        163        174        173        283        284        295        294  
       163        164        175        174        284        285        296        295  
       164        165        176        175        285        286        297        296  
       166        167        178        177        287        288        299        298  
       167        168        179        178        288        289        300        299  
       168        169        180        179        289        290        301        300  
       169        170        181        180        290        291        302        301  
       170        171        182        181        291        292        303        302  
       171        172        183        182        292        293        304        303  
       172        173        184        183        293        294        305        304  
       173        174        185        184        294        295        306        305  
       174        175        186        185        295        296        307        306  
       175        176        187        186        296        297        308        307  
       177        178        189        188        298        299        310        309  
       178        179        190        189        299        300        311        310  
       179        180        191        190        300        301        312        311  
       180        181        192        191        301        302        313        312  
       181        182        193        192        302        303        314        313  
       182        183        194        193        303        304        315        314  
       183        184        195        194        304        305        316        315  
       184        185        196        195        305        306        317        316  
       185        186        197        196        306        307        318        317  
       186        187        198        197        307        308        319        318  
       188        189        200        199        309        310        321        320  
       189        190        201        200        310        311        322        321  
       190        191        202        201        311        312        323        322  
       191        192        203        202        312        313        324        323  
       192        193        204        203        313        314        325        324  
       193        194        205        204        314        315        326        325  
       194        195        206        205        315        316        327        326  
       195        196        207        206        316        317        328        327  
       196        197        208        207        317        318        329        328  
       197        198        209        208        318        319        330        329  
       199        200        211        210        320        321        332        331  
       200        201        212        211        321        322        333        332  
       201        202        213        212        322        323        334        333  
       202        203        214        213        323        324        335        334  
       203        204        215        214        324        325        336        335  
       204        205        216        215        325        326        337        336  
       205        206        217        216        326        327        338        337  
       206        207        218        217        327        328        339        338  
       207        208        219        218        328        329        340        339  
       208        209        220        219        329        330        341        340  
       210        211        222        221        331        332        343        342  
       211        212        223        222        332        333        344        343  
       212        213        224        223        333        334        345        344  
       213        214        225        224        334        335        346        345  
       214        215        226        225        335        336        347        346  
       215        216        227        226        336        337        348        347  
       216        217        228        227        337        338        349        348  
       217        218        229        228        338        339        350        349  
       218        219        230        229        339        340        351        350  
       219        220        231        230        340        341        352        351  
       221        222        233        232        342        343        354        353  
       222        223        234        233        343        344        355        354  
       223        224        235        234        344        345        356        355  
       224        225        236        235        345        346        357        356  
       225        226        237        236        346        347        358        357  
       226        227        238        237        347        348        359        358  
       227        228        239        238        348        349        360        359  
       228        229        240        239        349        350        361        360  
       229        230        241        240        350        351        362        361  
       230        231        242        241        351        352        363        362  
       243        244        255        254        364        365        376        375  
       244        245        256        255        365        366        377        376  
       245        246        257        256        366        367        378        377  
       246        247        258        257        367        368        379        378  
       247        248        259        258        368        369        380        379  
       248        249        260        259        369        370        381        380  
       249        250        261        260        370        371        382        381  
       250        251        262        261        371        372        383        382  
       251        252        263        262        372        373        384        383  
       252        253        264        263        373        374        385        384  
       254        255        266        265        375        376        387        386  
       255        256        267        266        376        377        388        387  
       256        257        268        267        377        378        389        388  
       257        258        269        268        378        379        390        389  
       258        259        270        269        379        380        391        390  
       259        260        271        270        380        381        392        391  
       260        261        272        271        381        382        393        392  
       261        262        273        272        382        383        394        393  
       262        263        274        273        383        384        395        394  
       263        264        275        274        384        385        396        395  
       265        266        277        276        386        387        398        397  
       266        267        278        277        387        388        399        398  
       267        268        279        278        388        389        400        399  
       268        269        280        279        389        390        401        400  
       269        270        281        280        390        391        402        401  
       270        271        282        281        391        392        403        402  
       271        272        283        282        392        393        404        403  
       272        273        284        283        393        394        405        404  
       273        274        285        284        394        395        406        405  
       274        275        286        285        395        396        407        406  
       276        277        288        287        397        398        409        408  
       277        278        289        288        398        399        410        409  
       278        279        290        289        399        400        411        410  
       279        280        291        290        400        401        412        411  
       280        281        292        291        401        402        413        412  
       281        282        293        292        402        403        414        413  
       282        283        294        293        403        404        415        414  
       283        284        295        294        404        405        416        415  
       284        285        296        295        405        406        417        416  
       285        286        297        296        406        407        418        417  
       287        288        299        298        408        409        420        419  
       288        289        300        299        409        410        421        420  
       289        290        301        300        410        411        422        421  
       290        291        302        301        411        412        423        422  
       291        292        303        302        412        413        424        423  
       292        293        304        303        413        414        425        424  
       293        294        305        304        414        415        426        425  
       294        295        306        305        415        416        427        426  
       295        296        307        306        416        417        428        427  
       296        297        308        307        417        418        429        428  
       298        299        310        309        419        420        431        430  
       299        300        311        310        420        421        432        431  
       300        301        312        311        421        422        433        432  
       301        302        313        312        422        423        434        433  
       302        303        314        313        423        424        435        434  
       303        304        315        314        424        425        436        435  
       304        305        316        315        425        426        437        436  
       305        306        317        316        426        427        438        437  
       306        307        318        317        427        428        439        438  
       307        308        319        318        428        429        440        439  
       309        310        321        320        430        431        442        441  
       310        311        322        321        431        432        443        442  
       311        312        323        322        432        433        444        443  
       312        313        324        323        433        434        445        444  
       313        314        325        324        434        435        446        445  
       314        315        326        325        435        436        447        446  
       315        316        327        326        436        437        448        447  
       316        317        328        327        437        438        449        448  
       317        318        329        328        438        439        450        449  
       318        319        330        329        439        440        451        450  
       320        321        332        331        441        442        453        452  
       321        322        333        332        442        443        454        453  
       322        323        334        333        443        444        455        454  
       323        324        335        334        444        445        456        455  
       324        325        336        335        445        446        457        456  
       325        326        337        336        446        447        458        457  
       326        327        338        337        447        448        459        458  
       327        328        339        338        448        449        460        459  
       328        329        340        339        449        450        461        460  
       329        330        341        340        450        451        462        461  
       331        332        343        342        452        453        464        463  
       332        333        344        343        453        454        465        464  
       333        334        345        344        454        455        466        465  
       334        335        346        345        455        456        467        466  
       335        336        347        346        456        457        468        467  
       336        337        348        347        457        458        469        468  
       337        338        349        348        458        459        470        469  
       338        339        350        349        459        460        471        470  
       339        340        351        350        460        461        472        471  
       340        341        352        351        461        462        473        472  
       342        343        354        353        463        464        475        474  
       343        344        355        354        464        465        476        475  
       344        345        356        355        465        466        477        476  
       345        346        357        356        466        467        478        477  
       346        347        358        357        467        468        479        478  
       347        348        359        358        468        469        480        479  
       348        349        360        359        469        470        481        480  
       349        350        361        360        470        471        482        481  
       350        351        362        361        471        472        483        482  
       351        352        363        362        472        473        484        483  
       364        365        376        375        485        486        497        496  
       365        366        377        376        486        487        498        497  
       366        367        378        377        487        488        499        498  
       367        368        379        378        488        489        500        499  
       368        369        380        379        489        490        501        500  
       369        370        381        380        490        491        502        501  
       370        371        382        381        491        492        503        502  
       371        372        383        382        492        493        504        503  
       372        373        384        383        493        494        505        504  
       373        374        385        384        494        495        506        505  
       375        376        387        386        496        497        508        507  
       376        377        388        387        497        498        509        508  
       377        378        389        388        498        499        510        509  
       378        379        390        389        499        500        511        510  
       379        380        391        390        500        501        512        511  
       380        381        392        391        501        502        513        512  
       381        382        393        392        502        503        514        513  
       382        383        394        393        503        504        515        514  
       383        384        395        394        504        505        516        515  
       384        385        396        395        505        506        517        516  
       386        387        398        397        507        508        519        518  
       387        388        399        398        508        509        520        519  
       388        389        400        399        509        510        521        520  
       389        390        401        400        510        511        522        521  
       390        391        402        401        511        512        523        522  
       391        392        403        402        512        513        524        523  
       392        393        404        403        513        514        525        524  
       393        394        405        404        514        515        526        525  
       394        395        406        405        515        516        527        526  
       395        396        407        406        516        517        528        527  
       397        398        409        408        518        519        530        529  
       398        399        410        409        519        520        531        530  
       399        400        411        410        520        521        532        531  
       400        401        412        411        521        522        533        532  
       401        402        413        412        522        523        534        533  
       402        403        414        413        523        524        535        534  
       403        404        415        414        524        525        536        535  
       404        405        416        415        525        526        537        536  
       405        406        417        416        526        527        538        537  
       406        407        418        417        527        528        539        538  
       408        409        420        419        529        530        541        540  
       409        410        421        420        530        531        542        541  
       410        411        422        421        531        532        543        542  
       411        412        423        422        532        533        544        543  
       412        413        424        423        533        534        545        544  
       413        414        425        424        534        535        546        545  
       414        415        426        425        535        536        547        546  
       415        416        427        426        536        537        548        547  
       416        417        428        427        537        538        549        548  
       417        418        429        428        538        539        550        549  
       419        420        431        430        540        541        552        551  
       420        421        432        431        541        542        553        552  
       421        422        433        432        542        543        554        553  
       422        423        434        433        543        544        555        554  
       423        424        435        434        544        545        556        555  
       424        425        436        435        545        546        557        556  
       425        426        437        436        546        547        558        557  
       426        427        438        437        547        548        559        558  
       427        428        439        438        548        549        560        559  
       428        429        440        439        549        550        561        560  
       430        431        442        441        551        552        563        562  
       431        432        443        442        552        553        564        563  
       432        433        444        443        553        554        565        564  
       433        434        445        444        554        555        566        565  
       434        435        446        445        555        556        567        566  
       435        436        447        446        556        557        568        567  
       436        437        448        447        557        558        569        568  
       437        438        449        448        558        559        570        569  
       438        439        450        449        559        560        571        570  
       439        440        451        450        560        561        572        571  
       441        442        453        452        562        563        574        573  
       442        443        454        453        563        564        575        574  
       443        444        455        454        564        565        576        575  
       444        445        456        455        565        566        577        576  
       445        446        457        456        566        567        578        577  
       446        447        458        457        567        568        579        578  
       447        448        459        458        568        569        580        579  
       448        449        460        459        569        570        581        580  
       449        450        461        460        570        571        582        581  
       450        451        462        461        571        572        583        582  
       452        453        464        463        573        574        585        584  
       453        454        465        464        574        575        586        585  
       454        455        466        465        575        576        587        586  
       455        456        467        466        576        577        588        587  
       456        457        468        467        577        578        589        588  
       457        458        469        468        578        579        590        589  
       458        459        470        469        579        580        591        590  
       459        460        471        470        580        581        592        591  
       460        461        472        471        581        582        593        592  
       461        462        473        472        582        583        594        593  
       463        464        475        474        584        585        596        595  
       464        465        476        475        585        586        597        596  
       465        466        477        476        586        587        598        597  
       466        467        478        477        587        588        599        598  
       467        468        479        478        588        589        600        599  
       468        469        480        479        589        590        601        600  
       469        470        481        480        590        591        602        601  
       470        471        482        481        591        592        603        602  
       471        472        483        482        592        593        604        603  
       472        473        484        483        593        594        605        604  
       485        486        497        496        606        607        618        617  
       486        487        498        497        607        608        619        618  
       487        488        499        498        608        609        620        619  
       488        489        500        499        609        610        621        620  
       489        490        501        500        610        611        622        621  
       490        491        502        501        611        612        623        622  
       491        492        503        502        612        613        624        623  
       492        493        504        503        613        614        625        624  
       493        494        505        504        614        615        626        625  
       494        495        506        505        615        616        627        626  
       496        497        508        507        617        618        629        628  
       497        498        509        508        618        619        630        629  
       498        499        510        509        619        620        631        630  
       499        500        511        510        620        621        632        631  
       500        501        512        511        621        622        633        632  
       501        502        513        512        622        623        634        633  
       502        503        514        513        623        624        635        634  
       503        504        515        514        624        625        636        635  
       504        505        516        515        625        626        637        636  
       505        506        517        516        626        627        638        637  
       507        508        519        518        628        629        640        639  
       508        509        520        519        629        630        641        640  
       509        510        521        520        630        631        642        641  
       510        511        522        521        631        632        643        642  
       511        512        523        522        632        633        644        643  
       512        513        524        523        633        634        645        644  
       513        514        525        524        634        635        646        645  
       514        515        526        525        635        636        647        646  
       515        516        527        526        636        637        648        647  
       516        517        528        527        637        638        649        648  
       518        519        530        529        639        640        651        650  
       519        520        531        530        640        641        652        651  
       520        521        532        531        641        642        653        652  
       521        522        533        532        642        643        654        653  
       522        523        534        533        643        644        655        654  
       523        524        535        534        644        645        656        655  
       524        525        536        535        645        646        657        656  
       525        526        537        536        646        647        658        657  
       526        527        538        537        647        648        659        658  
       527        528        539        538        648        649        660        659  
       529        530        541        540        650        651        662        661  
       530        531        542        541        651        652        663        662  
       531        532        543        542        652        653        664        663  
       532        533        544        543        653        654        665        664  
       533        534        545        544        654        655        666        665  
       534        535        546        545        655        656        667        666  
       535        536        547        546        656        657        668        667  
       536        537        548        547        657        658        669        668  
       537        538        549        548        658        659        670        669  
       538        539        550        549        659        660        671        670  
       540        541        552        551        661        662        673        672  
       541        542        553        552        662        663        674        673  
       542        543        554        553        663        664        675        674  
       543        544        555        554        664        665        676        675  
       544        545        556        555        665        666        677        676  
       545        546        557        556        666        667        678        677  
       546        547        558        557        667        668        679        678  
       547        548        559        558        668        669        680        679  
       548        549        560        559        669        670        681        680  
       549        550        561        560        670        671        682        681  
       551        552        563        562        672        673        684        683  
       552        553        564        563        673        674        685        684  
       553        554        565        564        674        675        686        685  
       554        555        566        565        675        676        687        686  
       555        556        567        566        676        677        688        687  
       556        557        568        567        677        678        689        688  
       557        558        569        568        678        679        690        689  
       558        559        570        569        679        680        691        690  
       559        560        571        570        680        681        692        691  
       560        561        572        571        681        682        693        692  
       562        563        574        573        683        684        695        694  
       563        564        575        574        684        685        696        695  
       564        565        576        575        685        686        697        696  
       565        566        577        576        686        687        698        697  
       566        567        578        577        687        688        699        698  
       567        568        579        578        688        689        700        699  
       568        569        580        579        689        690        701        700  
       569        570        581        580        690        691        702        701  
       570        571        582        581        691        692        703        702  
       571        572        583        582        692        693        704        703  
       573        574        585        584        694        695        706        705  
       574        575        586        585        695        696        707        706  
       575        576        587        586        696        697        708        707  
       576        577        588        587        697        698        709        708  
       577        578        589        588        698        699        710        709  
       578        579        590        589        699        700        711        710  
       579        580        591        590        700        701        712        711  
       580        581        592        591        701        702        713        712  
       581        582        593        592        702        703        714        713  
       582        583        594        593        703        704        715        714  
       584        585        596        595        705        706        717        716  
       585        586        597        596        706        707        718        717  
       586        587        598        597        707        708        719        718  
       587        588        599        598        708        709        720        719  
       588        589        600        599        709        710        721        720  
       589        590        601        600        710        711        722        721  
       590        591        602        601        711        712        723        722  
       591        592        603        602        712        713        724        723  
       592        593        604        603        713        714        725        724  
       593        594        605        604        714        715        726        725  
       606        607        618        617        727        728        739        738  
       607        608        619        618        728        729        740        739  
       608        609        620        619        729        730        741        740  
       609        610        621        620        730        731        742        741  
       610        611        622        621        731        732        743        742  
       611        612        623        622        732        733        744        743  
       612        613        624        623        733        734        745        744  
       613        614        625        624        734        735        746        745  
       614        615        626        625        735        736        747        746  
       615        616        627        626        736        737        748        747  
       617        618        629        628        738        739        750        749  
       618        619        630        629        739        740        751        750  
       619        620        631        630        740        741        752        751  
       620        621        632        631        741        742        753        752  
       621        622        633        632        742        743        754        753  
       622        623        634        633        743        744        755        754  
       623        624        635        634        744        745        756        755  
       624        625        636        635        745        746        757        756  
       625        626        637        636        746        747        758        757  
       626        627        638        637        747        748        759        758  
       628        629        640        639        749        750        761        760  
       629        630        641        640        750        751        762        761  
       630        631        642        641        751        752        763        762  
       631        632        643        642        752        753        764        763  
       632        633        644        643        753        754        765        764  
       633        634        645        644        754        755        766        765  
       634        635        646        645        755        756        767        766  
       635        636        647        646        756        757        768        767  
       636        637        648        647        757        758        769        768  
       637        638        649        648        758        759        770        769  
       639        640        651        650        760        761        772        771  
       640        641        652        651        761        762        773        772  
       641        642        653        652        762        763        774        773  
       642        643        654        653        763        764        775        774  
       643        644        655        654        764        765        776        775  
       644        645        656        655        765        766        777        776  
       645        646        657        656        766        767        778        777  
       646        647        658        657        767        768        779        778  
       647        648        659        658        768        769        780        779  
       648        649        660        659        769        770        781        780  
       650        651        662        661        771        772        783        782  
       651        652        663        662        772        773        784        783  
       652        653        664        663        773        774        785        784  
       653        654        665        664        774        775        786        785  
       654        655        666        665        775        776        787        786  
       655        656        667        666        776        777        788        787  
       656        657        668        667        777        778        789        788  
       657        658        669        668        778        779        790        789  
       658        659        670        669        779        780        791        790  
       659        660        671        670        780        781        792        791  
       661        662        673        672        782        783        794        793  
       662        663        674        673        783        784        795        794  
       663        664        675        674        784        785        796        795  
       664        665        676        675        785        786        797        796  
       665        666        677        676        786        787        798        797  
       666        667        678        677        787        788        799        798  
       667        668        679        678        788        789        800        799  
       668        669        680        679        789        790        801        800  
       669        670        681        680        790        791        802        801  
       670        671        682        681        791        792        803        802  
       672        673        684        683        793        794        805        804  
       673        674        685        684        794        795        806        805  
       674        675        686        685        795        796        807        806  
       675        676        687        686        796        797        808        807  
       676        677        688        687        797        798        809        808  
       677        678        689        688        798        799        810        809  
       678        679        690        689        799        800        811        810  
       679        680        691        690        800        801        812        811  
       680        681        692        691        801        802        813        812  
       681        682        693        692        802        803        814        813  
       683        684        695        694        804        805        816        815  
       684        685        696        695        805        806        817        816  
       685        686        697        696        806        807        818        817  
       686        687        698        697        807        808        819        818  
       687        688        699        698        808        809        820        819  
       688        689        700        699        809        810        821        820  
       689        690        701        700        810        811        822        821  
       690        691        702        701        811        812        823        822  
       691        692        703        702        812        813        824        823  
       692        693        704        703        813        814        825        824  
       694        695        706        705        815        816        827        826  
       695        696        707        706        816        817        828        827  
       696        697        708        707        817        818        829        828  
       697        698        709        708        818        819        830        829  
       698        699        710        709        819        820        831        830  
       699        700        711        710        820        821        832        831  
       700        701        712        711        821        822        833        832  
       701        702        713        712        822        823        834        833  
       702        703        714        713        823        824        835        834  
       703        704        715        714        824        825        836        835  
       705        706        717        716        826        827        838        837  
       706        707        718        717        827        828        839        838  
       707        708        719        718        828        829        840        839  
       708        709        720        719        829        830        841        840  
       709        710        721        720        830        831        842        841  
       710        711        722        721        831        832        843        842  
       711        712        723        722        832        833        844        843  
       712        713        724        723        833        834        845        844  
       713        714        725        724        834        835        846        845  
       714        715        726        725        835        836        847        846  
       727        728        739        738        848        849        860        859  
       728        729        740        739        849        850        861        860  
       729        730        741        740        850        851        862        861  
       730        731        742        741        851        852        863        862  
       731        732        743        742        852        853        864        863  
       732        733        744        743        853        854        865        864  
       733        734        745        744        854        855        866        865  
       734        735        746        745        855        856        867        866  
       735        736        747        746        856        857        868        867  
       736        737        748        747        857        858        869        868  
       738        739        750        749        859        860        871        870  
       739        740        751        750        860        861        872        871  
       740        741        752        751        861        862        873        872  
       741        742        753        752        862        863        874        873  
       742        743        754        753        863        864        875        874  
       743        744        755        754        864        865        876        875  
       744        745        756        755        865        866        877        876  
       745        746        757        756        866        867        878        877  
       746        747        758        757        867        868        879        878  
       747        748        759        758        868        869        880        879  
       749        750        761        760        870        871        882        881  
       750        751        762        761        871        872        883        882  
       751        752        763        762        872        873        884        883  
       752        753        764        763        873        874        885        884  
       753        754        765        764        874        875        886        885  
       754        755        766        765        875        876        887        886  
       755        756        767        766        876        877        888        887  
       756        757        768        767        877        878        889        888  
       757        758        769        768        878        879        890        889  
       758        759        770        769        879        880        891        890  
       760        761        772        771        881        882        893        892  
       761        762        773        772        882        883        894        893  
       762        763        774        773        883        884        895        894  
       763        764        775        774        884        885        896        895  
       764        765        776        775        885        886        897        896  
       765        766        777        776        886        887        898        897  
       766        767        778        777        887        888        899        898  
       767        768        779        778        888        889        900        899  
       768        769        780        779        889        890        901        900  
       769        770        781        780        890        891        902        901  
       771        772        783        782        892        893        904        903  
       772        773        784        783        893        894        905        904  
       773        774        785        784        894        895        906        905  
       774        775        786        785        895        896        907        906  
       775        776        787        786        896        897        908        907  
       776        777        788        787        897        898        909        908  
       777        778        789        788        898        899        910        909  
       778        779        790        789        899        900        911        910  
       779        780        791        790        900        901        912        911  
       780        781        792        791        901        902        913        912  
       782        783        794        793        903        904        915        914  
       783        784        795        794        904        905        916        915  
       784        785        796        795        905        906        917        916  
       785        786        797        796        906        907        918        917  
       786        787        798        797        907        908        919        918  
       787        788        799        798        908        909        920        919  
       788        789        800        799        909        910        921        920  
       789        790        801        800        910        911        922        921  
       790        791        802        801        911        912        923        922  
       791        792        803        802        912        913        924        923  
       793        794        805        804        914        915        926        925  
       794        795        806        805        915        916        927        926  
       795        796        807        806        916        917        928        927  
       796        797        808        807        917        918        929        928  
       797        798        809        808        918        919        930        929  
       798        799        810        809        919        920        931        930  
       799        800        811        810        920        921        932        931  
       800        801        812        811        921        922        933        932  
       801        802        813        812        922        923        934        933  
       802        803        814        813        923        924        935        934  
       804        805        816        815        925        926        937        936  
       805        806        817        816        926        927        938        937  
       806        807        818        817        927        928        939        938  
       807        808        819        818        928        929        940        939  
       808        809        820        819        929        930        941        940  
       809        810        821        820        930        931        942        941  
       810        811        822        821        931        932        943        942  
       811        812        823        822        932        933        944        943  
       812        813        824        823        933        934        945        944  
       813        814        825        824        934        935        946        945  
       815        816        827        826        936        937        948        947  
       816        817        828        827        937        938        949        948  
       817        818        829        828        938        939        950        949  
       818        819        830        829        939        940        951        950  
       819        820        831        830        940        941        952        951  
       820        821        832        831        941        942        953        952  
       821        822        833        832        942        943        954        953  
       822        823        834        833        943        944        955        954  
       823        824        835        834        944        945        956        955  
       824        825        836        835        945        946        957        956  
       826        827        838        837        947        948        959        958  
       827        828        839        838        948        949        960        959  
       828        829        840        839        949        950        961        960  
       829        830        841        840        950        951        962        961  
       830        831        842        841        951        952        963        962  
       831        832        843        842        952        953        964        963  
       832        833        844        843        953        954        965        964  
       833        834        845        844        954        955        966        965  
       834        835        846        845        955        956        967        966  
       835        836        847        846        956        957        968        967  
       848        849        860        859        969        970        981        980  
       849        850        861        860        970        971        982        981  
       850        851        862        861        971        972        983        982  
       851        852        863        862        972        973        984        983  
       852        853        864        863        973        974        985        984  
       853        854        865        864        974        975        986        985  
       854        855        866        865        975        976        987        986  
       855        856        867        866        976        977        988        987  
       856        857        868        867        977        978        989        988  
       857        858        869        868        978        979        990        989  
       859        860        871        870        980        981        992        991  
       860        861        872        871        981        982        993        992  
       861        862        873        872        982        983        994        993  
       862        863        874        873        983        984        995        994  
       863        864        875        874        984        985        996        995  
       864        865        876        875        985        986        997        996  
       865        866        877        876        986        987        998        997  
       866        867        878        877        987        988        999        998  
       867        868        879        878        988        989       1000        999  
       868        869        880        879        989        990       1001       1000  
       870        871        882        881        991        992       1003       1002  
       871        872        883        882        992        993       1004       1003  
       872        873        884        883        993        994       1005       1004  
       873        874        885        884        994        995       1006       1005  
       874        875        886        885        995        996       1007       1006  
       875        876        887        886        996        997       1008       1007  
       876        877        888        887        997        998       1009       1008  
       877        878        889        888        998        999       1010       1009  
       878        879        890        889        999       1000       1011       1010  
       879        880        891        890       1000       1001       1012       1011  
       881        882        893        892       1002       1003       1014       1013  
       882        883        894        893       1003       1004       1015       1014  
       883        884        895        894       1004       1005       1016       1015  
       884        885        896        895       1005       1006       1017       1016  
       885        886        897        896       1006       1007       1018       1017  
       886        887        898        897       1007       1008       1019       1018  
       887        888        899        898       1008       1009       1020       1019  
       888        889        900        899       1009       1010       1021       1020  
       889        890        901        900       1010       1011       1022       1021  
       890        891        902        901       1011       1012       1023       1022  
       892        893        904        903       1013       1014       1025       1024  
       893        894        905        904       1014       1015       1026       1025  
       894        895        906        905       1015       1016       1027       1026  
       895        896        907        906       1016       1017       1028       1027  
       896        897        908        907       1017       1018       1029       1028  
       897        898        909        908       1018       1019       1030       1029  
       898        899        910        909       1019       1020       1031       1030  
       899        900        911        910       1020       1021       1032       1031  
       900        901        912        911       1021       1022       1033       1032  
       901        902        913        912       1022       1023       1034       1033  
       903        904        915        914       1024       1025       1036       1035  
       904        905        916        915       1025       1026       1037       1036  
       905        906        917        916       1026       1027       1038       1037  
       906        907        918        917       1027       1028       1039       1038  
       907        908        919        918       1028       1029       1040       1039  
       908        909        920        919       1029       1030       1041       1040  
       909        910        921        920       1030       1031       1042       1041  
       910        911        922        921       1031       1032       1043       1042  
       911        912        923        922       1032       1033       1044       1043  
       912        913        924        923       1033       1034       1045       1044  
       914        915        926        925       1035       1036       1047       1046  
       915        916        927        926       1036       1037       1048       1047  
       916        917        928        927       1037       1038       1049       1048  
       917        918        929        928       1038       1039       1050       1049  
       918        919        930        929       1039       1040       1051       1050  
       919        920        931        930       1040       1041       1052       1051  
       920        921        932        931       1041       1042       1053       1052  
       921        922        933        932       1042       1043       1054       1053  
       922        923        934        933       1043       1044       1055       1054  
       923        924        935        934       1044       1045       1056       1055  
       925        926        937        936       1046       1047       1058       1057  
       926        927        938        937       1047       1048       1059       1058  
       927        928        939        938       1048       1049       1060       1059  
       928        929        940        939       1049       1050       1061       1060  
       929        930        941        940       1050       1051       1062       1061  
       930        931        942        941       1051       1052       1063       1062  
       931        932        943        942       1052       1053       1064       1063  
       932        933        944        943       1053       1054       1065       1064  
       933        934        945        944       1054       1055       1066       1065  
       934        935        946        945       1055       1056       1067       1066  
       936        937        948        947       1057       1058       1069       1068  
       937        938        949        948       1058       1059       1070       1069  
       938        939        950        949       1059       1060       1071       1070  
       939        940        951        950       1060       1061       1072       1071  
       940        941        952        951       1061       1062       1073       1072  
       941        942        953        952       1062       1063       1074       1073  
       942        943        954        953       1063       1064       1075       1074  
       943        944        955        954       1064       1065       1076       1075  
       944        945        956        955       1065       1066       1077       1076  
       945        946        957        956       1066       1067       1078       1077  
       947        948        959        958       1068       1069       1080       1079  
       948        949        960        959       1069       1070       1081       1080  
       949        950        961        960       1070       1071       1082       1081  
       950        951        962        961       1071       1072       1083       1082  
       951        952        963        962       1072       1073       1084       1083  
       952        953        964        963       1073       1074       1085       1084  
       953        954        965        964       1074       1075       1086       1085  
       954        955        966        965       1075       1076       1087       1086  
       955        956        967        966       1076       1077       1088       1087  
       956        957        968        967       1077       1078       1089       1088  
       969        970        981        980       1090       1091       1102       1101  
       970        971        982        981       1091       1092       1103       1102  
       971        972        983        982       1092       1093       1104       1103  
       972        973        984        983       1093       1094       1105       1104  
       973        974        985        984       1094       1095       1106       1105  
       974        975        986        985       1095       1096       1107       1106  
       975        976        987        986       1096       1097       1108       1107  
       976        977        988        987       1097       1098       1109       1108  
       977        978        989        988       1098       1099       1110       1109  
       978        979        990        989       1099       1100       1111       1110  
       980        981        992        991       1101       1102       1113       1112  
       981        982        993        992       1102       1103       1114       1113  
       982        983        994        993       1103       1104       1115       1114  
       983        984        995        994       1104       1105       1116       1115  
       984        985        996        995       1105       1106       1117       1116  
       985        986        997        996       1106       1107       1118       1117  
       986        987        998        997       1107       1108       1119       1118  
       987        988        999        998       1108       1109       1120       1119  
       988        989       1000        999       1109       1110       1121       1120  
       989        990       1001       1000       1110       1111       1122       1121  
       991        992       1003       1002       1112       1113       1124       1123  
       992        993       1004       1003       1113       1114       1125       1124  
       993        994       1005       1004       1114       1115       1126       1125  
       994        995       1006       1005       1115       1116       1127       1126  
       995        996       1007       1006       1116       1117       1128       1127  
       996        997       1008       1007       1117       1118       1129       1128  
       997        998       1009       1008       1118       1119       1130       1129  
       998        999       1010       1009       1119       1120       1131       1130  
       999       1000       1011       1010       1120       1121       1132       1131  
      1000       1001       1012       1011       1121       1122       1133       1132  
      1002       1003       1014       1013       1123       1124       1135       1134  
      1003       1004       1015       1014       1124       1125       1136       1135  
      1004       1005       1016       1015       1125       1126       1137       1136  
      1005       1006       1017       1016       1126       1127       1138       1137  
      1006       1007       1018       1017       1127       1128       1139       1138  
      1007       1008       1019       1018       1128       1129       1140       1139  
      1008       1009       1020       1019       1129       1130       1141       1140  
      1009       1010       1021       1020       1130       1131       1142       1141  
      1010       1011       1022       1021       1131       1132       1143       1142  
      1011       1012       1023       1022       1132       1133       1144       1143  
      1013       1014       1025       1024       1134       1135       1146       1145  
      1014       1015       1026       1025       1135       1136       1147       1146  
      1015       1016       1027       1026       1136       1137       1148       1147  
      1016       1017       1028       1027       1137       1138       1149       1148  
      1017       1018       1029       1028       1138       1139       1150       1149  
      1018       1019       1030       1029       1139       1140       1151       1150  
      1019       1020       1031       1030       1140       1141       1152       1151  
      1020       1021       1032       1031       1141       1142       1153       1152  
      1021       1022       1033       1032       1142       1143       1154       1153  
      1022       1023       1034       1033       1143       1144       1155       1154  
      1024       1025       1036       1035       1145       1146       1157       1156  
      1025       1026       1037       1036       1146       1147       1158       1157  
      1026       1027       1038       1037       1147       1148       1159       1158  
      1027       1028       1039       1038       1148       1149       1160       1159  
      1028       1029       1040       1039       1149       1150       1161       1160  
      1029       1030       1041       1040       1150       1151       1162       1161  
      1030       1031       1042       1041       1151       1152       1163       1162  
      1031       1032       1043       1042       1152       1153       1164       1163  
      1032       1033       1044       1043       1153       1154       1165       1164  
      1033       1034       1045       1044       1154       1155       1166       1165  
      1035       1036       1047       1046       1156       1157       1168       1167  
      1036       1037       1048       1047       1157       1158       1169       1168  
      1037       1038       1049       1048       1158       1159       1170       1169  
      1038       1039       1050       1049       1159       1160       1171       1170  
      1039       1040       1051       1050       1160       1161       1172       1171  
      1040       1041       1052       1051       1161       1162       1173       1172  
      1041       1042       1053       1052       1162       1163       1174       1173  
      1042       1043       1054       1053       1163       1164       1175       1174  
      1043       1044       1055       1054       1164       1165       1176       1175  
      1044       1045       1056       1055       1165       1166       1177       1176  
      1046       1047       1058       1057       1167       1168       1179       1178  
      1047       1048       1059       1058       1168       1169       1180       1179  
      1048       1049       1060       1059       1169       1170       1181       1180  
      1049       1050       1061       1060       1170       1171       1182       1181  
      1050       1051       1062       1061       1171       1172       1183       1182  
      1051       1052       1063       1062       1172       1173       1184       1183  
      1052       1053       1064       1063       1173       1174       1185       1184  
      1053       1054       1065       1064       1174       1175       1186       1185  
      1054       1055       1066       1065       1175       1176       1187       1186  
      1055       1056       1067       1066       1176       1177       1188       1187  
      1057       1058       1069       1068       1178       1179       1190       1189  
      1058       1059       1070       1069       1179       1180       1191       1190  
      1059       1060       1071       1070       1180       1181       1192       1191  
      1060       1061       1072       1071       1181       1182       1193       1192  
      1061       1062       1073       1072       1182       1183       1194       1193  
      1062       1063       1074       1073       1183       1184       1195       1194  
      1063       1064       1075       1074       1184       1185       1196       1195  
      1064       1065       1076       1075       1185       1186       1197       1196  
      1065       1066       1077       1076       1186       1187       1198       1197  
      1066       1067       1078       1077       1187       1188       1199       1198  
      1068       1069       1080       1079       1189       1190       1201       1200  
      1069       1070       1081       1080       1190       1191       1202       1201  
      1070       1071       1082       1081       1191       1192       1203       1202  
      1071       1072       1083       1082       1192       1193       1204       1203  
      1072       1073       1084       1083       1193       1194       1205       1204  
      1073       1074       1085       1084       1194       1195       1206       1205  
      1074       1075       1086       1085       1195       1196       1207       1206  
      1075       1076       1087       1086       1196       1197       1208       1207  
      1076       1077       1088       1087       1197       1198       1209       1208  
      1077       1078       1089       1088       1198       1199       1210       1209  
      1090       1091       1102       1101       1211       1212       1223       1222  
      1091       1092       1103       1102       1212       1213       1224       1223  
      1092       1093       1104       1103       1213       1214       1225       1224  
      1093       1094       1105       1104       1214       1215       1226       1225  
      1094       1095       1106       1105       1215       1216       1227       1226  
      1095       1096       1107       1106       1216       1217       1228       1227  
      1096       1097       1108       1107       1217       1218       1229       1228  
      1097       1098       1109       1108       1218       1219       1230       1229  
      1098       1099       1110       1109       1219       1220       1231       1230  
      1099       1100       1111       1110       1220       1221       1232       1231  
      1101       1102       1113       1112       1222       1223       1234       1233  
      1102       1103       1114       1113       1223       1224       1235       1234  
      1103       1104       1115       1114       1224       1225       1236       1235  
      1104       1105       1116       1115       1225       1226       1237       1236  
      1105       1106       1117       1116       1226       1227       1238       1237  
      1106       1107       1118       1117       1227       1228       1239       1238  
      1107       1108       1119       1118       1228       1229       1240       1239  
      1108       1109       1120       1119       1229       1230       1241       1240  
      1109       1110       1121       1120       1230       1231       1242       1241  
      1110       1111       1122       1121       1231       1232       1243       1242  
      1112       1113       1124       1123       1233       1234       1245       1244  
      1113       1114       1125       1124       1234       1235       1246       1245  
      1114       1115       1126       1125       1235       1236       1247       1246  
      1115       1116       1127       1126       1236       1237       1248       1247  
      1116       1117       1128       1127       1237       1238       1249       1248  
      1117       1118       1129       1128       1238       1239       1250       1249  
      1118       1119       1130       1129       1239       1240       1251       1250  
      1119       1120       1131       1130       1240       1241       1252       1251  
      1120       1121       1132       1131       1241       1242       1253       1252  
      1121       1122       1133       1132       1242       1243       1254       1253  
      1123       1124       1135       1134       1244       1245       1256       1255  
      1124       1125       1136       1135       1245       1246       1257       1256  
      1125       1126       1137       1136       1246       1247       1258       1257  
      1126       1127       1138       1137       1247       1248       1259       1258  
      1127       1128       1139       1138       1248       1249       1260       1259  
      1128       1129       1140       1139       1249       1250       1261       1260  
      1129       1130       1141       1140       1250       1251       1262       1261  
      1130       1131       1142       1141       1251       1252       1263       1262  
      1131       1132       1143       1142       1252       1253       1264       1263  
      1132       1133       1144       1143       1253       1254       1265       1264  
      1134       1135       1146       1145       1255       1256       1267       1266  
      1135       1136       1147       1146       1256       1257       1268       1267  
      1136       1137       1148       1147       1257       1258       1269       1268  
      1137       1138       1149       1148       1258       1259       1270       1269  
      1138       1139       1150       1149       1259       1260       1271       1270  
      1139       1140       1151       1150       1260       1261       1272       1271  
      1140       1141       1152       1151       1261       1262       1273       1272  
      1141       1142       1153       1152       1262       1263       1274       1273  
      1142       1143       1154       1153       1263       1264       1275       1274  
      1143       1144       1155       1154       1264       1265       1276       1275  
      1145       1146       1157       1156       1266       1267       1278       1277  
      1146       1147       1158       1157       1267       1268       1279       1278  
      1147       1148       1159       1158       1268       1269       1280       1279  
      1148       1149       1160       1159       1269       1270       1281       1280  
      1149       1150       1161       1160       1270       1271       1282       1281  
      1150       1151       1162       1161       1271       1272       1283       1282  
      1151       1152       1163       1162       1272       1273       1284       1283  
      1152       1153       1164       1163       1273       1274       1285       1284  
      1153       1154       1165       1164       1274       1275       1286       1285  
      1154       1155       1166       1165       1275       1276       1287       1286  
      1156       1157       1168       1167       1277       1278       1289       1288  
      1157       1158       1169       1168       1278       1279       1290       1289  
      1158       1159       1170       1169       1279       1280       1291       1290  
      1159       1160       1171       1170       1280       1281       1292       1291  
      1160       1161       1172       1171       1281       1282       1293       1292  
      1161       1162       1173       1172       1282       1283       1294       1293  
      1162       1163       1174       1173       1283       1284       1295       1294  
      1163       1164       1175       1174       1284       1285       1296       1295  
      1164       1165       1176       1175       1285       1286       1297       1296  
      1165       1166       1177       1176       1286       1287       1298       1297  
      1167       1168       1179       1178       1288       1289       1300       1299  
      1168       1169       1180       1179       1289       1290       1301       1300  
      1169       1170       1181       1180       1290       1291       1302       1301  
      1170       1171       1182       1181       1291       1292       1303       1302  
      1171       1172       1183       1182       1292       1293       1304       1303  
      1172       1173       1184       1183       1293       1294       1305       1304  
      1173       1174       1185       1184       1294       1295       1306       1305  
      1174       1175       1186       1185       1295       1296       1307       1306  
      1175       1176       1187       1186       1296       1297       1308       1307  
      1176       1177       1188       1187       1297       1298       1309       1308  
      1178       1179       1190       1189       1299       1300       1311       1310  
      1179       1180       1191       1190       1300       1301       1312       1311  
      1180       1181       1192       1191       1301       1302       1313       1312  
      1181       1182       1193       1192       1302       1303       1314       1313  
      1182       1183       1194       1193       1303       1304       1315       1314  
      1183       1184       1195       1194       1304       1305       1316       1315  
      1184       1185       1196       1195       1305       1306       1317       1316  
      1185       1186       1197       1196       1306       1307       1318       1317  
      1186       1187       1198       1197       1307       1308       1319       1318  
      1187       1188       1199       1198       1308       1309       1320       1319  
      1189       1190       1201       1200       1310       1311       1322       1321  
      1190       1191       1202       1201       1311       1312       1323       1322  
      1191       1192       1203       1202       1312       1313       1324       1323  
      1192       1193       1204       1203       1313       1314       1325       1324  
      1193       1194       1205       1204       1314       1315       1326       1325  
      1194       1195       1206       1205       1315       1316       1327       1326  
      1195       1196       1207       1206       1316       1317       1328       1327  
      1196       1197       1208       1207       1317       1318       1329       1328  
      1197       1198       1209       1208       1318       1319       1330       1329  
      1198       1199       1210       1209       1319       1320       1331       1330  
      1211       1212       1223       1222       1332       1333       1344       1343  
      1212       1213       1224       1223       1333       1334       1345       1344  
      1213       1214       1225       1224       1334       1335       1346       1345  
      1214       1215       1226       1225       1335       1336       1347       1346  
      1215       1216       1227       1226       1336       1337       1348       1347  
      1216       1217       1228       1227       1337       1338       1349       1348  
      1217       1218       1229       1228       1338       1339       1350       1349  
      1218       1219       1230       1229       1339       1340       1351       1350  
      1219       1220       1231       1230       1340       1341       1352       1351  
      1220       1221       1232       1231       1341       1342       1353       1352  
      1222       1223       1234       1233       1343       1344       1355       1354  
      1223       1224       1235       1234       1344       1345       1356       1355  
      1224       1225       1236       1235       1345       1346       1357       1356  
      1225       1226       1237       1236       1346       1347       1358       1357  
      1226       1227       1238       1237       1347       1348       1359       1358  
      1227       1228       1239       1238       1348       1349       1360       1359  
      1228       1229       1240       1239       1349       1350       1361       1360  
      1229       1230       1241       1240       1350       1351       1362       1361  
      1230       1231       1242       1241       1351       1352       1363       1362  
      1231       1232       1243       1242       1352       1353       1364       1363  
      1233       1234       1245       1244       1354       1355       1366       1365  
      1234       1235       1246       1245       1355       1356       1367       1366  
      1235       1236       1247       1246       1356       1357       1368       1367  
      1236       1237       1248       1247       1357       1358       1369       1368  
      1237       1238       1249       1248       1358       1359       1370       1369  
      1238       1239       1250       1249       1359       1360       1371       1370  
      1239       1240       1251       1250       1360       1361       1372       1371  
      1240       1241       1252       1251       1361       1362       1373       1372  
      1241       1242       1253       1252       1362       1363       1374       1373  
      1242       1243       1254       1253       1363       1364       1375       1374  
      1244       1245       1256       1255       1365       1366       1377       1376  
      1245       1246       1257       1256       1366       1367       1378       1377  
      1246       1247       1258       1257       1367       1368       1379       1378  
      1247       1248       1259       1258       1368       1369       1380       1379  
      1248       1249       1260       1259       1369       1370       1381       1380  
      1249       1250       1261       1260       1370       1371       1382       1381  
      1250       1251       1262       1261       1371       1372       1383       1382  
      1251       1252       1263       1262       1372       1373       1384       1383  
      1252       1253       1264       1263       1373       1374       1385       1384  
      1253       1254       1265       1264       1374       1375       1386       1385  
      1255       1256       1267       1266       1376       1377       1388       1387  
      1256       1257       1268       1267       1377       1378       1389       1388  
      1257       1258       1269       1268       1378       1379       1390       1389  
      1258       1259       1270       1269       1379       1380       1391       1390  
      1259       1260       1271       1270       1380       1381       1392       1391  
      1260       1261       1272       1271       1381       1382       1393       1392  
      1261       1262       1273       1272       1382       1383       1394       1393  
      1262       1263       1274       1273       1383       1384       1395       1394  
      1263       1264       1275       1274       1384       1385       1396       1395  
      1264       1265       1276       1275       1385       1386       1397       1396  
      1266       1267       1278       1277       1387       1388       1399       1398  
      1267       1268       1279       1278       1388       1389       1400       1399  
      1268       1269       1280       1279       1389       1390       1401       1400  
      1269       1270       1281       1280       1390       1391       1402       1401  
      1270       1271       1282       1281       1391       1392       1403       1402  
      1271       1272       1283       1282       1392       1393       1404       1403  
      1272       1273       1284       1283       1393       1394       1405       1404  
      1273       1274       1285       1284       1394       1395       1406       1405  
      1274       1275       1286       1285       1395       1396       1407       1406  
      1275       1276       1287       1286       1396       1397       1408       1407  
      1277       1278       1289       1288       1398       1399       1410       1409  
      1278       1279       1290       1289       1399       1400       1411       1410  
      1279       1280       1291       1290       1400       1401       1412       1411  
      1280       1281       1292       1291       1401       1402       1413       1412  
      1281       1282       1293       1292       1402       1403       1414       1413  
      1282       1283       1294       1293       1403       1404       1415       1414  
      1283       1284       1295       1294       1404       1405       1416       1415  
      1284       1285       1296       1295       1405       1406       1417       1416  
      1285       1286       1297       1296       1406       1407       1418       1417  
      1286       1287       1298       1297       1407       1408       1419       1418  
      1288       1289       1300       1299       1409       1410       1421       1420  
      1289       1290       1301       1300       1410       1411       1422       1421  
      1290       1291       1302       1301       1411       1412       1423       1422  
      1291       1292       1303       1302       1412       1413       1424       1423  
      1292       1293       1304       1303       1413       1414       1425       1424  
      1293       1294       1305       1304       1414       1415       1426       1425  
      1294       1295       1306       1305       1415       1416       1427       1426  
      1295       1296       1307       1306       1416       1417       1428       1427  
      1296       1297       1308       1307       1417       1418       1429       1428  
      1297       1298       1309       1308       1418       1419       1430       1429  
      1299       1300       1311       1310       1420       1421       1432       1431  
      1300       1301       1312       1311       1421       1422       1433       1432  
      1301       1302       1313       1312       1422       1423       1434       1433  
      1302       1303       1314       1313       1423       1424       1435       1434  
      1303       1304       1315       1314       1424       1425       1436       1435  
      1304       1305       1316       1315       1425       1426       1437       1436  
      1305       1306       1317       1316       1426       1427       1438       1437  
      1306       1307       1318       1317       1427       1428       1439       1438  
      1307       1308       1319       1318       1428       1429       1440       1439  
      1308       1309       1320       1319       1429       1430       1441       1440  
      1310       1311       1322       1321       1431       1432       1443       1442  
      1311       1312       1323       1322       1432       1433       1444       1443  
      1312       1313       1324       1323       1433       1434       1445       1444  
      1313       1314       1325       1324       1434       1435       1446       1445  
      1314       1315       1326       1325       1435       1436       1447       1446  
      1315       1316       1327       1326       1436       1437       1448       1447  
      1316       1317       1328       1327       1437       1438       1449       1448  
      1317       1318       1329       1328       1438       1439       1450       1449  
      1318       1319       1330       1329       1439       1440       1451       1450  
      1319       1320       1331       1330       1440       1441       1452       1451  
      1332       1333       1344       1343       1453       1454       1465       1464  
      1333       1334       1345       1344       1454       1455       1466       1465  
      1334       1335       1346       1345       1455       1456       1467       1466  
      1335       1336       1347       1346       1456       1457       1468       1467  
      1336       1337       1348       1347       1457       1458       1469       1468  
      1337       1338       1349       1348       1458       1459       1470       1469  
      1338       1339       1350       1349       1459       1460       1471       1470  
      1339       1340       1351       1350       1460       1461       1472       1471  
      1340       1341       1352       1351       1461       1462       1473       1472  
      1341       1342       1353       1352       1462       1463       1474       1473  
      1343       1344       1355       1354       1464       1465       1476       1475  
      1344       1345       1356       1355       1465       1466       1477       1476  
      1345       1346       1357       1356       1466       1467       1478       1477  
      1346       1347       1358       1357       1467       1468       1479       1478  
      1347       1348       1359       1358       1468       1469       1480       1479  
      1348       1349       1360       1359       1469       1470       1481       1480  
      1349       1350       1361       1360       1470       1471       1482       1481  
      1350       1351       1362       1361       1471       1472       1483       1482  
      1351       1352       1363       1362       1472       1473       1484       1483  
      1352       1353       1364       1363       1473       1474       1485       1484  
      1354       1355       1366       1365       1475       1476       1487       1486  
      1355       1356       1367       1366       1476       1477       1488       1487  
      1356       1357       1368       1367       1477       1478       1489       1488  
      1357       1358       1369       1368       1478       1479       1490       1489  
      1358       1359       1370       1369       1479       1480       1491       1490  
      1359       1360       1371       1370       1480       1481       1492       1491  
      1360       1361       1372       1371       1481       1482       1493       1492  
      1361       1362       1373       1372       1482       1483       1494       1493  
      1362       1363       1374       1373       1483       1484       1495       1494  
      1363       1364       1375       1374       1484       1485       1496       1495  
      1365       1366       1377       1376       1486       1487       1498       1497  
      1366       1367       1378       1377       1487       1488       1499       1498  
      1367       1368       1379       1378       1488       1489       1500       1499  
      1368       1369       1380       1379       1489       1490       1501       1500  
      1369       1370       1381       1380       1490       1491       1502       1501  
      1370       1371       1382       1381       1491       1492       1503       1502  
      1371       1372       1383       1382       1492       1493       1504       1503  
      1372       1373       1384       1383       1493       1494       1505       1504  
      1373       1374       1385       1384       1494       1495       1506       1505  
      1374       1375       1386       1385       1495       1496       1507       1506  
      1376       1377       1388       1387       1497       1498       1509       1508  
      1377       1378       1389       1388       1498       1499       1510       1509  
      1378       1379       1390       1389       1499       1500       1511       1510  
      1379       1380       1391       1390       1500       1501       1512       1511  
      1380       1381       1392       1391       1501       1502       1513       1512  
      1381       1382       1393       1392       1502       1503       1514       1513  
      1382       1383       1394       1393       1503       1504       1515       1514  
      1383       1384       1395       1394       1504       1505       1516       1515  
      1384       1385       1396       1395       1505       1506       1517       1516  
      1385       1386       1397       1396       1506       1507       1518       1517  
      1387       1388       1399       1398       1508       1509       1520       1519  
      1388       1389       1400       1399       1509       1510       1521       1520  
      1389       1390       1401       1400       1510       1511       1522       1521  
      1390       1391       1402       1401       1511       1512       1523       1522  
      1391       1392       1403       1402       1512       1513       1524       1523  
      1392       1393       1404       1403       1513       1514       1525       1524  
      1393       1394       1405       1404       1514       1515       1526       1525  
      1394       1395       1406       1405       1515       1516       1527       1526  
      1395       1396       1407       1406       1516       1517       1528       1527  
      1396       1397       1408       1407       1517       1518       1529       1528  
      1398       1399       1410       1409       1519       1520       1531       1530  
      1399       1400       1411       1410       1520       1521       1532       1531  
      1400       1401       1412       1411       1521       1522       1533       1532  
      1401       1402       1413       1412       1522       1523       1534       1533  
      1402       1403       1414       1413       1523       1524       1535       1534  
      1403       1404       1415       1414       1524       1525       1536       1535  
      1404       1405       1416       1415       1525       1526       1537       1536  
      1405       1406       1417       1416       1526       1527       1538       1537  
      1406       1407       1418       1417       1527       1528       1539       1538  
      1407       1408       1419       1418       1528       1529       1540       1539  
      1409       1410       1421       1420       1530       1531       1542       1541  
      1410       1411       1422       1421       1531       1532       1543       1542  
      1411       1412       1423       1422       1532       1533       1544       1543  
      1412       1413       1424       1423       1533       1534       1545       1544  
      1413       1414       1425       1424       1534       1535       1546       1545  
      1414       1415       1426       1425       1535       1536       1547       1546  
      1415       1416       1427       1426       1536       1537       1548       1547  
      1416       1417       1428       1427       1537       1538       1549       1548  
      1417       1418       1429       1428       1538       1539       1550       1549  
      1418       1419       1430       1429       1539       1540       1551       1550  
      1420       1421       1432       1431       1541       1542       1553       1552  
      1421       1422       1433       1432       1542       1543       1554       1553  
      1422       1423       1434       1433       1543       1544       1555       1554  
      1423       1424       1435       1434       1544       1545       1556       1555  
      1424       1425       1436       1435       1545       1546       1557       1556  
      1425       1426       1437       1436       1546       1547       1558       1557  
      1426       1427       1438       1437       1547       1548       1559       1558  
      1427       1428       1439       1438       1548       1549       1560       1559  
      1428       1429       1440       1439       1549       1550       1561       1560  
      1429       1430       1441       1440       1550       1551       1562       1561  
      1431       1432       1443       1442       1552       1553       1564       1563  
      1432       1433       1444       1443       1553       1554       1565       1564  
      1433       1434       1445       1444       1554       1555       1566       1565  
      1434       1435       1446       1445       1555       1556       1567       1566  
      1435       1436       1447       1446       1556       1557       1568       1567  
      1436       1437       1448       1447       1557       1558       1569       1568  
      1437       1438       1449       1448       1558       1559       1570       1569  
      1438       1439       1450       1449       1559       1560       1571       1570  
      1439       1440       1451       1450       1560       1561       1572       1571  
      1440       1441       1452       1451       1561       1562       1573       1572  
      1453       1454       1465       1464       1574       1575       1586       1585  
      1454       1455       1466       1465       1575       1576       1587       1586  
      1455       1456       1467       1466       1576       1577       1588       1587  
      1456       1457       1468       1467       1577       1578       1589       1588  
      1457       1458       1469       1468       1578       1579       1590       1589  
      1458       1459       1470       1469       1579       1580       1591       1590  
      1459       1460       1471       1470       1580       1581       1592       1591  
      1460       1461       1472       1471       1581       1582       1593       1592  
      1461       1462       1473       1472       1582       1583       1594       1593  
      1462       1463       1474       1473       1583       1584       1595       1594  
      1464       1465       1476       1475       1585       1586       1597       1596  
      1465       1466       1477       1476       1586       1587       1598       1597  
      1466       1467       1478       1477       1587       1588       1599       1598  
      1467       1468       1479       1478       1588       1589       1600       1599  
      1468       1469       1480       1479       1589       1590       1601       1600  
      1469       1470       1481       1480       1590       1591       1602       1601  
      1470       1471       1482       1481       1591       1592       1603       1602  
      1471       1472       1483       1482       1592       1593       1604       1603  
      1472       1473       1484       1483       1593       1594       1605       1604  
      1473       1474       1485       1484       1594       1595       1606       1605  
      1475       1476       1487       1486       1596       1597       1608       1607  
      1476       1477       1488       1487       1597       1598       1609       1608  
      1477       1478       1489       1488       1598       1599       1610       1609  
      1478       1479       1490       1489       1599       1600       1611       1610  
      1479       1480       1491       1490       1600       1601       1612       1611  
      1480       1481       1492       1491       1601       1602       1613       1612  
      1481       1482       1493       1492       1602       1603       1614       1613  
      1482       1483       1494       1493       1603       1604       1615       1614  
      1483       1484       1495       1494       1604       1605       1616       1615  
      1484       1485       1496       1495       1605       1606       1617       1616  
      1486       1487       1498       1497       1607       1608       1619       1618  
      1487       1488       1499       1498       1608       1609       1620       1619  
      1488       1489       1500       1499       1609       1610       1621       1620  
      1489       1490       1501       1500       1610       1611       1622       1621  
      1490       1491       1502       1501       1611       1612       1623       1622  
      1491       1492       1503       1502       1612       1613       1624       1623  
      1492       1493       1504       1503       1613       1614       1625       1624  
      1493       1494       1505       1504       1614       1615       1626       1625  
      1494       1495       1506       1505       1615       1616       1627       1626  
      1495       1496       1507       1506       1616       1617       1628       1627  
      1497       1498       1509       1508       1618       1619       1630       1629  
      1498       1499       1510       1509       1619       1620       1631       1630  
      1499       1500       1511       1510       1620       1621       1632       1631  
      1500       1501       1512       1511       1621       1622       1633       1632  
      1501       1502       1513       1512       1622       1623       1634       1633  
      1502       1503       1514       1513       1623       1624       1635       1634  
      1503       1504       1515       1514       1624       1625       1636       1635  
      1504       1505       1516       1515       1625       1626       1637       1636  
      1505       1506       1517       1516       1626       1627       1638       1637  
      1506       1507       1518       1517       1627       1628       1639       1638  
      1508       1509       1520       1519       1629       1630       1641       1640  
      1509       1510       1521       1520       1630       1631       1642       1641  
      1510       1511       1522       1521       1631       1632       1643       1642  
      1511       1512       1523       1522       1632       1633       1644       1643  
      1512       1513       1524       1523       1633       1634       1645       1644  
      1513       1514       1525       1524       1634       1635       1646       1645  
      1514       1515       1526       1525       1635       1636       1647       1646  
      1515       1516       1527       1526       1636       1637       1648       1647  
      1516       1517       1528       1527       1637       1638       1649       1648  
      1517       1518       1529       1528       1638       1639       1650       1649  
      1519       1520       1531       1530       1640       1641       1652       1651  
      1520       1521       1532       1531       1641       1642       1653       1652  
      1521       1522       1533       1532       1642       1643       1654       1653  
      1522       1523       1534       1533       1643       1644       1655       1654  
      1523       1524       1535       1534       1644       1645       1656       1655  
      1524       1525       1536       1535       1645       1646       1657       1656  
      1525       1526       1537       1536       1646       1647       1658       1657  
      1526       1527       1538       1537       1647       1648       1659       1658  
      1527       1528       1539       1538       1648       1649       1660       1659  
      1528       1529       1540       1539       1649       1650       1661       1660  
      1530       1531       1542       1541       1651       1652       1663       1662  
      1531       1532       1543       1542       1652       1653       1664       1663  
      1532       1533       1544       1543       1653       1654       1665       1664  
      1533       1534       1545       1544       1654       1655       1666       1665  
      1534       1535       1546       1545       1655       1656       1667       1666  
      1535       1536       1547       1546       1656       1657       1668       1667  
      1536       1537       1548       1547       1657       1658       1669       1668  
      1537       1538       1549       1548       1658       1659       1670       1669  
      1538       1539       1550       1549       1659       1660       1671       1670  
      1539       1540       1551       1550       1660       1661       1672       1671  
      1541       1542       1553       1552       1662       1663       1674       1673  
      1542       1543       1554       1553       1663       1664       1675       1674  
      1543       1544       1555       1554       1664       1665       1676       1675  
      1544       1545       1556       1555       1665       1666       1677       1676  
      1545       1546       1557       1556       1666       1667       1678       1677  
      1546       1547       1558       1557       1667       1668       1679       1678  
      1547       1548       1559       1558       1668       1669       1680       1679  
      1548       1549       1560       1559       1669       1670       1681       1680  
      1549       1550       1561       1560       1670       1671       1682       1681  
      1550       1551       1562       1561       1671       1672       1683       1682  
      1552       1553       1564       1563       1673       1674       1685       1684  
      1553       1554       1565       1564       1674       1675       1686       1685  
      1554       1555       1566       1565       1675       1676       1687       1686  
      1555       1556       1567       1566       1676       1677       1688       1687  
      1556       1557       1568       1567       1677       1678       1689       1688  
      1557       1558       1569       1568       1678       1679       1690       1689  
      1558       1559       1570       1569       1679       1680       1691       1690  
      1559       1560       1571       1570       1680       1681       1692       1691  
      1560       1561       1572       1571       1681       1682       1693       1692  
      1561       1562       1573       1572       1682       1683       1694       1693  
      1574       1575       1586       1585       1695       1696       1707       1706  
      1575       1576       1587       1586       1696       1697       1708       1707  
      1576       1577       1588       1587       1697       1698       1709       1708  
      1577       1578       1589       1588       1698       1699       1710       1709  
      1578       1579       1590       1589       1699       1700       1711       1710  
      1579       1580       1591       1590       1700       1701       1712       1711  
      1580       1581       1592       1591       1701       1702       1713       1712  
      1581       1582       1593       1592       1702       1703       1714       1713  
      1582       1583       1594       1593       1703       1704       1715       1714  
      1583       1584       1595       1594       1704       1705       1716       1715  
      1585       1586       1597       1596       1706       1707       1718       1717  
      1586       1587       1598       1597       1707       1708       1719       1718  
      1587       1588       1599       1598       1708       1709       1720       1719  
      1588       1589       1600       1599       1709       1710       1721       1720  
      1589       1590       1601       1600       1710       1711       1722       1721  
      1590       1591       1602       1601       1711       1712       1723       1722  
      1591       1592       1603       1602       1712       1713       1724       1723  
      1592       1593       1604       1603       1713       1714       1725       1724  
      1593       1594       1605       1604       1714       1715       1726       1725  
      1594       1595       1606       1605       1715       1716       1727       1726  
      1596       1597       1608       1607       1717       1718       1729       1728  
      1597       1598       1609       1608       1718       1719       1730       1729  
      1598       1599       1610       1609       1719       1720       1731       1730  
      1599       1600       1611       1610       1720       1721       1732       1731  
      1600       1601       1612       1611       1721       1722       1733       1732  
      1601       1602       1613       1612       1722       1723       1734       1733  
      1602       1603       1614       1613       1723       1724       1735       1734  
      1603       1604       1615       1614       1724       1725       1736       1735  
      1604       1605       1616       1615       1725       1726       1737       1736  
      1605       1606       1617       1616       1726       1727       1738       1737  
      1607       1608       1619       1618       1728       1729       1740       1739  
      1608       1609       1620       1619       1729       1730       1741       1740  
      1609       1610       1621       1620       1730       1731       1742       1741  
      1610       1611       1622       1621       1731       1732       1743       1742  
      1611       1612       1623       1622       1732       1733       1744       1743  
      1612       1613       1624       1623       1733       1734       1745       1744  
      1613       1614       1625       1624       1734       1735       1746       1745  
      1614       1615       1626       1625       1735       1736       1747       1746  
      1615       1616       1627       1626       1736       1737       1748       1747  
      1616       1617       1628       1627       1737       1738       1749       1748  
      1618       1619       1630       1629       1739       1740       1751       1750  
      1619       1620       1631       1630       1740       1741       1752       1751  
      1620       1621       1632       1631       1741       1742       1753       1752  
      1621       1622       1633       1632       1742       1743       1754       1753  
      1622       1623       1634       1633       1743       1744       1755       1754  
      1623       1624       1635       1634       1744       1745       1756       1755  
      1624       1625       1636       1635       1745       1746       1757       1756  
      1625       1626       1637       1636       1746       1747       1758       1757  
      1626       1627       1638       1637       1747       1748       1759       1758  
      1627       1628       1639       1638       1748       1749       1760       1759  
      1629       1630       1641       1640       1750       1751       1762       1761  
      1630       1631       1642       1641       1751       1752       1763       1762  
      1631       1632       1643       1642       1752       1753       1764       1763  
      1632       1633       1644       1643       1753       1754       1765       1764  
      1633       1634       1645       1644       1754       1755       1766       1765  
      1634       1635       1646       1645       1755       1756       1767       1766  
      1635       1636       1647       1646       1756       1757       1768       1767  
      1636       1637       1648       1647       1757       1758       1769       1768  
      1637       1638       1649       1648       1758       1759       1770       1769  
      1638       1639       1650       1649       1759       1760       1771       1770  
      1640       1641       1652       1651       1761       1762       1773       1772  
      1641       1642       1653       1652       1762       1763       1774       1773  
      1642       1643       1654       1653       1763       1764       1775       1774  
      1643       1644       1655       1654       1764       1765       1776       1775  
      1644       1645       1656       1655       1765       1766       1777       1776  
      1645       1646       1657       1656       1766       1767       1778       1777  
      1646       1647       1658       1657       1767       1768       1779       1778  
      1647       1648       1659       1658       1768       1769       1780       1779  
      1648       1649       1660       1659       1769       1770       1781       1780  
      1649       1650       1661       1660       1770       1771       1782       1781  
      1651       1652       1663       1662       1772       1773       1784       1783  
      1652       1653       1664       1663       1773       1774       1785       1784  
      1653       1654       1665       1664       1774       1775       1786       1785  
      1654       1655       1666       1665       1775       1776       1787       1786  
      1655       1656       1667       1666       1776       1777       1788       1787  
      1656       1657       1668       1667       1777       1778       1789       1788  
      1657       1658       1669       1668       1778       1779       1790       1789  
      1658       1659       1670       1669       1779       1780       1791       1790  
      1659       1660       1671       1670       1780       1781       1792       1791  
      1660       1661       1672       1671       1781       1782       1793       1792  
      1662       1663       1674       1673       1783       1784       1795       1794  
      1663       1664       1675       1674       1784       1785       1796       1795  
      1664       1665       1676       1675       1785       1786       1797       1796  
      1665       1666       1677       1676       1786       1787       1798       1797  
      1666       1667       1678       1677       1787       1788       1799       1798  
      1667       1668       1679       1678       1788       1789       1800       1799  
      1668       1669       1680       1679       1789       1790       1801       1800  
      1669       1670       1681       1680       1790       1791       1802       1801  
      1670       1671       1682       1681       1791       1792       1803       1802  
      1671       1672       1683       1682       1792       1793       1804       1803  
      1673       1674       1685       1684       1794       1795       1806       1805  
      1674       1675       1686       1685       1795       1796       1807       1806  
      1675       1676       1687       1686       1796       1797       1808       1807  
      1676       1677       1688       1687       1797       1798       1809       1808  
      1677       1678       1689       1688       1798       1799       1810       1809  
      1678       1679       1690       1689       1799       1800       1811       1810  
      1679       1680       1691       1690       1800       1801       1812       1811  
      1680       1681       1692       1691       1801       1802       1813       1812  
      1681       1682       1693       1692       1802       1803       1814       1813  
      1682       1683       1694       1693       1803       1804       1815       1814  
      1695       1696       1707       1706       1816       1817       1828       1827  
      1696       1697       1708       1707       1817       1818       1829       1828  
      1697       1698       1709       1708       1818       1819       1830       1829  
      1698       1699       1710       1709       1819       1820       1831       1830  
      1699       1700       1711       1710       1820       1821       1832       1831  
      1700       1701       1712       1711       1821       1822       1833       1832  
      1701       1702       1713       1712       1822       1823       1834       1833  
      1702       1703       1714       1713       1823       1824       1835       1834  
      1703       1704       1715       1714       1824       1825       1836       1835  
      1704       1705       1716       1715       1825       1826       1837       1836  
      1706       1707       1718       1717       1827       1828       1839       1838  
      1707       1708       1719       1718       1828       1829       1840       1839  
      1708       1709       1720       1719       1829       1830       1841       1840  
      1709       1710       1721       1720       1830       1831       1842       1841  
      1710       1711       1722       1721       1831       1832       1843       1842  
      1711       1712       1723       1722       1832       1833       1844       1843  
      1712       1713       1724       1723       1833       1834       1845       1844  
      1713       1714       1725       1724       1834       1835       1846       1845  
      1714       1715       1726       1725       1835       1836       1847       1846  
      1715       1716       1727       1726       1836       1837       1848       1847  
      1717       1718       1729       1728       1838       1839       1850       1849  
      1718       1719       1730       1729       1839       1840       1851       1850  
      1719       1720       1731       1730       1840       1841       1852       1851  
      1720       1721       1732       1731       1841       1842       1853       1852  
      1721       1722       1733       1732       1842       1843       1854       1853  
      1722       1723       1734       1733       1843       1844       1855       1854  
      1723       1724       1735       1734       1844       1845       1856       1855  
      1724       1725       1736       1735       1845       1846       1857       1856  
      1725       1726       1737       1736       1846       1847       1858       1857  
      1726       1727       1738       1737       1847       1848       1859       1858  
      1728       1729       1740       1739       1849       1850       1861       1860  
      1729       1730       1741       1740       1850       1851       1862       1861  
      1730       1731       1742       1741       1851       1852       1863       1862  
      1731       1732       1743       1742       1852       1853       1864       1863  
      1732       1733       1744       1743       1853       1854       1865       1864  
      1733       1734       1745       1744       1854       1855       1866       1865  
      1734       1735       1746       1745       1855       1856       1867       1866  
      1735       1736       1747       1746       1856       1857       1868       1867  
      1736       1737       1748       1747       1857       1858       1869       1868  
      1737       1738       1749       1748       1858       1859       1870       1869  
      1739       1740       1751       1750       1860       1861       1872       1871  
      1740       1741       1752       1751       1861       1862       1873       1872  
      1741       1742       1753       1752       1862       1863       1874       1873  
      1742       1743       1754       1753       1863       1864       1875       1874  
      1743       1744       1755       1754       1864       1865       1876       1875  
      1744       1745       1756       1755       1865       1866       1877       1876  
      1745       1746       1757       1756       1866       1867       1878       1877  
      1746       1747       1758       1757       1867       1868       1879       1878  
      1747       1748       1759       1758       1868       1869       1880       1879  
      1748       1749       1760       1759       1869       1870       1881       1880  
      1750       1751       1762       1761       1871       1872       1883       1882  
      1751       1752       1763       1762       1872       1873       1884       1883  
      1752       1753       1764       1763       1873       1874       1885       1884  
      1753       1754       1765       1764       1874       1875       1886       1885  
      1754       1755       1766       1765       1875       1876       1887       1886  
      1755       1756       1767       1766       1876       1877       1888       1887  
      1756       1757       1768       1767       1877       1878       1889       1888  
      1757       1758       1769       1768       1878       1879       1890       1889  
      1758       1759       1770       1769       1879       1880       1891       1890  
      1759       1760       1771       1770       1880       1881       1892       1891  
      1761       1762       1773       1772       1882       1883       1894       1893  
      1762       1763       1774       1773       1883       1884       1895       1894  
      1763       1764       1775       1774       1884       1885       1896       1895  
      1764       1765       1776       1775       1885       1886       1897       1896  
      1765       1766       1777       1776       1886       1887       1898       1897  
      1766       1767       1778       1777       1887       1888       1899       1898  
      1767       1768       1779       1778       1888       1889       1900       1899  
      1768       1769       1780       1779       1889       1890       1901       1900  
      1769       1770       1781       1780       1890       1891       1902       1901  
      1770       1771       1782       1781       1891       1892       1903       1902  
      1772       1773       1784       1783       1893       1894       1905       1904  
      1773       1774       1785       1784       1894       1895       1906       1905  
      1774       1775       1786       1785       1895       1896       1907       1906  
      1775       1776       1787       1786       1896       1897       1908       1907  
      1776       1777       1788       1787       1897       1898       1909       1908  
      1777       1778       1789       1788       1898       1899       1910       1909  
      1778       1779       1790       1789       1899       1900       1911       1910  
      1779       1780       1791       1790       1900       1901       1912       1911  
      1780       1781       1792       1791       1901       1902       1913       1912  
      1781       1782       1793       1792       1902       1903       1914       1913  
      1783       1784       1795       1794       1904       1905       1916       1915  
      1784       1785       1796       1795       1905       1906       1917       1916  
      1785       1786       1797       1796       1906       1907       1918       1917  
      1786       1787       1798       1797       1907       1908       1919       1918  
      1787       1788       1799       1798       1908       1909       1920       1919  
      1788       1789       1800       1799       1909       1910       1921       1920  
      1789       1790       1801       1800       1910       1911       1922       1921  
      1790       1791       1802       1801       1911       1912       1923       1922  
      1791       1792       1803       1802       1912       1913       1924       1923  
      1792       1793       1804       1803       1913       1914       1925       1924  
      1794       1795       1806       1805       1915       1916       1927       1926  
      1795       1796       1807       1806       1916       1917       1928       1927  
      1796       1797       1808       1807       1917       1918       1929       1928  
      1797       1798       1809       1808       1918       1919       1930       1929  
      1798       1799       1810       1809       1919       1920       1931       1930  
      1799       1800       1811       1810       1920       1921       1932       1931  
      1800       1801       1812       1811       1921       1922       1933       1932  
      1801       1802       1813       1812       1922       1923       1934       1933  
      1802       1803       1814       1813       1923       1924       1935       1934  
      1803       1804       1815       1814       1924       1925       1936       1935  
      1816       1817       1828       1827       1937       1938       1949       1948  
      1817       1818       1829       1828       1938       1939       1950       1949  
      1818       1819       1830       1829       1939       1940       1951       1950  
      1819       1820       1831       1830       1940       1941       1952       1951  
      1820       1821       1832       1831       1941       1942       1953       1952  
      1821       1822       1833       1832       1942       1943       1954       1953  
      1822       1823       1834       1833       1943       1944       1955       1954  
      1823       1824       1835       1834       1944       1945       1956       1955  
      1824       1825       1836       1835       1945       1946       1957       1956  
      1825       1826       1837       1836       1946       1947       1958       1957  
      1827       1828       1839       1838       1948       1949       1960       1959  
      1828       1829       1840       1839       1949       1950       1961       1960  
      1829       1830       1841       1840       1950       1951       1962       1961  
      1830       1831       1842       1841       1951       1952       1963       1962  
      1831       1832       1843       1842       1952       1953       1964       1963  
      1832       1833       1844       1843       1953       1954       1965       1964  
      1833       1834       1845       1844       1954       1955       1966       1965  
      1834       1835       1846       1845       1955       1956       1967       1966  
      1835       1836       1847       1846       1956       1957       1968       1967  
      1836       1837       1848       1847       1957       1958       1969       1968  
      1838       1839       1850       1849       1959       1960       1971       1970  
      1839       1840       1851       1850       1960       1961       1972       1971  
      1840       1841       1852       1851       1961       1962       1973       1972  
      1841       1842       1853       1852       1962       1963       1974       1973  
      1842       1843       1854       1853       1963       1964       1975       1974  
      1843       1844       1855       1854       1964       1965       1976       1975  
      1844       1845       1856       1855       1965       1966       1977       1976  
      1845       1846       1857       1856       1966       1967       1978       1977  
      1846       1847       1858       1857       1967       1968       1979       1978  
      1847       1848       1859       1858       1968       1969       1980       1979  
      1849       1850       1861       1860       1970       1971       1982       1981  
      1850       1851       1862       1861       1971       1972       1983       1982  
      1851       1852       1863       1862       1972       1973       1984       1983  
      1852       1853       1864       1863       1973       1974       1985       1984  
      1853       1854       1865       1864       1974       1975       1986       1985  
      1854       1855       1866       1865       1975       1976       1987       1986  
      1855       1856       1867       1866       1976       1977       1988       1987  
      1856       1857       1868       1867       1977       1978       1989       1988  
      1857       1858       1869       1868       1978       1979       1990       1989  
      1858       1859       1870       1869       1979       1980       1991       1990  
      1860       1861       1872       1871       1981       1982       1993       1992  
      1861       1862       1873       1872       1982       1983       1994       1993  
      1862       1863       1874       1873       1983       1984       1995       1994  
      1863       1864       1875       1874       1984       1985       1996       1995  
      1864       1865       1876       1875       1985       1986       1997       1996  
      1865       1866       1877       1876       1986       1987       1998       1997  
      1866       1867       1878       1877       1987       1988       1999       1998  
      1867       1868       1879       1878       1988       1989       2000       1999  
      1868       1869       1880       1879       1989       1990       2001       2000  
      1869       1870       1881       1880       1990       1991       2002       2001  
      1871       1872       1883       1882       1992       1993       2004       2003  
      1872       1873       1884       1883       1993       1994       2005       2004  
      1873       1874       1885       1884       1994       1995       2006       2005  
      1874       1875       1886       1885       1995       1996       2007       2006  
      1875       1876       1887       1886       1996       1997       2008       2007  
      1876       1877       1888       1887       1997       1998       2009       2008  
      1877       1878       1889       1888       1998       1999       2010       2009  
      1878       1879       1890       1889       1999       2000       2011       2010  
      1879       1880       1891       1890       2000       2001       2012       2011  
      1880       1881       1892       1891       2001       2002       2013       2012  
      1882       1883       1894       1893       2003       2004       2015       2014  
      1883       1884       1895       1894       2004       2005       2016       2015  
      1884       1885       1896       1895       2005       2006       2017       2016  
      1885       1886       1897       1896       2006       2007       2018       2017  
      1886       1887       1898       1897       2007       2008       2019       2018  
      1887       1888       1899       1898       2008       2009       2020       2019  
      1888       1889       1900       1899       2009       2010       2021       2020  
      1889       1890       1901       1900       2010       2011       2022       2021  
      1890       1891       1902       1901       2011       2012       2023       2022  
      1891       1892       1903       1902       2012       2013       2024       2023  
      1893       1894       1905       1904       2014       2015       2026       2025  
      1894       1895       1906       1905       2015       2016       2027       2026  
      1895       1896       1907       1906       2016       2017       2028       2027  
      1896       1897       1908       1907       2017       2018       2029       2028  
      1897       1898       1909       1908       2018       2019       2030       2029  
      1898       1899       1910       1909       2019       2020       2031       2030  
      1899       1900       1911       1910       2020       2021       2032       2031  
      1900       1901       1912       1911       2021       2022       2033       2032  
      1901       1902       1913       1912       2022       2023       2034       2033  
      1902       1903       1914       1913       2023       2024       2035       2034  
      1904       1905       1916       1915       2025       2026       2037       2036  
      1905       1906       1917       1916       2026       2027       2038       2037  
      1906       1907       1918       1917       2027       2028       2039       2038  
      1907       1908       1919       1918       2028       2029       2040       2039  
      1908       1909       1920       1919       2029       2030       2041       2040  
      1909       1910       1921       1920       2030       2031       2042       2041  
      1910       1911       1922       1921       2031       2032       2043       2042  
      1911       1912       1923       1922       2032       2033       2044       2043  
      1912       1913       1924       1923       2033       2034       2045       2044  
      1913       1914       1925       1924       2034       2035       2046       2045  
      1915       1916       1927       1926       2036       2037       2048       2047  
      1916       1917       1928       1927       2037       2038       2049       2048  
      1917       1918       1929       1928       2038       2039       2050       2049  
      1918       1919       1930       1929       2039       2040       2051       2050  
      1919       1920       1931       1930       2040       2041       2052       2051  
      1920       1921       1932       1931       2041       2042       2053       2052  
      1921       1922       1933       1932       2042       2043       2054       2053  
      1922       1923       1934       1933       2043       2044       2055       2054  
      1923       1924       1935       1934       2044       2045       2056       2055  
      1924       1925       1936       1935       2045       2046       2057       2056  
      1937       1938       1949       1948       2058       2059       2070       2069  
      1938       1939       1950       1949       2059       2060       2071       2070  
      1939       1940       1951       1950       2060       2061       2072       2071  
      1940       1941       1952       1951       2061       2062       2073       2072  
      1941       1942       1953       1952       2062       2063       2074       2073  
      1942       1943       1954       1953       2063       2064       2075       2074  
      1943       1944       1955       1954       2064       2065       2076       2075  
      1944       1945       1956       1955       2065       2066       2077       2076  
      1945       1946       1957       1956       2066       2067       2078       2077  
      1946       1947       1958       1957       2067       2068       2079       2078  
      1948       1949       1960       1959       2069       2070       2081       2080  
      1949       1950       1961       1960       2070       2071       2082       2081  
      1950       1951       1962       1961       2071       2072       2083       2082  
      1951       1952       1963       1962       2072       2073       2084       2083  
      1952       1953       1964       1963       2073       2074       2085       2084  
      1953       1954       1965       1964       2074       2075       2086       2085  
      1954       1955       1966       1965       2075       2076       2087       2086  
      1955       1956       1967       1966       2076       2077       2088       2087  
      1956       1957       1968       1967       2077       2078       2089       2088  
      1957       1958       1969       1968       2078       2079       2090       2089  
      1959       1960       1971       1970       2080       2081       2092       2091  
      1960       1961       1972       1971       2081       2082       2093       2092  
      1961       1962       1973       1972       2082       2083       2094       2093  
      1962       1963       1974       1973       2083       2084       2095       2094  
      1963       1964       1975       1974       2084       2085       2096       2095  
      1964       1965       1976       1975       2085       2086       2097       2096  
      1965       1966       1977       1976       2086       2087       2098       2097  
      1966       1967       1978       1977       2087       2088       2099       2098  
      1967       1968       1979       1978       2088       2089       2100       2099  
      1968       1969       1980       1979       2089       2090       2101       2100  
      1970       1971       1982       1981       2091       2092       2103       2102  
      1971       1972       1983       1982       2092       2093       2104       2103  
      1972       1973       1984       1983       2093       2094       2105       2104  
      1973       1974       1985       1984       2094       2095       2106       2105  
      1974       1975       1986       1985       2095       2096       2107       2106  
      1975       1976       1987       1986       2096       2097       2108       2107  
      1976       1977       1988       1987       2097       2098       2109       2108  
      1977       1978       1989       1988       2098       2099       2110       2109  
      1978       1979       1990       1989       2099       2100       2111       2110  
      1979       1980       1991       1990       2100       2101       2112       2111  
      1981       1982       1993       1992       2102       2103       2114       2113  
      1982       1983       1994       1993       2103       2104       2115       2114  
      1983       1984       1995       1994       2104       2105       2116       2115  
      1984       1985       1996       1995       2105       2106       2117       2116  
      1985       1986       1997       1996       2106       2107       2118       2117  
      1986       1987       1998       1997       2107       2108       2119       2118  
      1987       1988       1999       1998       2108       2109       2120       2119  
      1988       1989       2000       1999       2109       2110       2121       2120  
      1989       1990       2001       2000       2110       2111       2122       2121  
      1990       1991       2002       2001       2111       2112       2123       2122  
      1992       1993       2004       2003       2113       2114       2125       2124  
      1993       1994       2005       2004       2114       2115       2126       2125  
      1994       1995       2006       2005       2115       2116       2127       2126  
      1995       1996       2007       2006       2116       2117       2128       2127  
      1996       1997       2008       2007       2117       2118       2129       2128  
      1997       1998       2009       2008       2118       2119       2130       2129  
      1998       1999       2010       2009       2119       2120       2131       2130  
      1999       2000       2011       2010       2120       2121       2132       2131  
      2000       2001       2012       2011       2121       2122       2133       2132  
      2001       2002       2013       2012       2122       2123       2134       2133  
      2003       2004       2015       2014       2124       2125       2136       2135  
      2004       2005       2016       2015       2125       2126       2137       2136  
      2005       2006       2017       2016       2126       2127       2138       2137  
      2006       2007       2018       2017       2127       2128       2139       2138  
      2007       2008       2019       2018       2128       2129       2140       2139  
      2008       2009       2020       2019       2129       2130       2141       2140  
      2009       2010       2021       2020       2130       2131       2142       2141  
      2010       2011       2022       2021       2131       2132       2143       2142  
      2011       2012       2023       2022       2132       2133       2144       2143  
      2012       2013       2024       2023       2133       2134       2145       2144  
      2014       2015       2026       2025       2135       2136       2147       2146  
      2015       2016       2027       2026       2136       2137       2148       2147  
      2016       2017       2028       2027       2137       2138       2149       2148  
      2017       2018       2029       2028       2138       2139       2150       2149  
      2018       2019       2030       2029       2139       2140       2151       2150  
      2019       2020       2031       2030       2140       2141       2152       2151  
      2020       2021       2032       2031       2141       2142       2153       2152  
      2021       2022       2033       2032       2142       2143       2154       2153  
      2022       2023       2034       2033       2143       2144       2155       2154  
      2023       2024       2035       2034       2144       2145       2156       2155  
      2025       2026       2037       2036       2146       2147       2158       2157  
      2026       2027       2038       2037       2147       2148       2159       2158  
      2027       2028       2039       2038       2148       2149       2160       2159  
      2028       2029       2040       2039       2149       2150       2161       2160  
      2029       2030       2041       2040       2150       2151       2162       2161  
      2030       2031       2042       2041       2151       2152       2163       2162  
      2031       2032       2043       2042       2152       2153       2164       2163  
      2032       2033       2044       2043       2153       2154       2165       2164  
      2033       2034       2045       2044       2154       2155       2166       2165  
      2034       2035       2046       2045       2155       2156       2167       2166  
      2036       2037       2048       2047       2157       2158       2169       2168  
      2037       2038       2049       2048       2158       2159       2170       2169  
      2038       2039       2050       2049       2159       2160       2171       2170  
      2039       2040       2051       2050       2160       2161       2172       2171  
      2040       2041       2052       2051       2161       2162       2173       2172  
      2041       2042       2053       2052       2162       2163       2174       2173  
      2042       2043       2054       2053       2163       2164       2175       2174  
      2043       2044       2055       2054       2164       2165       2176       2175  
      2044       2045       2056       2055       2165       2166       2177       2176  
      2045       2046       2057       2056       2166       2167       2178       2177  
      2058       2059       2070       2069       2179       2180       2191       2190  
      2059       2060       2071       2070       2180       2181       2192       2191  
      2060       2061       2072       2071       2181       2182       2193       2192  
      2061       2062       2073       2072       2182       2183       2194       2193  
      2062       2063       2074       2073       2183       2184       2195       2194  
      2063       2064       2075       2074       2184       2185       2196       2195  
      2064       2065       2076       2075       2185       2186       2197       2196  
      2065       2066       2077       2076       2186       2187       2198       2197  
      2066       2067       2078       2077       2187       2188       2199       2198  
      2067       2068       2079       2078       2188       2189       2200       2199  
      2069       2070       2081       2080       2190       2191       2202       2201  
      2070       2071       2082       2081       2191       2192       2203       2202  
      2071       2072       2083       2082       2192       2193       2204       2203  
      2072       2073       2084       2083       2193       2194       2205       2204  
      2073       2074       2085       2084       2194       2195       2206       2205  
      2074       2075       2086       2085       2195       2196       2207       2206  
      2075       2076       2087       2086       2196       2197       2208       2207  
      2076       2077       2088       2087       2197       2198       2209       2208  
      2077       2078       2089       2088       2198       2199       2210       2209  
      2078       2079       2090       2089       2199       2200       2211       2210  
      2080       2081       2092       2091       2201       2202       2213       2212  
      2081       2082       2093       2092       2202       2203       2214       2213  
      2082       2083       2094       2093       2203       2204       2215       2214  
      2083       2084       2095       2094       2204       2205       2216       2215  
      2084       2085       2096       2095       2205       2206       2217       2216  
      2085       2086       2097       2096       2206       2207       2218       2217  
      2086       2087       2098       2097       2207       2208       2219       2218  
      2087       2088       2099       2098       2208       2209       2220       2219  
      2088       2089       2100       2099       2209       2210       2221       2220  
      2089       2090       2101       2100       2210       2211       2222       2221  
      2091       2092       2103       2102       2212       2213       2224       2223  
      2092       2093       2104       2103       2213       2214       2225       2224  
      2093       2094       2105       2104       2214       2215       2226       2225  
      2094       2095       2106       2105       2215       2216       2227       2226  
      2095       2096       2107       2106       2216       2217       2228       2227  
      2096       2097       2108       2107       2217       2218       2229       2228  
      2097       2098       2109       2108       2218       2219       2230       2229  
      2098       2099       2110       2109       2219       2220       2231       2230  
      2099       2100       2111       2110       2220       2221       2232       2231  
      2100       2101       2112       2111       2221       2222       2233       2232  
      2102       2103       2114       2113       2223       2224       2235       2234  
      2103       2104       2115       2114       2224       2225       2236       2235  
      2104       2105       2116       2115       2225       2226       2237       2236  
      2105       2106       2117       2116       2226       2227       2238       2237  
      2106       2107       2118       2117       2227       2228       2239       2238  
      2107       2108       2119       2118       2228       2229       2240       2239  
      2108       2109       2120       2119       2229       2230       2241       2240  
      2109       2110       2121       2120       2230       2231       2242       2241  
      2110       2111       2122       2121       2231       2232       2243       2242  
      2111       2112       2123       2122       2232       2233       2244       2243  
      2113       2114       2125       2124       2234       2235       2246       2245  
      2114       2115       2126       2125       2235       2236       2247       2246  
      2115       2116       2127       2126       2236       2237       2248       2247  
      2116       2117       2128       2127       2237       2238       2249       2248  
      2117       2118       2129       2128       2238       2239       2250       2249  
      2118       2119       2130       2129       2239       2240       2251       2250  
      2119       2120       2131       2130       2240       2241       2252       2251  
      2120       2121       2132       2131       2241       2242       2253       2252  
      2121       2122       2133       2132       2242       2243       2254       2253  
      2122       2123       2134       2133       2243       2244       2255       2254  
      2124       2125       2136       2135       2245       2246       2257       2256  
      2125       2126       2137       2136       2246       2247       2258       2257  
      2126       2127       2138       2137       2247       2248       2259       2258  
      2127       2128       2139       2138       2248       2249       2260       2259  
      2128       2129       2140       2139       2249       2250       2261       2260  
      2129       2130       2141       2140       2250       2251       2262       2261  
      2130       2131       2142       2141       2251       2252       2263       2262  
      2131       2132       2143       2142       2252       2253       2264       2263  
      2132       2133       2144       2143       2253       2254       2265       2264  
      2133       2134       2145       2144       2254       2255       2266       2265  
      2135       2136       2147       2146       2256       2257       2268       2267  
      2136       2137       2148       2147       2257       2258       2269       2268  
      2137       2138       2149       2148       2258       2259       2270       2269  
      2138       2139       2150       2149       2259       2260       2271       2270  
      2139       2140       2151       2150       2260       2261       2272       2271  
      2140       2141       2152       2151       2261       2262       2273       2272  
      2141       2142       2153       2152       2262       2263       2274       2273  
      2142       2143       2154       2153       2263       2264       2275       2274  
      2143       2144       2155       2154       2264       2265       2276       2275  
      2144       2145       2156       2155       2265       2266       2277       2276  
      2146       2147       2158       2157       2267       2268       2279       2278  
      2147       2148       2159       2158       2268       2269       2280       2279  
      2148       2149       2160       2159       2269       2270       2281       2280  
      2149       2150       2161       2160       2270       2271       2282       2281  
      2150       2151       2162       2161       2271       2272       2283       2282  
      2151       2152       2163       2162       2272       2273       2284       2283  
      2152       2153       2164       2163       2273       2274       2285       2284  
      2153       2154       2165       2164       2274       2275       2286       2285  
      2154       2155       2166       2165       2275       2276       2287       2286  
      2155       2156       2167       2166       2276       2277       2288       2287  
      2157       2158       2169       2168       2278       2279       2290       2289  
      2158       2159       2170       2169       2279       2280       2291       2290  
      2159       2160       2171       2170       2280       2281       2292       2291  
      2160       2161       2172       2171       2281       2282       2293       2292  
      2161       2162       2173       2172       2282       2283       2294       2293  
      2162       2163       2174       2173       2283       2284       2295       2294  
      2163       2164       2175       2174       2284       2285       2296       2295  
      2164       2165       2176       2175       2285       2286       2297       2296  
      2165       2166       2177       2176       2286       2287       2298       2297  
      2166       2167       2178       2177       2287       2288       2299       2298  
      2179       2180       2191       2190       2300       2301       2312       2311  
      2180       2181       2192       2191       2301       2302       2313       2312  
      2181       2182       2193       2192       2302       2303       2314       2313  
      2182       2183       2194       2193       2303       2304       2315       2314  
      2183       2184       2195       2194       2304       2305       2316       2315  
      2184       2185       2196       2195       2305       2306       2317       2316  
      2185       2186       2197       2196       2306       2307       2318       2317  
      2186       2187       2198       2197       2307       2308       2319       2318  
      2187       2188       2199       2198       2308       2309       2320       2319  
      2188       2189       2200       2199       2309       2310       2321       2320  
      2190       2191       2202       2201       2311       2312       2323       2322  
      2191       2192       2203       2202       2312       2313       2324       2323  
      2192       2193       2204       2203       2313       2314       2325       2324  
      2193       2194       2205       2204       2314       2315       2326       2325  
      2194       2195       2206       2205       2315       2316       2327       2326  
      2195       2196       2207       2206       2316       2317       2328       2327  
      2196       2197       2208       2207       2317       2318       2329       2328  
      2197       2198       2209       2208       2318       2319       2330       2329  
      2198       2199       2210       2209       2319       2320       2331       2330  
      2199       2200       2211       2210       2320       2321       2332       2331  
      2201       2202       2213       2212       2322       2323       2334       2333  
      2202       2203       2214       2213       2323       2324       2335       2334  
      2203       2204       2215       2214       2324       2325       2336       2335  
      2204       2205       2216       2215       2325       2326       2337       2336  
      2205       2206       2217       2216       2326       2327       2338       2337  
      2206       2207       2218       2217       2327       2328       2339       2338  
      2207       2208       2219       2218       2328       2329       2340       2339  
      2208       2209       2220       2219       2329       2330       2341       2340  
      2209       2210       2221       2220       2330       2331       2342       2341  
      2210       2211       2222       2221       2331       2332       2343       2342  
      2212       2213       2224       2223       2333       2334       2345       2344  
      2213       2214       2225       2224       2334       2335       2346       2345  
      2214       2215       2226       2225       2335       2336       2347       2346  
      2215       2216       2227       2226       2336       2337       2348       2347  
      2216       2217       2228       2227       2337       2338       2349       2348  
      2217       2218       2229       2228       2338       2339       2350       2349  
      2218       2219       2230       2229       2339       2340       2351       2350  
      2219       2220       2231       2230       2340       2341       2352       2351  
      2220       2221       2232       2231       2341       2342       2353       2352  
      2221       2222       2233       2232       2342       2343       2354       2353  
      2223       2224       2235       2234       2344       2345       2356       2355  
      2224       2225       2236       2235       2345       2346       2357       2356  
      2225       2226       2237       2236       2346       2347       2358       2357  
      2226       2227       2238       2237       2347       2348       2359       2358  
      2227       2228       2239       2238       2348       2349       2360       2359  
      2228       2229       2240       2239       2349       2350       2361       2360  
      2229       2230       2241       2240       2350       2351       2362       2361  
      2230       2231       2242       2241       2351       2352       2363       2362  
      2231       2232       2243       2242       2352       2353       2364       2363  
      2232       2233       2244       2243       2353       2354       2365       2364  
      2234       2235       2246       2245       2355       2356       2367       2366  
      2235       2236       2247       2246       2356       2357       2368       2367  
      2236       2237       2248       2247       2357       2358       2369       2368  
      2237       2238       2249       2248       2358       2359       2370       2369  
      2238       2239       2250       2249       2359       2360       2371       2370  
      2239       2240       2251       2250       2360       2361       2372       2371  
      2240       2241       2252       2251       2361       2362       2373       2372  
      2241       2242       2253       2252       2362       2363       2374       2373  
      2242       2243       2254       2253       2363       2364       2375       2374  
      2243       2244       2255       2254       2364       2365       2376       2375  
      2245       2246       2257       2256       2366       2367       2378       2377  
      2246       2247       2258       2257       2367       2368       2379       2378  
      2247       2248       2259       2258       2368       2369       2380       2379  
      2248       2249       2260       2259       2369       2370       2381       2380  
      2249       2250       2261       2260       2370       2371       2382       2381  
      2250       2251       2262       2261       2371       2372       2383       2382  
      2251       2252       2263       2262       2372       2373       2384       2383  
      2252       2253       2264       2263       2373       2374       2385       2384  
      2253       2254       2265       2264       2374       2375       2386       2385  
      2254       2255       2266       2265       2375       2376       2387       2386  
      2256       2257       2268       2267       2377       2378       2389       2388  
      2257       2258       2269       2268       2378       2379       2390       2389  
      2258       2259       2270       2269       2379       2380       2391       2390  
      2259       2260       2271       2270       2380       2381       2392       2391  
      2260       2261       2272       2271       2381       2382       2393       2392  
      2261       2262       2273       2272       2382       2383       2394       2393  
      2262       2263       2274       2273       2383       2384       2395       2394  
      2263       2264       2275       2274       2384       2385       2396       2395  
      2264       2265       2276       2275       2385       2386       2397       2396  
      2265       2266       2277       2276       2386       2387       2398       2397  
      2267       2268       2279       2278       2388       2389       2400       2399  
      2268       2269       2280       2279       2389       2390       2401       2400  
      2269       2270       2281       2280       2390       2391       2402       2401  
      2270       2271       2282       2281       2391       2392       2403       2402  
      2271       2272       2283       2282       2392       2393       2404       2403  
      2272       2273       2284       2283       2393       2394       2405       2404  
      2273       2274       2285       2284       2394       2395       2406       2405  
      2274       2275       2286       2285       2395       2396       2407       2406  
      2275       2276       2287       2286       2396       2397       2408       2407  
      2276       2277       2288       2287       2397       2398       2409       2408  
      2278       2279       2290       2289       2399       2400       2411       2410  
      2279       2280       2291       2290       2400       2401       2412       2411  
      2280       2281       2292       2291       2401       2402       2413       2412  
      2281       2282       2293       2292       2402       2403       2414       2413  
      2282       2283       2294       2293       2403       2404       2415       2414  
      2283       2284       2295       2294       2404       2405       2416       2415  
      2284       2285       2296       2295       2405       2406       2417       2416  
      2285       2286       2297       2296       2406       2407       2418       2417  
      2286       2287       2298       2297       2407       2408       2419       2418  
      2287       2288       2299       2298       2408       2409       2420       2419  
      2300       2301       2312       2311       2421       2422       2433       2432  
      2301       2302       2313       2312       2422       2423       2434       2433  
      2302       2303       2314       2313       2423       2424       2435       2434  
      2303       2304       2315       2314       2424       2425       2436       2435  
      2304       2305       2316       2315       2425       2426       2437       2436  
      2305       2306       2317       2316       2426       2427       2438       2437  
      2306       2307       2318       2317       2427       2428       2439       2438  
      2307       2308       2319       2318       2428       2429       2440       2439  
      2308       2309       2320       2319       2429       2430       2441       2440  
      2309       2310       2321       2320       2430       2431       2442       2441  
      2311       2312       2323       2322       2432       2433       2444       2443  
      2312       2313       2324       2323       2433       2434       2445       2444  
      2313       2314       2325       2324       2434       2435       2446       2445  
      2314       2315       2326       2325       2435       2436       2447       2446  
      2315       2316       2327       2326       2436       2437       2448       2447  
      2316       2317       2328       2327       2437       2438       2449       2448  
      2317       2318       2329       2328       2438       2439       2450       2449  
      2318       2319       2330       2329       2439       2440       2451       2450  
      2319       2320       2331       2330       2440       2441       2452       2451  
      2320       2321       2332       2331       2441       2442       2453       2452  
      2322       2323       2334       2333       2443       2444       2455       2454  
      2323       2324       2335       2334       2444       2445       2456       2455  
      2324       2325       2336       2335       2445       2446       2457       2456  
      2325       2326       2337       2336       2446       2447       2458       2457  
      2326       2327       2338       2337       2447       2448       2459       2458  
      2327       2328       2339       2338       2448       2449       2460       2459  
      2328       2329       2340       2339       2449       2450       2461       2460  
      2329       2330       2341       2340       2450       2451       2462       2461  
      2330       2331       2342       2341       2451       2452       2463       2462  
      2331       2332       2343       2342       2452       2453       2464       2463  
      2333       2334       2345       2344       2454       2455       2466       2465  
      2334       2335       2346       2345       2455       2456       2467       2466  
      2335       2336       2347       2346       2456       2457       2468       2467  
      2336       2337       2348       2347       2457       2458       2469       2468  
      2337       2338       2349       2348       2458       2459       2470       2469  
      2338       2339       2350       2349       2459       2460       2471       2470  
      2339       2340       2351       2350       2460       2461       2472       2471  
      2340       2341       2352       2351       2461       2462       2473       2472  
      2341       2342       2353       2352       2462       2463       2474       2473  
      2342       2343       2354       2353       2463       2464       2475       2474  
      2344       2345       2356       2355       2465       2466       2477       2476  
      2345       2346       2357       2356       2466       2467       2478       2477  
      2346       2347       2358       2357       2467       2468       2479       2478  
      2347       2348       2359       2358       2468       2469       2480       2479  
      2348       2349       2360       2359       2469       2470       2481       2480  
      2349       2350       2361       2360       2470       2471       2482       2481  
      2350       2351       2362       2361       2471       2472       2483       2482  
      2351       2352       2363       2362       2472       2473       2484       2483  
      2352       2353       2364       2363       2473       2474       2485       2484  
      2353       2354       2365       2364       2474       2475       2486       2485  
      2355       2356       2367       2366       2476       2477       2488       2487  
      2356       2357       2368       2367       2477       2478       2489       2488  
      2357       2358       2369       2368       2478       2479       2490       2489  
      2358       2359       2370       2369       2479       2480       2491       2490  
      2359       2360       2371       2370       2480       2481       2492       2491  
      2360       2361       2372       2371       2481       2482       2493       2492  
      2361       2362       2373       2372       2482       2483       2494       2493  
      2362       2363       2374       2373       2483       2484       2495       2494  
      2363       2364       2375       2374       2484       2485       2496       2495  
      2364       2365       2376       2375       2485       2486       2497       2496  
      2366       2367       2378       2377       2487       2488       2499       2498  
      2367       2368       2379       2378       2488       2489       2500       2499  
      2368       2369       2380       2379       2489       2490       2501       2500  
      2369       2370       2381       2380       2490       2491       2502       2501  
      2370       2371       2382       2381       2491       2492       2503       2502  
      2371       2372       2383       2382       2492       2493       2504       2503  
      2372       2373       2384       2383       2493       2494       2505       2504  
      2373       2374       2385       2384       2494       2495       2506       2505  
      2374       2375       2386       2385       2495       2496       2507       2506  
      2375       2376       2387       2386       2496       2497       2508       2507  
      2377       2378       2389       2388       2498       2499       2510       2509  
      2378       2379       2390       2389       2499       2500       2511       2510  
      2379       2380       2391       2390       2500       2501       2512       2511  
      2380       2381       2392       2391       2501       2502       2513       2512  
      2381       2382       2393       2392       2502       2503       2514       2513  
      2382       2383       2394       2393       2503       2504       2515       2514  
      2383       2384       2395       2394       2504       2505       2516       2515  
      2384       2385       2396       2395       2505       2506       2517       2516  
      2385       2386       2397       2396       2506       2507       2518       2517  
      2386       2387       2398       2397       2507       2508       2519       2518  
      2388       2389       2400       2399       2509       2510       2521       2520  
      2389       2390       2401       2400       2510       2511       2522       2521  
      2390       2391       2402       2401       2511       2512       2523       2522  
      2391       2392       2403       2402       2512       2513       2524       2523  
      2392       2393       2404       2403       2513       2514       2525       2524  
      2393       2394       2405       2404       2514       2515       2526       2525  
      2394       2395       2406       2405       2515       2516       2527       2526  
      2395       2396       2407       2406       2516       2517       2528       2527  
      2396       2397       2408       2407       2517       2518       2529       2528  
      2397       2398       2409       2408       2518       2519       2530       2529  
      2399       2400       2411       2410       2520       2521       2532       2531  
      2400       2401       2412       2411       2521       2522       2533       2532  
      2401       2402       2413       2412       2522       2523       2534       2533  
      2402       2403       2414       2413       2523       2524       2535       2534  
      2403       2404       2415       2414       2524       2525       2536       2535  
      2404       2405       2416       2415       2525       2526       2537       2536  
      2405       2406       2417       2416       2526       2527       2538       2537  
      2406       2407       2418       2417       2527       2528       2539       2538  
      2407       2408       2419       2418       2528       2529       2540       2539  
      2408       2409       2420       2419       2529       2530       2541       2540  
      2421       2422       2433       2432       2542       2543       2554       2553  
      2422       2423       2434       2433       2543       2544       2555       2554  
      2423       2424       2435       2434       2544       2545       2556       2555  
      2424       2425       2436       2435       2545       2546       2557       2556  
      2425       2426       2437       2436       2546       2547       2558       2557  
      2426       2427       2438       2437       2547       2548       2559       2558  
      2427       2428       2439       2438       2548       2549       2560       2559  
      2428       2429       2440       2439       2549       2550       2561       2560  
      2429       2430       2441       2440       2550       2551       2562       2561  
      2430       2431       2442       2441       2551       2552       2563       2562  
      2432       2433       2444       2443       2553       2554       2565       2564  
      2433       2434       2445       2444       2554       2555       2566       2565  
      2434       2435       2446       2445       2555       2556       2567       2566  
      2435       2436       2447       2446       2556       2557       2568       2567  
      2436       2437       2448       2447       2557       2558       2569       2568  
      2437       2438       2449       2448       2558       2559       2570       2569  
      2438       2439       2450       2449       2559       2560       2571       2570  
      2439       2440       2451       2450       2560       2561       2572       2571  
      2440       2441       2452       2451       2561       2562       2573       2572  
      2441       2442       2453       2452       2562       2563       2574       2573  
      2443       2444       2455       2454       2564       2565       2576       2575  
      2444       2445       2456       2455       2565       2566       2577       2576  
      2445       2446       2457       2456       2566       2567       2578       2577  
      2446       2447       2458       2457       2567       2568       2579       2578  
      2447       2448       2459       2458       2568       2569       2580       2579  
      2448       2449       2460       2459       2569       2570       2581       2580  
      2449       2450       2461       2460       2570       2571       2582       2581  
      2450       2451       2462       2461       2571       2572       2583       2582  
      2451       2452       2463       2462       2572       2573       2584       2583  
      2452       2453       2464       2463       2573       2574       2585       2584  
      2454       2455       2466       2465       2575       2576       2587       2586  
      2455       2456       2467       2466       2576       2577       2588       2587  
      2456       2457       2468       2467       2577       2578       2589       2588  
      2457       2458       2469       2468       2578       2579       2590       2589  
      2458       2459       2470       2469       2579       2580       2591       2590  
      2459       2460       2471       2470       2580       2581       2592       2591  
      2460       2461       2472       2471       2581       2582       2593       2592  
      2461       2462       2473       2472       2582       2583       2594       2593  
      2462       2463       2474       2473       2583       2584       2595       2594  
      2463       2464       2475       2474       2584       2585       2596       2595  
      2465       2466       2477       2476       2586       2587       2598       2597  
      2466       2467       2478       2477       2587       2588       2599       2598  
      2467       2468       2479       2478       2588       2589       2600       2599  
      2468       2469       2480       2479       2589       2590       2601       2600  
      2469       2470       2481       2480       2590       2591       2602       2601  
      2470       2471       2482       2481       2591       2592       2603       2602  
      2471       2472       2483       2482       2592       2593       2604       2603  
      2472       2473       2484       2483       2593       2594       2605       2604  
      2473       2474       2485       2484       2594       2595       2606       2605  
      2474       2475       2486       2485       2595       2596       2607       2606  
      2476       2477       2488       2487       2597       2598       2609       2608  
      2477       2478       2489       2488       2598       2599       2610       2609  
      2478       2479       2490       2489       2599       2600       2611       2610  
      2479       2480       2491       2490       2600       2601       2612       2611  
      2480       2481       2492       2491       2601       2602       2613       2612  
      2481       2482       2493       2492       2602       2603       2614       2613  
      2482       2483       2494       2493       2603       2604       2615       2614  
      2483       2484       2495       2494       2604       2605       2616       2615  
      2484       2485       2496       2495       2605       2606       2617       2616  
      2485       2486       2497       2496       2606       2607       2618       2617  
      2487       2488       2499       2498       2608       2609       2620       2619  
      2488       2489       2500       2499       2609       2610       2621       2620  
      2489       2490       2501       2500       2610       2611       2622       2621  
      2490       2491       2502       2501       2611       2612       2623       2622  
      2491       2492       2503       2502       2612       2613       2624       2623  
      2492       2493       2504       2503       2613       2614       2625       2624  
      2493       2494       2505       2504       2614       2615       2626       2625  
      2494       2495       2506       2505       2615       2616       2627       2626  
      2495       2496       2507       2506       2616       2617       2628       2627  
      2496       2497       2508       2507       2617       2618       2629       2628  
      2498       2499       2510       2509       2619       2620       2631       2630  
      2499       2500       2511       2510       2620       2621       2632       2631  
      2500       2501       2512       2511       2621       2622       2633       2632  
      2501       2502       2513       2512       2622       2623       2634       2633  
      2502       2503       2514       2513       2623       2624       2635       2634  
      2503       2504       2515       2514       2624       2625       2636       2635  
      2504       2505       2516       2515       2625       2626       2637       2636  
      2505       2506       2517       2516       2626       2627       2638       2637  
      2506       2507       2518       2517       2627       2628       2639       2638  
      2507       2508       2519       2518       2628       2629       2640       2639  
      2509       2510       2521       2520       2630       2631       2642       2641  
      2510       2511       2522       2521       2631       2632       2643       2642  
      2511       2512       2523       2522       2632       2633       2644       2643  
      2512       2513       2524       2523       2633       2634       2645       2644  
      2513       2514       2525       2524       2634       2635       2646       2645  
      2514       2515       2526       2525       2635       2636       2647       2646  
      2515       2516       2527       2526       2636       2637       2648       2647  
      2516       2517       2528       2527       2637       2638       2649       2648  
      2517       2518       2529       2528       2638       2639       2650       2649  
      2518       2519       2530       2529       2639       2640       2651       2650  
      2520       2521       2532       2531       2641       2642       2653       2652  
      2521       2522       2533       2532       2642       2643       2654       2653  
      2522       2523       2534       2533       2643       2644       2655       2654  
      2523       2524       2535       2534       2644       2645       2656       2655  
      2524       2525       2536       2535       2645       2646       2657       2656  
      2525       2526       2537       2536       2646       2647       2658       2657  
      2526       2527       2538       2537       2647       2648       2659       2658  
      2527       2528       2539       2538       2648       2649       2660       2659  
      2528       2529       2540       2539       2649       2650       2661       2660  
      2529       2530       2541       2540       2650       2651       2662       2661  
      2542       2543       2554       2553       2663       2664       2675       2674  
      2543       2544       2555       2554       2664       2665       2676       2675  
      2544       2545       2556       2555       2665       2666       2677       2676  
      2545       2546       2557       2556       2666       2667       2678       2677  
      2546       2547       2558       2557       2667       2668       2679       2678  
      2547       2548       2559       2558       2668       2669       2680       2679  
      2548       2549       2560       2559       2669       2670       2681       2680  
      2549       2550       2561       2560       2670       2671       2682       2681  
      2550       2551       2562       2561       2671       2672       2683       2682  
      2551       2552       2563       2562       2672       2673       2684       2683  
      2553       2554       2565       2564       2674       2675       2686       2685  
      2554       2555       2566       2565       2675       2676       2687       2686  
      2555       2556       2567       2566       2676       2677       2688       2687  
      2556       2557       2568       2567       2677       2678       2689       2688  
      2557       2558       2569       2568       2678       2679       2690       2689  
      2558       2559       2570       2569       2679       2680       2691       2690  
      2559       2560       2571       2570       2680       2681       2692       2691  
      2560       2561       2572       2571       2681       2682       2693       2692  
      2561       2562       2573       2572       2682       2683       2694       2693  
      2562       2563       2574       2573       2683       2684       2695       2694  
      2564       2565       2576       2575       2685       2686       2697       2696  
      2565       2566       2577       2576       2686       2687       2698       2697  
      2566       2567       2578       2577       2687       2688       2699       2698  
      2567       2568       2579       2578       2688       2689       2700       2699  
      2568       2569       2580       2579       2689       2690       2701       2700  
      2569       2570       2581       2580       2690       2691       2702       2701  
      2570       2571       2582       2581       2691       2692       2703       2702  
      2571       2572       2583       2582       2692       2693       2704       2703  
      2572       2573       2584       2583       2693       2694       2705       2704  
      2573       2574       2585       2584       2694       2695       2706       2705  
      2575       2576       2587       2586       2696       2697       2708       2707  
      2576       2577       2588       2587       2697       2698       2709       2708  
      2577       2578       2589       2588       2698       2699       2710       2709  
      2578       2579       2590       2589       2699       2700       2711       2710  
      2579       2580       2591       2590       2700       2701       2712       2711  
      2580       2581       2592       2591       2701       2702       2713       2712  
      2581       2582       2593       2592       2702       2703       2714       2713  
      2582       2583       2594       2593       2703       2704       2715       2714  
      2583       2584       2595       2594       2704       2705       2716       2715  
      2584       2585       2596       2595       2705       2706       2717       2716  
      2586       2587       2598       2597       2707       2708       2719       2718  
      2587       2588       2599       2598       2708       2709       2720       2719  
      2588       2589       2600       2599       2709       2710       2721       2720  
      2589       2590       2601       2600       2710       2711       2722       2721  
      2590       2591       2602       2601       2711       2712       2723       2722  
      2591       2592       2603       2602       2712       2713       2724       2723  
      2592       2593       2604       2603       2713       2714       2725       2724  
      2593       2594       2605       2604       2714       2715       2726       2725  
      2594       2595       2606       2605       2715       2716       2727       2726  
      2595       2596       2607       2606       2716       2717       2728       2727  
      2597       2598       2609       2608       2718       2719       2730       2729  
      2598       2599       2610       2609       2719       2720       2731       2730  
      2599       2600       2611       2610       2720       2721       2732       2731  
      2600       2601       2612       2611       2721       2722       2733       2732  
      2601       2602       2613       2612       2722       2723       2734       2733  
      2602       2603       2614       2613       2723       2724       2735       2734  
      2603       2604       2615       2614       2724       2725       2736       2735  
      2604       2605       2616       2615       2725       2726       2737       2736  
      2605       2606       2617       2616       2726       2727       2738       2737  
      2606       2607       2618       2617       2727       2728       2739       2738  
      2608       2609       2620       2619       2729       2730       2741       2740  
      2609       2610       2621       2620       2730       2731       2742       2741  
      2610       2611       2622       2621       2731       2732       2743       2742  
      2611       2612       2623       2622       2732       2733       2744       2743  
      2612       2613       2624       2623       2733       2734       2745       2744  
      2613       2614       2625       2624       2734       2735       2746       2745  
      2614       2615       2626       2625       2735       2736       2747       2746  
      2615       2616       2627       2626       2736       2737       2748       2747  
      2616       2617       2628       2627       2737       2738       2749       2748  
      2617       2618       2629       2628       2738       2739       2750       2749  
      2619       2620       2631       2630       2740       2741       2752       2751  
      2620       2621       2632       2631       2741       2742       2753       2752  
      2621       2622       2633       2632       2742       2743       2754       2753  
      2622       2623       2634       2633       2743       2744       2755       2754  
      2623       2624       2635       2634       2744       2745       2756       2755  
      2624       2625       2636       2635       2745       2746       2757       2756  
      2625       2626       2637       2636       2746       2747       2758       2757  
      2626       2627       2638       2637       2747       2748       2759       2758  
      2627       2628       2639       2638       2748       2749       2760       2759  
      2628       2629       2640       2639       2749       2750       2761       2760  
      2630       2631       2642       2641       2751       2752       2763       2762  
      2631       2632       2643       2642       2752       2753       2764       2763  
      2632       2633       2644       2643       2753       2754       2765       2764  
      2633       2634       2645       2644       2754       2755       2766       2765  
      2634       2635       2646       2645       2755       2756       2767       2766  
      2635       2636       2647       2646       2756       2757       2768       2767  
      2636       2637       2648       2647       2757       2758       2769       2768  
      2637       2638       2649       2648       2758       2759       2770       2769  
      2638       2639       2650       2649       2759       2760       2771       2770  
      2639       2640       2651       2650       2760       2761       2772       2771  
      2641       2642       2653       2652       2762       2763       2774       2773  
      2642       2643       2654       2653       2763       2764       2775       2774  
      2643       2644       2655       2654       2764       2765       2776       2775  
      2644       2645       2656       2655       2765       2766       2777       2776  
      2645       2646       2657       2656       2766       2767       2778       2777  
      2646       2647       2658       2657       2767       2768       2779       2778  
      2647       2648       2659       2658       2768       2769       2780       2779  
      2648       2649       2660       2659       2769       2770       2781       2780  
      2649       2650       2661       2660       2770       2771       2782       2781  
      2650       2651       2662       2661       2771       2772       2783       2782  
      2663       2664       2675       2674       2784       2785       2796       2795  
      2664       2665       2676       2675       2785       2786       2797       2796  
      2665       2666       2677       2676       2786       2787       2798       2797  
      2666       2667       2678       2677       2787       2788       2799       2798  
      2667       2668       2679       2678       2788       2789       2800       2799  
      2668       2669       2680       2679       2789       2790       2801       2800  
      2669       2670       2681       2680       2790       2791       2802       2801  
      2670       2671       2682       2681       2791       2792       2803       2802  
      2671       2672       2683       2682       2792       2793       2804       2803  
      2672       2673       2684       2683       2793       2794       2805       2804  
      2674       2675       2686       2685       2795       2796       2807       2806  
      2675       2676       2687       2686       2796       2797       2808       2807  
      2676       2677       2688       2687       2797       2798       2809       2808  
      2677       2678       2689       2688       2798       2799       2810       2809  
      2678       2679       2690       2689       2799       2800       2811       2810  
      2679       2680       2691       2690       2800       2801       2812       2811  
      2680       2681       2692       2691       2801       2802       2813       2812  
      2681       2682       2693       2692       2802       2803       2814       2813  
      2682       2683       2694       2693       2803       2804       2815       2814  
      2683       2684       2695       2694       2804       2805       2816       2815  
      2685       2686       2697       2696       2806       2807       2818       2817  
      2686       2687       2698       2697       2807       2808       2819       2818  
      2687       2688       2699       2698       2808       2809       2820       2819  
      2688       2689       2700       2699       2809       2810       2821       2820  
      2689       2690       2701       2700       2810       2811       2822       2821  
      2690       2691       2702       2701       2811       2812       2823       2822  
      2691       2692       2703       2702       2812       2813       2824       2823  
      2692       2693       2704       2703       2813       2814       2825       2824  
      2693       2694       2705       2704       2814       2815       2826       2825  
      2694       2695       2706       2705       2815       2816       2827       2826  
      2696       2697       2708       2707       2817       2818       2829       2828  
      2697       2698       2709       2708       2818       2819       2830       2829  
      2698       2699       2710       2709       2819       2820       2831       2830  
      2699       2700       2711       2710       2820       2821       2832       2831  
      2700       2701       2712       2711       2821       2822       2833       2832  
      2701       2702       2713       2712       2822       2823       2834       2833  
      2702       2703       2714       2713       2823       2824       2835       2834  
      2703       2704       2715       2714       2824       2825       2836       2835  
      2704       2705       2716       2715       2825       2826       2837       2836  
      2705       2706       2717       2716       2826       2827       2838       2837  
      2707       2708       2719       2718       2828       2829       2840       2839  
      2708       2709       2720       2719       2829       2830       2841       2840  
      2709       2710       2721       2720       2830       2831       2842       2841  
      2710       2711       2722       2721       2831       2832       2843       2842  
      2711       2712       2723       2722       2832       2833       2844       2843  
      2712       2713       2724       2723       2833       2834       2845       2844  
      2713       2714       2725       2724       2834       2835       2846       2845  
      2714       2715       2726       2725       2835       2836       2847       2846  
      2715       2716       2727       2726       2836       2837       2848       2847  
      2716       2717       2728       2727       2837       2838       2849       2848  
      2718       2719       2730       2729       2839       2840       2851       2850  
      2719       2720       2731       2730       2840       2841       2852       2851  
      2720       2721       2732       2731       2841       2842       2853       2852  
      2721       2722       2733       2732       2842       2843       2854       2853  
      2722       2723       2734       2733       2843       2844       2855       2854  
      2723       2724       2735       2734       2844       2845       2856       2855  
      2724       2725       2736       2735       2845       2846       2857       2856  
      2725       2726       2737       2736       2846       2847       2858       2857  
      2726       2727       2738       2737       2847       2848       2859       2858  
      2727       2728       2739       2738       2848       2849       2860       2859  
      2729       2730       2741       2740       2850       2851       2862       2861  
      2730       2731       2742       2741       2851       2852       2863       2862  
      2731       2732       2743       2742       2852       2853       2864       2863  
      2732       2733       2744       2743       2853       2854       2865       2864  
      2733       2734       2745       2744       2854       2855       2866       2865  
      2734       2735       2746       2745       2855       2856       2867       2866  
      2735       2736       2747       2746       2856       2857       2868       2867  
      2736       2737       2748       2747       2857       2858       2869       2868  
      2737       2738       2749       2748       2858       2859       2870       2869  
      2738       2739       2750       2749       2859       2860       2871       2870  
      2740       2741       2752       2751       2861       2862       2873       2872  
      2741       2742       2753       2752       2862       2863       2874       2873  
      2742       2743       2754       2753       2863       2864       2875       2874  
      2743       2744       2755       2754       2864       2865       2876       2875  
      2744       2745       2756       2755       2865       2866       2877       2876  
      2745       2746       2757       2756       2866       2867       2878       2877  
      2746       2747       2758       2757       2867       2868       2879       2878  
      2747       2748       2759       2758       2868       2869       2880       2879  
      2748       2749       2760       2759       2869       2870       2881       2880  
      2749       2750       2761       2760       2870       2871       2882       2881  
      2751       2752       2763       2762       2872       2873       2884       2883  
      2752       2753       2764       2763       2873       2874       2885       2884  
      2753       2754       2765       2764       2874       2875       2886       2885  
      2754       2755       2766       2765       2875       2876       2887       2886  
      2755       2756       2767       2766       2876       2877       2888       2887  
      2756       2757       2768       2767       2877       2878       2889       2888  
      2757       2758       2769       2768       2878       2879       2890       2889  
      2758       2759       2770       2769       2879       2880       2891       2890  
      2759       2760       2771       2770       2880       2881       2892       2891  
      2760       2761       2772       2771       2881       2882       2893       2892  
      2762       2763       2774       2773       2883       2884       2895       2894  
      2763       2764       2775       2774       2884       2885       2896       2895  
      2764       2765       2776       2775       2885       2886       2897       2896  
      2765       2766       2777       2776       2886       2887       2898       2897  
      2766       2767       2778       2777       2887       2888       2899       2898  
      2767       2768       2779       2778       2888       2889       2900       2899  
      2768       2769       2780       2779       2889       2890       2901       2900  
      2769       2770       2781       2780       2890       2891       2902       2901  
      2770       2771       2782       2781       2891       2892       2903       2902  
      2771       2772       2783       2782       2892       2893       2904       2903  
      2784       2785       2796       2795       2905       2906       2917       2916  
      2785       2786       2797       2796       2906       2907       2918       2917  
      2786       2787       2798       2797       2907       2908       2919       2918  
      2787       2788       2799       2798       2908       2909       2920       2919  
      2788       2789       2800       2799       2909       2910       2921       2920  
      2789       2790       2801       2800       2910       2911       2922       2921  
      2790       2791       2802       2801       2911       2912       2923       2922  
      2791       2792       2803       2802       2912       2913       2924       2923  
      2792       2793       2804       2803       2913       2914       2925       2924  
      2793       2794       2805       2804       2914       2915       2926       2925  
      2795       2796       2807       2806       2916       2917       2928       2927  
      2796       2797       2808       2807       2917       2918       2929       2928  
      2797       2798       2809       2808       2918       2919       2930       2929  
      2798       2799       2810       2809       2919       2920       2931       2930  
      2799       2800       2811       2810       2920       2921       2932       2931  
      2800       2801       2812       2811       2921       2922       2933       2932  
      2801       2802       2813       2812       2922       2923       2934       2933  
      2802       2803       2814       2813       2923       2924       2935       2934  
      2803       2804       2815       2814       2924       2925       2936       2935  
      2804       2805       2816       2815       2925       2926       2937       2936  
      2806       2807       2818       2817       2927       2928       2939       2938  
      2807       2808       2819       2818       2928       2929       2940       2939  
      2808       2809       2820       2819       2929       2930       2941       2940  
      2809       2810       2821       2820       2930       2931       2942       2941  
      2810       2811       2822       2821       2931       2932       2943       2942  
      2811       2812       2823       2822       2932       2933       2944       2943  
      2812       2813       2824       2823       2933       2934       2945       2944  
      2813       2814       2825       2824       2934       2935       2946       2945  
      2814       2815       2826       2825       2935       2936       2947       2946  
      2815       2816       2827       2826       2936       2937       2948       2947  
      2817       2818       2829       2828       2938       2939       2950       2949  
      2818       2819       2830       2829       2939       2940       2951       2950  
      2819       2820       2831       2830       2940       2941       2952       2951  
      2820       2821       2832       2831       2941       2942       2953       2952  
      2821       2822       2833       2832       2942       2943       2954       2953  
      2822       2823       2834       2833       2943       2944       2955       2954  
      2823       2824       2835       2834       2944       2945       2956       2955  
      2824       2825       2836       2835       2945       2946       2957       2956  
      2825       2826       2837       2836       2946       2947       2958       2957  
      2826       2827       2838       2837       2947       2948       2959       2958  
      2828       2829       2840       2839       2949       2950       2961       2960  
      2829       2830       2841       2840       2950       2951       2962       2961  
      2830       2831       2842       2841       2951       2952       2963       2962  
      2831       2832       2843       2842       2952       2953       2964       2963  
      2832       2833       2844       2843       2953       2954       2965       2964  
      2833       2834       2845       2844       2954       2955       2966       2965  
      2834       2835       2846       2845       2955       2956       2967       2966  
      2835       2836       2847       2846       2956       2957       2968       2967  
      2836       2837       2848       2847       2957       2958       2969       2968  
      2837       2838       2849       2848       2958       2959       2970       2969  
      2839       2840       2851       2850       2960       2961       2972       2971  
      2840       2841       2852       2851       2961       2962       2973       2972  
      2841       2842       2853       2852       2962       2963       2974       2973  
      2842       2843       2854       2853       2963       2964       2975       2974  
      2843       2844       2855       2854       2964       2965       2976       2975  
      2844       2845       2856       2855       2965       2966       2977       2976  
      2845       2846       2857       2856       2966       2967       2978       2977  
      2846       2847       2858       2857       2967       2968       2979       2978  
      2847       2848       2859       2858       2968       2969       2980       2979  
      2848       2849       2860       2859       2969       2970       2981       2980  
      2850       2851       2862       2861       2971       2972       2983       2982  
      2851       2852       2863       2862       2972       2973       2984       2983  
      2852       2853       2864       2863       2973       2974       2985       2984  
      2853       2854       2865       2864       2974       2975       2986       2985  
      2854       2855       2866       2865       2975       2976       2987       2986  
      2855       2856       2867       2866       2976       2977       2988       2987  
      2856       2857       2868       2867       2977       2978       2989       2988  
      2857       2858       2869       2868       2978       2979       2990       2989  
      2858       2859       2870       2869       2979       2980       2991       2990  
      2859       2860       2871       2870       2980       2981       2992       2991  
      2861       2862       2873       2872       2982       2983       2994       2993  
      2862       2863       2874       2873       2983       2984       2995       2994  
      2863       2864       2875       2874       2984       2985       2996       2995  
      2864       2865       2876       2875       2985       2986       2997       2996  
      2865       2866       2877       2876       2986       2987       2998       2997  
      2866       2867       2878       2877       2987       2988       2999       2998  
      2867       2868       2879       2878       2988       2989       3000       2999  
      2868       2869       2880       2879       2989       2990       3001       3000  
      2869       2870       2881       2880       2990       2991       3002       3001  
      2870       2871       2882       2881       2991       2992       3003       3002  
      2872       2873       2884       2883       2993       2994       3005       3004  
      2873       2874       2885       2884       2994       2995       3006       3005  
      2874       2875       2886       2885       2995       2996       3007       3006  
      2875       2876       2887       2886       2996       2997       3008       3007  
      2876       2877       2888       2887       2997       2998       3009       3008  
      2877       2878       2889       2888       2998       2999       3010       3009  
      2878       2879       2890       2889       2999       3000       3011       3010  
      2879       2880       2891       2890       3000       3001       3012       3011  
      2880       2881       2892       2891       3001       3002       3013       3012  
      2881       2882       2893       2892       3002       3003       3014       3013  
      2883       2884       2895       2894       3004       3005       3016       3015  
      2884       2885       2896       2895       3005       3006       3017       3016  
      2885       2886       2897       2896       3006       3007       3018       3017  
      2886       2887       2898       2897       3007       3008       3019       3018  
      2887       2888       2899       2898       3008       3009       3020       3019  
      2888       2889       2900       2899       3009       3010       3021       3020  
      2889       2890       2901       2900       3010       3011       3022       3021  
      2890       2891       2902       2901       3011       3012       3023       3022  
      2891       2892       2903       2902       3012       3013       3024       3023  
      2892       2893       2904       2903       3013       3014       3025       3024  
      2905       2906       2917       2916       3026       3027       3038       3037  
      2906       2907       2918       2917       3027       3028       3039       3038  
      2907       2908       2919       2918       3028       3029       3040       3039  
      2908       2909       2920       2919       3029       3030       3041       3040  
      2909       2910       2921       2920       3030       3031       3042       3041  
      2910       2911       2922       2921       3031       3032       3043       3042  
      2911       2912       2923       2922       3032       3033       3044       3043  
      2912       2913       2924       2923       3033       3034       3045       3044  
      2913       2914       2925       2924       3034       3035       3046       3045  
      2914       2915       2926       2925       3035       3036       3047       3046  
      2916       2917       2928       2927       3037       3038       3049       3048  
      2917       2918       2929       2928       3038       3039       3050       3049  
      2918       2919       2930       2929       3039       3040       3051       3050  
      2919       2920       2931       2930       3040       3041       3052       3051  
      2920       2921       2932       2931       3041       3042       3053       3052  
      2921       2922       2933       2932       3042       3043       3054       3053  
      2922       2923       2934       2933       3043       3044       3055       3054  
      2923       2924       2935       2934       3044       3045       3056       3055  
      2924       2925       2936       2935       3045       3046       3057       3056  
      2925       2926       2937       2936       3046       3047       3058       3057  
      2927       2928       2939       2938       3048       3049       3060       3059  
      2928       2929       2940       2939       3049       3050       3061       3060  
      2929       2930       2941       2940       3050       3051       3062       3061  
      2930       2931       2942       2941       3051       3052       3063       3062  
      2931       2932       2943       2942       3052       3053       3064       3063  
      2932       2933       2944       2943       3053       3054       3065       3064  
      2933       2934       2945       2944       3054       3055       3066       3065  
      2934       2935       2946       2945       3055       3056       3067       3066  
      2935       2936       2947       2946       3056       3057       3068       3067  
      2936       2937       2948       2947       3057       3058       3069       3068  
      2938       2939       2950       2949       3059       3060       3071       3070  
      2939       2940       2951       2950       3060       3061       3072       3071  
      2940       2941       2952       2951       3061       3062       3073       3072  
      2941       2942       2953       2952       3062       3063       3074       3073  
      2942       2943       2954       2953       3063       3064       3075       3074  
      2943       2944       2955       2954       3064       3065       3076       3075  
      2944       2945       2956       2955       3065       3066       3077       3076  
      2945       2946       2957       2956       3066       3067       3078       3077  
      2946       2947       2958       2957       3067       3068       3079       3078  
      2947       2948       2959       2958       3068       3069       3080       3079  
      2949       2950       2961       2960       3070       3071       3082       3081  
      2950       2951       2962       2961       3071       3072       3083       3082  
      2951       2952       2963       2962       3072       3073       3084       3083  
      2952       2953       2964       2963       3073       3074       3085       3084  
      2953       2954       2965       2964       3074       3075       3086       3085  
      2954       2955       2966       2965       3075       3076       3087       3086  
      2955       2956       2967       2966       3076       3077       3088       3087  
      2956       2957       2968       2967       3077       3078       3089       3088  
      2957       2958       2969       2968       3078       3079       3090       3089  
      2958       2959       2970       2969       3079       3080       3091       3090  
      2960       2961       2972       2971       3081       3082       3093       3092  
      2961       2962       2973       2972       3082       3083       3094       3093  
      2962       2963       2974       2973       3083       3084       3095       3094  
      2963       2964       2975       2974       3084       3085       3096       3095  
      2964       2965       2976       2975       3085       3086       3097       3096  
      2965       2966       2977       2976       3086       3087       3098       3097  
      2966       2967       2978       2977       3087       3088       3099       3098  
      2967       2968       2979       2978       3088       3089       3100       3099  
      2968       2969       2980       2979       3089       3090       3101       3100  
      2969       2970       2981       2980       3090       3091       3102       3101  
      2971       2972       2983       2982       3092       3093       3104       3103  
      2972       2973       2984       2983       3093       3094       3105       3104  
      2973       2974       2985       2984       3094       3095       3106       3105  
      2974       2975       2986       2985       3095       3096       3107       3106  
      2975       2976       2987       2986       3096       3097       3108       3107  
      2976       2977       2988       2987       3097       3098       3109       3108  
      2977       2978       2989       2988       3098       3099       3110       3109  
      2978       2979       2990       2989       3099       3100       3111       3110  
      2979       2980       2991       2990       3100       3101       3112       3111  
      2980       2981       2992       2991       3101       3102       3113       3112  
      2982       2983       2994       2993       3103       3104       3115       3114  
      2983       2984       2995       2994       3104       3105       3116       3115  
      2984       2985       2996       2995       3105       3106       3117       3116  
      2985       2986       2997       2996       3106       3107       3118       3117  
      2986       2987       2998       2997       3107       3108       3119       3118  
      2987       2988       2999       2998       3108       3109       3120       3119  
      2988       2989       3000       2999       3109       3110       3121       3120  
      2989       2990       3001       3000       3110       3111       3122       3121  
      2990       2991       3002       3001       3111       3112       3123       3122  
      2991       2992       3003       3002       3112       3113       3124       3123  
      2993       2994       3005       3004       3114       3115       3126       3125  
      2994       2995       3006       3005       3115       3116       3127       3126  
      2995       2996       3007       3006       3116       3117       3128       3127  
      2996       2997       3008       3007       3117       3118       3129       3128  
      2997       2998       3009       3008       3118       3119       3130       3129  
      2998       2999       3010       3009       3119       3120       3131       3130  
      2999       3000       3011       3010       3120       3121       3132       3131  
      3000       3001       3012       3011       3121       3122       3133       3132  
      3001       3002       3013       3012       3122       3123       3134       3133  
      3002       3003       3014       3013       3123       3124       3135       3134  
      3004       3005       3016       3015       3125       3126       3137       3136  
      3005       3006       3017       3016       3126       3127       3138       3137  
      3006       3007       3018       3017       3127       3128       3139       3138  
      3007       3008       3019       3018       3128       3129       3140       3139  
      3008       3009       3020       3019       3129       3130       3141       3140  
      3009       3010       3021       3020       3130       3131       3142       3141  
      3010       3011       3022       3021       3131       3132       3143       3142  
      3011       3012       3023       3022       3132       3133       3144       3143  
      3012       3013       3024       3023       3133       3134       3145       3144  
      3013       3014       3025       3024       3134       3135       3146       3145  
      3026       3027       3038       3037       3147       3148       3159       3158  
      3027       3028       3039       3038       3148       3149       3160       3159  
      3028       3029       3040       3039       3149       3150       3161       3160  
      3029       3030       3041       3040       3150       3151       3162       3161  
      3030       3031       3042       3041       3151       3152       3163       3162  
      3031       3032       3043       3042       3152       3153       3164       3163  
      3032       3033       3044       3043       3153       3154       3165       3164  
      3033       3034       3045       3044       3154       3155       3166       3165  
      3034       3035       3046       3045       3155       3156       3167       3166  
      3035       3036       3047       3046       3156       3157       3168       3167  
      3037       3038       3049       3048       3158       3159       3170       3169  
      3038       3039       3050       3049       3159       3160       3171       3170  
      3039       3040       3051       3050       3160       3161       3172       3171  
      3040       3041       3052       3051       3161       3162       3173       3172  
      3041       3042       3053       3052       3162       3163       3174       3173  
      3042       3043       3054       3053       3163       3164       3175       3174  
      3043       3044       3055       3054       3164       3165       3176       3175  
      3044       3045       3056       3055       3165       3166       3177       3176  
      3045       3046       3057       3056       3166       3167       3178       3177  
      3046       3047       3058       3057       3167       3168       3179       3178  
      3048       3049       3060       3059       3169       3170       3181       3180  
      3049       3050       3061       3060       3170       3171       3182       3181  
      3050       3051       3062       3061       3171       3172       3183       3182  
      3051       3052       3063       3062       3172       3173       3184       3183  
      3052       3053       3064       3063       3173       3174       3185       3184  
      3053       3054       3065       3064       3174       3175       3186       3185  
      3054       3055       3066       3065       3175       3176       3187       3186  
      3055       3056       3067       3066       3176       3177       3188       3187  
      3056       3057       3068       3067       3177       3178       3189       3188  
      3057       3058       3069       3068       3178       3179       3190       3189  
      3059       3060       3071       3070       3180       3181       3192       3191  
      3060       3061       3072       3071       3181       3182       3193       3192  
      3061       3062       3073       3072       3182       3183       3194       3193  
      3062       3063       3074       3073       3183       3184       3195       3194  
      3063       3064       3075       3074       3184       3185       3196       3195  
      3064       3065       3076       3075       3185       3186       3197       3196  
      3065       3066       3077       3076       3186       3187       3198       3197  
      3066       3067       3078       3077       3187       3188       3199       3198  
      3067       3068       3079       3078       3188       3189       3200       3199  
      3068       3069       3080       3079       3189       3190       3201       3200  
      3070       3071       3082       3081       3191       3192       3203       3202  
      3071       3072       3083       3082       3192       3193       3204       3203  
      3072       3073       3084       3083       3193       3194       3205       3204  
      3073       3074       3085       3084       3194       3195       3206       3205  
      3074       3075       3086       3085       3195       3196       3207       3206  
      3075       3076       3087       3086       3196       3197       3208       3207  
      3076       3077       3088       3087       3197       3198       3209       3208  
      3077       3078       3089       3088       3198       3199       3210       3209  
      3078       3079       3090       3089       3199       3200       3211       3210  
      3079       3080       3091       3090       3200       3201       3212       3211  
      3081       3082       3093       3092       3202       3203       3214       3213  
      3082       3083       3094       3093       3203       3204       3215       3214  
      3083       3084       3095       3094       3204       3205       3216       3215  
      3084       3085       3096       3095       3205       3206       3217       3216  
      3085       3086       3097       3096       3206       3207       3218       3217  
      3086       3087       3098       3097       3207       3208       3219       3218  
      3087       3088       3099       3098       3208       3209       3220       3219  
      3088       3089       3100       3099       3209       3210       3221       3220  
      3089       3090       3101       3100       3210       3211       3222       3221  
      3090       3091       3102       3101       3211       3212       3223       3222  
      3092       3093       3104       3103       3213       3214       3225       3224  
      3093       3094       3105       3104       3214       3215       3226       3225  
      3094       3095       3106       3105       3215       3216       3227       3226  
      3095       3096       3107       3106       3216       3217       3228       3227  
      3096       3097       3108       3107       3217       3218       3229       3228  
      3097       3098       3109       3108       3218       3219       3230       3229  
      3098       3099       3110       3109       3219       3220       3231       3230  
      3099       3100       3111       3110       3220       3221       3232       3231  
      3100       3101       3112       3111       3221       3222       3233       3232  
      3101       3102       3113       3112       3222       3223       3234       3233  
      3103       3104       3115       3114       3224       3225       3236       3235  
      3104       3105       3116       3115       3225       3226       3237       3236  
      3105       3106       3117       3116       3226       3227       3238       3237  
      3106       3107       3118       3117       3227       3228       3239       3238  
      3107       3108       3119       3118       3228       3229       3240       3239  
      3108       3109       3120       3119       3229       3230       3241       3240  
      3109       3110       3121       3120       3230       3231       3242       3241  
      3110       3111       3122       3121       3231       3232       3243       3242  
      3111       3112       3123       3122       3232       3233       3244       3243  
      3112       3113       3124       3123       3233       3234       3245       3244  
      3114       3115       3126       3125       3235       3236       3247       3246  
      3115       3116       3127       3126       3236       3237       3248       3247  
      3116       3117       3128       3127       3237       3238       3249       3248  
      3117       3118       3129       3128       3238       3239       3250       3249  
      3118       3119       3130       3129       3239       3240       3251       3250  
      3119       3120       3131       3130       3240       3241       3252       3251  
      3120       3121       3132       3131       3241       3242       3253       3252  
      3121       3122       3133       3132       3242       3243       3254       3253  
      3122       3123       3134       3133       3243       3244       3255       3254  
      3123       3124       3135       3134       3244       3245       3256       3255  
      3125       3126       3137       3136       3246       3247       3258       3257  
      3126       3127       3138       3137       3247       3248       3259       3258  
      3127       3128       3139       3138       3248       3249       3260       3259  
      3128       3129       3140       3139       3249       3250       3261       3260  
      3129       3130       3141       3140       3250       3251       3262       3261  
      3130       3131       3142       3141       3251       3252       3263       3262  
      3131       3132       3143       3142       3252       3253       3264       3263  
      3132       3133       3144       3143       3253       3254       3265       3264  
      3133       3134       3145       3144       3254       3255       3266       3265  
      3134       3135       3146       3145       3255       3256       3267       3266  
      3147       3148       3159       3158       3268       3269       3280       3279  
      3148       3149       3160       3159       3269       3270       3281       3280  
      3149       3150       3161       3160       3270       3271       3282       3281  
      3150       3151       3162       3161       3271       3272       3283       3282  
      3151       3152       3163       3162       3272       3273       3284       3283  
      3152       3153       3164       3163       3273       3274       3285       3284  
      3153       3154       3165       3164       3274       3275       3286       3285  
      3154       3155       3166       3165       3275       3276       3287       3286  
      3155       3156       3167       3166       3276       3277       3288       3287  
      3156       3157       3168       3167       3277       3278       3289       3288  
      3158       3159       3170       3169       3279       3280       3291       3290  
      3159       3160       3171       3170       3280       3281       3292       3291  
      3160       3161       3172       3171       3281       3282       3293       3292  
      3161       3162       3173       3172       3282       3283       3294       3293  
      3162       3163       3174       3173       3283       3284       3295       3294  
      3163       3164       3175       3174       3284       3285       3296       3295  
      3164       3165       3176       3175       3285       3286       3297       3296  
      3165       3166       3177       3176       3286       3287       3298       3297  
      3166       3167       3178       3177       3287       3288       3299       3298  
      3167       3168       3179       3178       3288       3289       3300       3299  
      3169       3170       3181       3180       3290       3291       3302       3301  
      3170       3171       3182       3181       3291       3292       3303       3302  
      3171       3172       3183       3182       3292       3293       3304       3303  
      3172       3173       3184       3183       3293       3294       3305       3304  
      3173       3174       3185       3184       3294       3295       3306       3305  
      3174       3175       3186       3185       3295       3296       3307       3306  
      3175       3176       3187       3186       3296       3297       3308       3307  
      3176       3177       3188       3187       3297       3298       3309       3308  
      3177       3178       3189       3188       3298       3299       3310       3309  
      3178       3179       3190       3189       3299       3300       3311       3310  
      3180       3181       3192       3191       3301       3302       3313       3312  
      3181       3182       3193       3192       3302       3303       3314       3313  
      3182       3183       3194       3193       3303       3304       3315       3314  
      3183       3184       3195       3194       3304       3305       3316       3315  
      3184       3185       3196       3195       3305       3306       3317       3316  
      3185       3186       3197       3196       3306       3307       3318       3317  
      3186       3187       3198       3197       3307       3308       3319       3318  
      3187       3188       3199       3198       3308       3309       3320       3319  
      3188       3189       3200       3199       3309       3310       3321       3320  
      3189       3190       3201       3200       3310       3311       3322       3321  
      3191       3192       3203       3202       3312       3313       3324       3323  
      3192       3193       3204       3203       3313       3314       3325       3324  
      3193       3194       3205       3204       3314       3315       3326       3325  
      3194       3195       3206       3205       3315       3316       3327       3326  
      3195       3196       3207       3206       3316       3317       3328       3327  
      3196       3197       3208       3207       3317       3318       3329       3328  
      3197       3198       3209       3208       3318       3319       3330       3329  
      3198       3199       3210       3209       3319       3320       3331       3330  
      3199       3200       3211       3210       3320       3321       3332       3331  
      3200       3201       3212       3211       3321       3322       3333       3332  
      3202       3203       3214       3213       3323       3324       3335       3334  
      3203       3204       3215       3214       3324       3325       3336       3335  
      3204       3205       3216       3215       3325       3326       3337       3336  
      3205       3206       3217       3216       3326       3327       3338       3337  
      3206       3207       3218       3217       3327       3328       3339       3338  
      3207       3208       3219       3218       3328       3329       3340       3339  
      3208       3209       3220       3219       3329       3330       3341       3340  
      3209       3210       3221       3220       3330       3331       3342       3341  
      3210       3211       3222       3221       3331       3332       3343       3342  
      3211       3212       3223       3222       3332       3333       3344       3343  
      3213       3214       3225       3224       3334       3335       3346       3345  
      3214       3215       3226       3225       3335       3336       3347       3346  
      3215       3216       3227       3226       3336       3337       3348       3347  
      3216       3217       3228       3227       3337       3338       3349       3348  
      3217       3218       3229       3228       3338       3339       3350       3349  
      3218       3219       3230       3229       3339       3340       3351       3350  
      3219       3220       3231       3230       3340       3341       3352       3351  
      3220       3221       3232       3231       3341       3342       3353       3352  
      3221       3222       3233       3232       3342       3343       3354       3353  
      3222       3223       3234       3233       3343       3344       3355       3354  
      3224       3225       3236       3235       3345       3346       3357       3356  
      3225       3226       3237       3236       3346       3347       3358       3357  
      3226       3227       3238       3237       3347       3348       3359       3358  
      3227       3228       3239       3238       3348       3349       3360       3359  
      3228       3229       3240       3239       3349       3350       3361       3360  
      3229       3230       3241       3240       3350       3351       3362       3361  
      3230       3231       3242       3241       3351       3352       3363       3362  
      3231       3232       3243       3242       3352       3353       3364       3363  
      3232       3233       3244       3243       3353       3354       3365       3364  
      3233       3234       3245       3244       3354       3355       3366       3365  
      3235       3236       3247       3246       3356       3357       3368       3367  
      3236       3237       3248       3247       3357       3358       3369       3368  
      3237       3238       3249       3248       3358       3359       3370       3369  
      3238       3239       3250       3249       3359       3360       3371       3370  
      3239       3240       3251       3250       3360       3361       3372       3371  
      3240       3241       3252       3251       3361       3362       3373       3372  
      3241       3242       3253       3252       3362       3363       3374       3373  
      3242       3243       3254       3253       3363       3364       3375       3374  
      3243       3244       3255       3254       3364       3365       3376       3375  
      3244       3245       3256       3255       3365       3366       3377       3376  
      3246       3247       3258       3257       3367       3368       3379       3378  
      3247       3248       3259       3258       3368       3369       3380       3379  
      3248       3249       3260       3259       3369       3370       3381       3380  
      3249       3250       3261       3260       3370       3371       3382       3381  
      3250       3251       3262       3261       3371       3372       3383       3382  
      3251       3252       3263       3262       3372       3373       3384       3383  
      3252       3253       3264       3263       3373       3374       3385       3384  
      3253       3254       3265       3264       3374       3375       3386       3385  
      3254       3255       3266       3265       3375       3376       3387       3386  
      3255       3256       3267       3266       3376       3377       3388       3387  
      3268       3269       3280       3279       3389       3390       3401       3400  
      3269       3270       3281       3280       3390       3391       3402       3401  
      3270       3271       3282       3281       3391       3392       3403       3402  
      3271       3272       3283       3282       3392       3393       3404       3403  
      3272       3273       3284       3283       3393       3394       3405       3404  
      3273       3274       3285       3284       3394       3395       3406       3405  
      3274       3275       3286       3285       3395       3396       3407       3406  
      3275       3276       3287       3286       3396       3397       3408       3407  
      3276       3277       3288       3287       3397       3398       3409       3408  
      3277       3278       3289       3288       3398       3399       3410       3409  
      3279       3280       3291       3290       3400       3401       3412       3411  
      3280       3281       3292       3291       3401       3402       3413       3412  
      3281       3282       3293       3292       3402       3403       3414       3413  
      3282       3283       3294       3293       3403       3404       3415       3414  
      3283       3284       3295       3294       3404       3405       3416       3415  
      3284       3285       3296       3295       3405       3406       3417       3416  
      3285       3286       3297       3296       3406       3407       3418       3417  
      3286       3287       3298       3297       3407       3408       3419       3418  
      3287       3288       3299       3298       3408       3409       3420       3419  
      3288       3289       3300       3299       3409       3410       3421       3420  
      3290       3291       3302       3301       3411       3412       3423       3422  
      3291       3292       3303       3302       3412       3413       3424       3423  
      3292       3293       3304       3303       3413       3414       3425       3424  
      3293       3294       3305       3304       3414       3415       3426       3425  
      3294       3295       3306       3305       3415       3416       3427       3426  
      3295       3296       3307       3306       3416       3417       3428       3427  
      3296       3297       3308       3307       3417       3418       3429       3428  
      3297       3298       3309       3308       3418       3419       3430       3429  
      3298       3299       3310       3309       3419       3420       3431       3430  
      3299       3300       3311       3310       3420       3421       3432       3431  
      3301       3302       3313       3312       3422       3423       3434       3433  
      3302       3303       3314       3313       3423       3424       3435       3434  
      3303       3304       3315       3314       3424       3425       3436       3435  
      3304       3305       3316       3315       3425       3426       3437       3436  
      3305       3306       3317       3316       3426       3427       3438       3437  
      3306       3307       3318       3317       3427       3428       3439       3438  
      3307       3308       3319       3318       3428       3429       3440       3439  
      3308       3309       3320       3319       3429       3430       3441       3440  
      3309       3310       3321       3320       3430       3431       3442       3441  
      3310       3311       3322       3321       3431       3432       3443       3442  
      3312       3313       3324       3323       3433       3434       3445       3444  
      3313       3314       3325       3324       3434       3435       3446       3445  
      3314       3315       3326       3325       3435       3436       3447       3446  
      3315       3316       3327       3326       3436       3437       3448       3447  
      3316       3317       3328       3327       3437       3438       3449       3448  
      3317       3318       3329       3328       3438       3439       3450       3449  
      3318       3319       3330       3329       3439       3440       3451       3450  
      3319       3320       3331       3330       3440       3441       3452       3451  
      3320       3321       3332       3331       3441       3442       3453       3452  
      3321       3322       3333       3332       3442       3443       3454       3453  
      3323       3324       3335       3334       3444       3445       3456       3455  
      3324       3325       3336       3335       3445       3446       3457       3456  
      3325       3326       3337       3336       3446       3447       3458       3457  
      3326       3327       3338       3337       3447       3448       3459       3458  
      3327       3328       3339       3338       3448       3449       3460       3459  
      3328       3329       3340       3339       3449       3450       3461       3460  
      3329       3330       3341       3340       3450       3451       3462       3461  
      3330       3331       3342       3341       3451       3452       3463       3462  
      3331       3332       3343       3342       3452       3453       3464       3463  
      3332       3333       3344       3343       3453       3454       3465       3464  
      3334       3335       3346       3345       3455       3456       3467       3466  
      3335       3336       3347       3346       3456       3457       3468       3467  
      3336       3337       3348       3347       3457       3458       3469       3468  
      3337       3338       3349       3348       3458       3459       3470       3469  
      3338       3339       3350       3349       3459       3460       3471       3470  
      3339       3340       3351       3350       3460       3461       3472       3471  
      3340       3341       3352       3351       3461       3462       3473       3472  
      3341       3342       3353       3352       3462       3463       3474       3473  
      3342       3343       3354       3353       3463       3464       3475       3474  
      3343       3344       3355       3354       3464       3465       3476       3475  
      3345       3346       3357       3356       3466       3467       3478       3477  
      3346       3347       3358       3357       3467       3468       3479       3478  
      3347       3348       3359       3358       3468       3469       3480       3479  
      3348       3349       3360       3359       3469       3470       3481       3480  
      3349       3350       3361       3360       3470       3471       3482       3481  
      3350       3351       3362       3361       3471       3472       3483       3482  
      3351       3352       3363       3362       3472       3473       3484       3483  
      3352       3353       3364       3363       3473       3474       3485       3484  
      3353       3354       3365       3364       3474       3475       3486       3485  
      3354       3355       3366       3365       3475       3476       3487       3486  
      3356       3357       3368       3367       3477       3478       3489       3488  
      3357       3358       3369       3368       3478       3479       3490       3489  
      3358       3359       3370       3369       3479       3480       3491       3490  
      3359       3360       3371       3370       3480       3481       3492       3491  
      3360       3361       3372       3371       3481       3482       3493       3492  
      3361       3362       3373       3372       3482       3483       3494       3493  
      3362       3363       3374       3373       3483       3484       3495       3494  
      3363       3364       3375       3374       3484       3485       3496       3495  
      3364       3365       3376       3375       3485       3486       3497       3496  
      3365       3366       3377       3376       3486       3487       3498       3497  
      3367       3368       3379       3378       3488       3489       3500       3499  
      3368       3369       3380       3379       3489       3490       3501       3500  
      3369       3370       3381       3380       3490       3491       3502       3501  
      3370       3371       3382       3381       3491       3492       3503       3502  
      3371       3372       3383       3382       3492       3493       3504       3503  
      3372       3373       3384       3383       3493       3494       3505       3504  
      3373       3374       3385       3384       3494       3495       3506       3505  
      3374       3375       3386       3385       3495       3496       3507       3506  
      3375       3376       3387       3386       3496       3497       3508       3507  
      3376       3377       3388       3387       3497       3498       3509       3508  
      3389       3390       3401       3400       3510       3511       3522       3521  
      3390       3391       3402       3401       3511       3512       3523       3522  
      3391       3392       3403       3402       3512       3513       3524       3523  
      3392       3393       3404       3403       3513       3514       3525       3524  
      3393       3394       3405       3404       3514       3515       3526       3525  
      3394       3395       3406       3405       3515       3516       3527       3526  
      3395       3396       3407       3406       3516       3517       3528       3527  
      3396       3397       3408       3407       3517       3518       3529       3528  
      3397       3398       3409       3408       3518       3519       3530       3529  
      3398       3399       3410       3409       3519       3520       3531       3530  
      3400       3401       3412       3411       3521       3522       3533       3532  
      3401       3402       3413       3412       3522       3523       3534       3533  
      3402       3403       3414       3413       3523       3524       3535       3534  
      3403       3404       3415       3414       3524       3525       3536       3535  
      3404       3405       3416       3415       3525       3526       3537       3536  
      3405       3406       3417       3416       3526       3527       3538       3537  
      3406       3407       3418       3417       3527       3528       3539       3538  
      3407       3408       3419       3418       3528       3529       3540       3539  
      3408       3409       3420       3419       3529       3530       3541       3540  
      3409       3410       3421       3420       3530       3531       3542       3541  
      3411       3412       3423       3422       3532       3533       3544       3543  
      3412       3413       3424       3423       3533       3534       3545       3544  
      3413       3414       3425       3424       3534       3535       3546       3545  
      3414       3415       3426       3425       3535       3536       3547       3546  
      3415       3416       3427       3426       3536       3537       3548       3547  
      3416       3417       3428       3427       3537       3538       3549       3548  
      3417       3418       3429       3428       3538       3539       3550       3549  
      3418       3419       3430       3429       3539       3540       3551       3550  
      3419       3420       3431       3430       3540       3541       3552       3551  
      3420       3421       3432       3431       3541       3542       3553       3552  
      3422       3423       3434       3433       3543       3544       3555       3554  
      3423       3424       3435       3434       3544       3545       3556       3555  
      3424       3425       3436       3435       3545       3546       3557       3556  
      3425       3426       3437       3436       3546       3547       3558       3557  
      3426       3427       3438       3437       3547       3548       3559       3558  
      3427       3428       3439       3438       3548       3549       3560       3559  
      3428       3429       3440       3439       3549       3550       3561       3560  
      3429       3430       3441       3440       3550       3551       3562       3561  
      3430       3431       3442       3441       3551       3552       3563       3562  
      3431       3432       3443       3442       3552       3553       3564       3563  
      3433       3434       3445       3444       3554       3555       3566       3565  
      3434       3435       3446       3445       3555       3556       3567       3566  
      3435       3436       3447       3446       3556       3557       3568       3567  
      3436       3437       3448       3447       3557       3558       3569       3568  
      3437       3438       3449       3448       3558       3559       3570       3569  
      3438       3439       3450       3449       3559       3560       3571       3570  
      3439       3440       3451       3450       3560       3561       3572       3571  
      3440       3441       3452       3451       3561       3562       3573       3572  
      3441       3442       3453       3452       3562       3563       3574       3573  
      3442       3443       3454       3453       3563       3564       3575       3574  
      3444       3445       3456       3455       3565       3566       3577       3576  
      3445       3446       3457       3456       3566       3567       3578       3577  
      3446       3447       3458       3457       3567       3568       3579       3578  
      3447       3448       3459       3458       3568       3569       3580       3579  
      3448       3449       3460       3459       3569       3570       3581       3580  
      3449       3450       3461       3460       3570       3571       3582       3581  
      3450       3451       3462       3461       3571       3572       3583       3582  
      3451       3452       3463       3462       3572       3573       3584       3583  
      3452       3453       3464       3463       3573       3574       3585       3584  
      3453       3454       3465       3464       3574       3575       3586       3585  
      3455       3456       3467       3466       3576       3577       3588       3587  
      3456       3457       3468       3467       3577       3578       3589       3588  
      3457       3458       3469       3468       3578       3579       3590       3589  
      3458       3459       3470       3469       3579       3580       3591       3590  
      3459       3460       3471       3470       3580       3581       3592       3591  
      3460       3461       3472       3471       3581       3582       3593       3592  
      3461       3462       3473       3472       3582       3583       3594       3593  
      3462       3463       3474       3473       3583       3584       3595       3594  
      3463       3464       3475       3474       3584       3585       3596       3595  
      3464       3465       3476       3475       3585       3586       3597       3596  
      3466       3467       3478       3477       3587       3588       3599       3598  
      3467       3468       3479       3478       3588       3589       3600       3599  
      3468       3469       3480       3479       3589       3590       3601       3600  
      3469       3470       3481       3480       3590       3591       3602       3601  
      3470       3471       3482       3481       3591       3592       3603       3602  
      3471       3472       3483       3482       3592       3593       3604       3603  
      3472       3473       3484       3483       3593       3594       3605       3604  
      3473       3474       3485       3484       3594       3595       3606       3605  
      3474       3475       3486       3485       3595       3596       3607       3606  
      3475       3476       3487       3486       3596       3597       3608       3607  
      3477       3478       3489       3488       3598       3599       3610       3609  
      3478       3479       3490       3489       3599       3600       3611       3610  
      3479       3480       3491       3490       3600       3601       3612       3611  
      3480       3481       3492       3491       3601       3602       3613       3612  
      3481       3482       3493       3492       3602       3603       3614       3613  
      3482       3483       3494       3493       3603       3604       3615       3614  
      3483       3484       3495       3494       3604       3605       3616       3615  
      3484       3485       3496       3495       3605       3606       3617       3616  
      3485       3486       3497       3496       3606       3607       3618       3617  
      3486       3487       3498       3497       3607       3608       3619       3618  
      3488       3489       3500       3499       3609       3610       3621       3620  
      3489       3490       3501       3500       3610       3611       3622       3621  
      3490       3491       3502       3501       3611       3612       3623       3622  
      3491       3492       3503       3502       3612       3613       3624       3623  
      3492       3493       3504       3503       3613       3614       3625       3624  
      3493       3494       3505       3504       3614       3615       3626       3625  
      3494       3495       3506       3505       3615       3616       3627       3626  
      3495       3496       3507       3506       3616       3617       3628       3627  
      3496       3497       3508       3507       3617       3618       3629       3628  
      3497       3498       3509       3508       3618       3619       3630       3629  
      3510       3511       3522       3521       3631       3632       3643       3642  
      3511       3512       3523       3522       3632       3633       3644       3643  
      3512       3513       3524       3523       3633       3634       3645       3644  
      3513       3514       3525       3524       3634       3635       3646       3645  
      3514       3515       3526       3525       3635       3636       3647       3646  
      3515       3516       3527       3526       3636       3637       3648       3647  
      3516       3517       3528       3527       3637       3638       3649       3648  
      3517       3518       3529       3528       3638       3639       3650       3649  
      3518       3519       3530       3529       3639       3640       3651       3650  
      3519       3520       3531       3530       3640       3641       3652       3651  
      3521       3522       3533       3532       3642       3643       3654       3653  
      3522       3523       3534       3533       3643       3644       3655       3654  
      3523       3524       3535       3534       3644       3645       3656       3655  
      3524       3525       3536       3535       3645       3646       3657       3656  
      3525       3526       3537       3536       3646       3647       3658       3657  
      3526       3527       3538       3537       3647       3648       3659       3658  
      3527       3528       3539       3538       3648       3649       3660       3659  
      3528       3529       3540       3539       3649       3650       3661       3660  
      3529       3530       3541       3540       3650       3651       3662       3661  
      3530       3531       3542       3541       3651       3652       3663       3662  
      3532       3533       3544       3543       3653       3654       3665       3664  
      3533       3534       3545       3544       3654       3655       3666       3665  
      3534       3535       3546       3545       3655       3656       3667       3666  
      3535       3536       3547       3546       3656       3657       3668       3667  
      3536       3537       3548       3547       3657       3658       3669       3668  
      3537       3538       3549       3548       3658       3659       3670       3669  
      3538       3539       3550       3549       3659       3660       3671       3670  
      3539       3540       3551       3550       3660       3661       3672       3671  
      3540       3541       3552       3551       3661       3662       3673       3672  
      3541       3542       3553       3552       3662       3663       3674       3673  
      3543       3544       3555       3554       3664       3665       3676       3675  
      3544       3545       3556       3555       3665       3666       3677       3676  
      3545       3546       3557       3556       3666       3667       3678       3677  
      3546       3547       3558       3557       3667       3668       3679       3678  
      3547       3548       3559       3558       3668       3669       3680       3679  
      3548       3549       3560       3559       3669       3670       3681       3680  
      3549       3550       3561       3560       3670       3671       3682       3681  
      3550       3551       3562       3561       3671       3672       3683       3682  
      3551       3552       3563       3562       3672       3673       3684       3683  
      3552       3553       3564       3563       3673       3674       3685       3684  
      3554       3555       3566       3565       3675       3676       3687       3686  
      3555       3556       3567       3566       3676       3677       3688       3687  
      3556       3557       3568       3567       3677       3678       3689       3688  
      3557       3558       3569       3568       3678       3679       3690       3689  
      3558       3559       3570       3569       3679       3680       3691       3690  
      3559       3560       3571       3570       3680       3681       3692       3691  
      3560       3561       3572       3571       3681       3682       3693       3692  
      3561       3562       3573       3572       3682       3683       3694       3693  
      3562       3563       3574       3573       3683       3684       3695       3694  
      3563       3564       3575       3574       3684       3685       3696       3695  
      3565       3566       3577       3576       3686       3687       3698       3697  
      3566       3567       3578       3577       3687       3688       3699       3698  
      3567       3568       3579       3578       3688       3689       3700       3699  
      3568       3569       3580       3579       3689       3690       3701       3700  
      3569       3570       3581       3580       3690       3691       3702       3701  
      3570       3571       3582       3581       3691       3692       3703       3702  
      3571       3572       3583       3582       3692       3693       3704       3703  
      3572       3573       3584       3583       3693       3694       3705       3704  
      3573       3574       3585       3584       3694       3695       3706       3705  
      3574       3575       3586       3585       3695       3696       3707       3706  
      3576       3577       3588       3587       3697       3698       3709       3708  
      3577       3578       3589       3588       3698       3699       3710       3709  
      3578       3579       3590       3589       3699       3700       3711       3710  
      3579       3580       3591       3590       3700       3701       3712       3711  
      3580       3581       3592       3591       3701       3702       3713       3712  
      3581       3582       3593       3592       3702       3703       3714       3713  
      3582       3583       3594       3593       3703       3704       3715       3714  
      3583       3584       3595       3594       3704       3705       3716       3715  
      3584       3585       3596       3595       3705       3706       3717       3716  
      3585       3586       3597       3596       3706       3707       3718       3717  
      3587       3588       3599       3598       3708       3709       3720       3719  
      3588       3589       3600       3599       3709       3710       3721       3720  
      3589       3590       3601       3600       3710       3711       3722       3721  
      3590       3591       3602       3601       3711       3712       3723       3722  
      3591       3592       3603       3602       3712       3713       3724       3723  
      3592       3593       3604       3603       3713       3714       3725       3724  
      3593       3594       3605       3604       3714       3715       3726       3725  
      3594       3595       3606       3605       3715       3716       3727       3726  
      3595       3596       3607       3606       3716       3717       3728       3727  
      3596       3597       3608       3607       3717       3718       3729       3728  
      3598       3599       3610       3609       3719       3720       3731       3730  
      3599       3600       3611       3610       3720       3721       3732       3731  
      3600       3601       3612       3611       3721       3722       3733       3732  
      3601       3602       3613       3612       3722       3723       3734       3733  
      3602       3603       3614       3613       3723       3724       3735       3734  
      3603       3604       3615       3614       3724       3725       3736       3735  
      3604       3605       3616       3615       3725       3726       3737       3736  
      3605       3606       3617       3616       3726       3727       3738       3737  
      3606       3607       3618       3617       3727       3728       3739       3738  
      3607       3608       3619       3618       3728       3729       3740       3739  
      3609       3610       3621       3620       3730       3731       3742       3741  
      3610       3611       3622       3621       3731       3732       3743       3742  
      3611       3612       3623       3622       3732       3733       3744       3743  
      3612       3613       3624       3623       3733       3734       3745       3744  
      3613       3614       3625       3624       3734       3735       3746       3745  
      3614       3615       3626       3625       3735       3736       3747       3746  
      3615       3616       3627       3626       3736       3737       3748       3747  
      3616       3617       3628       3627       3737       3738       3749       3748  
      3617       3618       3629       3628       3738       3739       3750       3749  
      3618       3619       3630       3629       3739       3740       3751       3750  
      3631       3632       3643       3642       3752       3753       3764       3763  
      3632       3633       3644       3643       3753       3754       3765       3764  
      3633       3634       3645       3644       3754       3755       3766       3765  
      3634       3635       3646       3645       3755       3756       3767       3766  
      3635       3636       3647       3646       3756       3757       3768       3767  
      3636       3637       3648       3647       3757       3758       3769       3768  
      3637       3638       3649       3648       3758       3759       3770       3769  
      3638       3639       3650       3649       3759       3760       3771       3770  
      3639       3640       3651       3650       3760       3761       3772       3771  
      3640       3641       3652       3651       3761       3762       3773       3772  
      3642       3643       3654       3653       3763       3764       3775       3774  
      3643       3644       3655       3654       3764       3765       3776       3775  
      3644       3645       3656       3655       3765       3766       3777       3776  
      3645       3646       3657       3656       3766       3767       3778       3777  
      3646       3647       3658       3657       3767       3768       3779       3778  
      3647       3648       3659       3658       3768       3769       3780       3779  
      3648       3649       3660       3659       3769       3770       3781       3780  
      3649       3650       3661       3660       3770       3771       3782       3781  
      3650       3651       3662       3661       3771       3772       3783       3782  
      3651       3652       3663       3662       3772       3773       3784       3783  
      3653       3654       3665       3664       3774       3775       3786       3785  
      3654       3655       3666       3665       3775       3776       3787       3786  
      3655       3656       3667       3666       3776       3777       3788       3787  
      3656       3657       3668       3667       3777       3778       3789       3788  
      3657       3658       3669       3668       3778       3779       3790       3789  
      3658       3659       3670       3669       3779       3780       3791       3790  
      3659       3660       3671       3670       3780       3781       3792       3791  
      3660       3661       3672       3671       3781       3782       3793       3792  
      3661       3662       3673       3672       3782       3783       3794       3793  
      3662       3663       3674       3673       3783       3784       3795       3794  
      3664       3665       3676       3675       3785       3786       3797       3796  
      3665       3666       3677       3676       3786       3787       3798       3797  
      3666       3667       3678       3677       3787       3788       3799       3798  
      3667       3668       3679       3678       3788       3789       3800       3799  
      3668       3669       3680       3679       3789       3790       3801       3800  
      3669       3670       3681       3680       3790       3791       3802       3801  
      3670       3671       3682       3681       3791       3792       3803       3802  
      3671       3672       3683       3682       3792       3793       3804       3803  
      3672       3673       3684       3683       3793       3794       3805       3804  
      3673       3674       3685       3684       3794       3795       3806       3805  
      3675       3676       3687       3686       3796       3797       3808       3807  
      3676       3677       3688       3687       3797       3798       3809       3808  
      3677       3678       3689       3688       3798       3799       3810       3809  
      3678       3679       3690       3689       3799       3800       3811       3810  
      3679       3680       3691       3690       3800       3801       3812       3811  
      3680       3681       3692       3691       3801       3802       3813       3812  
      3681       3682       3693       3692       3802       3803       3814       3813  
      3682       3683       3694       3693       3803       3804       3815       3814  
      3683       3684       3695       3694       3804       3805       3816       3815  
      3684       3685       3696       3695       3805       3806       3817       3816  
      3686       3687       3698       3697       3807       3808       3819       3818  
      3687       3688       3699       3698       3808       3809       3820       3819  
      3688       3689       3700       3699       3809       3810       3821       3820  
      3689       3690       3701       3700       3810       3811       3822       3821  
      3690       3691       3702       3701       3811       3812       3823       3822  
      3691       3692       3703       3702       3812       3813       3824       3823  
      3692       3693       3704       3703       3813       3814       3825       3824  
      3693       3694       3705       3704       3814       3815       3826       3825  
      3694       3695       3706       3705       3815       3816       3827       3826  
      3695       3696       3707       3706       3816       3817       3828       3827  
      3697       3698       3709       3708       3818       3819       3830       3829  
      3698       3699       3710       3709       3819       3820       3831       3830  
      3699       3700       3711       3710       3820       3821       3832       3831  
      3700       3701       3712       3711       3821       3822       3833       3832  
      3701       3702       3713       3712       3822       3823       3834       3833  
      3702       3703       3714       3713       3823       3824       3835       3834  
      3703       3704       3715       3714       3824       3825       3836       3835  
      3704       3705       3716       3715       3825       3826       3837       3836  
      3705       3706       3717       3716       3826       3827       3838       3837  
      3706       3707       3718       3717       3827       3828       3839       3838  
      3708       3709       3720       3719       3829       3830       3841       3840  
      3709       3710       3721       3720       3830       3831       3842       3841  
      3710       3711       3722       3721       3831       3832       3843       3842  
      3711       3712       3723       3722       3832       3833       3844       3843  
      3712       3713       3724       3723       3833       3834       3845       3844  
      3713       3714       3725       3724       3834       3835       3846       3845  
      3714       3715       3726       3725       3835       3836       3847       3846  
      3715       3716       3727       3726       3836       3837       3848       3847  
      3716       3717       3728       3727       3837       3838       3849       3848  
      3717       3718       3729       3728       3838       3839       3850       3849  
      3719       3720       3731       3730       3840       3841       3852       3851  
      3720       3721       3732       3731       3841       3842       3853       3852  
      3721       3722       3733       3732       3842       3843       3854       3853  
      3722       3723       3734       3733       3843       3844       3855       3854  
      3723       3724       3735       3734       3844       3845       3856       3855  
      3724       3725       3736       3735       3845       3846       3857       3856  
      3725       3726       3737       3736       3846       3847       3858       3857  
      3726       3727       3738       3737       3847       3848       3859       3858  
      3727       3728       3739       3738       3848       3849       3860       3859  
      3728       3729       3740       3739       3849       3850       3861       3860  
      3730       3731       3742       3741       3851       3852       3863       3862  
      3731       3732       3743       3742       3852       3853       3864       3863  
      3732       3733       3744       3743       3853       3854       3865       3864  
      3733       3734       3745       3744       3854       3855       3866       3865  
      3734       3735       3746       3745       3855       3856       3867       3866  
      3735       3736       3747       3746       3856       3857       3868       3867  
      3736       3737       3748       3747       3857       3858       3869       3868  
      3737       3738       3749       3748       3858       3859       3870       3869  
      3738       3739       3750       3749       3859       3860       3871       3870  
      3739       3740       3751       3750       3860       3861       3872       3871  
      3752       3753       3764       3763       3873       3874       3885       3884  
      3753       3754       3765       3764       3874       3875       3886       3885  
      3754       3755       3766       3765       3875       3876       3887       3886  
      3755       3756       3767       3766       3876       3877       3888       3887  
      3756       3757       3768       3767       3877       3878       3889       3888  
      3757       3758       3769       3768       3878       3879       3890       3889  
      3758       3759       3770       3769       3879       3880       3891       3890  
      3759       3760       3771       3770       3880       3881       3892       3891  
      3760       3761       3772       3771       3881       3882       3893       3892  
      3761       3762       3773       3772       3882       3883       3894       3893  
      3763       3764       3775       3774       3884       3885       3896       3895  
      3764       3765       3776       3775       3885       3886       3897       3896  
      3765       3766       3777       3776       3886       3887       3898       3897  
      3766       3767       3778       3777       3887       3888       3899       3898  
      3767       3768       3779       3778       3888       3889       3900       3899  
      3768       3769       3780       3779       3889       3890       3901       3900  
      3769       3770       3781       3780       3890       3891       3902       3901  
      3770       3771       3782       3781       3891       3892       3903       3902  
      3771       3772       3783       3782       3892       3893       3904       3903  
      3772       3773       3784       3783       3893       3894       3905       3904  
      3774       3775       3786       3785       3895       3896       3907       3906  
      3775       3776       3787       3786       3896       3897       3908       3907  
      3776       3777       3788       3787       3897       3898       3909       3908  
      3777       3778       3789       3788       3898       3899       3910       3909  
      3778       3779       3790       3789       3899       3900       3911       3910  
      3779       3780       3791       3790       3900       3901       3912       3911  
      3780       3781       3792       3791       3901       3902       3913       3912  
      3781       3782       3793       3792       3902       3903       3914       3913  
      3782       3783       3794       3793       3903       3904       3915       3914  
      3783       3784       3795       3794       3904       3905       3916       3915  
      3785       3786       3797       3796       3906       3907       3918       3917  
      3786       3787       3798       3797       3907       3908       3919       3918  
      3787       3788       3799       3798       3908       3909       3920       3919  
      3788       3789       3800       3799       3909       3910       3921       3920  
      3789       3790       3801       3800       3910       3911       3922       3921  
      3790       3791       3802       3801       3911       3912       3923       3922  
      3791       3792       3803       3802       3912       3913       3924       3923  
      3792       3793       3804       3803       3913       3914       3925       3924  
      3793       3794       3805       3804       3914       3915       3926       3925  
      3794       3795       3806       3805       3915       3916       3927       3926  
      3796       3797       3808       3807       3917       3918       3929       3928  
      3797       3798       3809       3808       3918       3919       3930       3929  
      3798       3799       3810       3809       3919       3920       3931       3930  
      3799       3800       3811       3810       3920       3921       3932       3931  
      3800       3801       3812       3811       3921       3922       3933       3932  
      3801       3802       3813       3812       3922       3923       3934       3933  
      3802       3803       3814       3813       3923       3924       3935       3934  
      3803       3804       3815       3814       3924       3925       3936       3935  
      3804       3805       3816       3815       3925       3926       3937       3936  
      3805       3806       3817       3816       3926       3927       3938       3937  
      3807       3808       3819       3818       3928       3929       3940       3939  
      3808       3809       3820       3819       3929       3930       3941       3940  
      3809       3810       3821       3820       3930       3931       3942       3941  
      3810       3811       3822       3821       3931       3932       3943       3942  
      3811       3812       3823       3822       3932       3933       3944       3943  
      3812       3813       3824       3823       3933       3934       3945       3944  
      3813       3814       3825       3824       3934       3935       3946       3945  
      3814       3815       3826       3825       3935       3936       3947       3946  
      3815       3816       3827       3826       3936       3937       3948       3947  
      3816       3817       3828       3827       3937       3938       3949       3948  
      3818       3819       3830       3829       3939       3940       3951       3950  
      3819       3820       3831       3830       3940       3941       3952       3951  
      3820       3821       3832       3831       3941       3942       3953       3952  
      3821       3822       3833       3832       3942       3943       3954       3953  
      3822       3823       3834       3833       3943       3944       3955       3954  
      3823       3824       3835       3834       3944       3945       3956       3955  
      3824       3825       3836       3835       3945       3946       3957       3956  
      3825       3826       3837       3836       3946       3947       3958       3957  
      3826       3827       3838       3837       3947       3948       3959       3958  
      3827       3828       3839       3838       3948       3949       3960       3959  
      3829       3830       3841       3840       3950       3951       3962       3961  
      3830       3831       3842       3841       3951       3952       3963       3962  
      3831       3832       3843       3842       3952       3953       3964       3963  
      3832       3833       3844       3843       3953       3954       3965       3964  
      3833       3834       3845       3844       3954       3955       3966       3965  
      3834       3835       3846       3845       3955       3956       3967       3966  
      3835       3836       3847       3846       3956       3957       3968       3967  
      3836       3837       3848       3847       3957       3958       3969       3968  
      3837       3838       3849       3848       3958       3959       3970       3969  
      3838       3839       3850       3849       3959       3960       3971       3970  
      3840       3841       3852       3851       3961       3962       3973       3972  
      3841       3842       3853       3852       3962       3963       3974       3973  
      3842       3843       3854       3853       3963       3964       3975       3974  
      3843       3844       3855       3854       3964       3965       3976       3975  
      3844       3845       3856       3855       3965       3966       3977       3976  
      3845       3846       3857       3856       3966       3967       3978       3977  
      3846       3847       3858       3857       3967       3968       3979       3978  
      3847       3848       3859       3858       3968       3969       3980       3979  
      3848       3849       3860       3859       3969       3970       3981       3980  
      3849       3850       3861       3860       3970       3971       3982       3981  
      3851       3852       3863       3862       3972       3973       3984       3983  
      3852       3853       3864       3863       3973       3974       3985       3984  
      3853       3854       3865       3864       3974       3975       3986       3985  
      3854       3855       3866       3865       3975       3976       3987       3986  
      3855       3856       3867       3866       3976       3977       3988       3987  
      3856       3857       3868       3867       3977       3978       3989       3988  
      3857       3858       3869       3868       3978       3979       3990       3989  
      3858       3859       3870       3869       3979       3980       3991       3990  
      3859       3860       3871       3870       3980       3981       3992       3991  
      3860       3861       3872       3871       3981       3982       3993       3992  
      3873       3874       3885       3884       3994       3995       4006       4005  
      3874       3875       3886       3885       3995       3996       4007       4006  
      3875       3876       3887       3886       3996       3997       4008       4007  
      3876       3877       3888       3887       3997       3998       4009       4008  
      3877       3878       3889       3888       3998       3999       4010       4009  
      3878       3879       3890       3889       3999       4000       4011       4010  
      3879       3880       3891       3890       4000       4001       4012       4011  
      3880       3881       3892       3891       4001       4002       4013       4012  
      3881       3882       3893       3892       4002       4003       4014       4013  
      3882       3883       3894       3893       4003       4004       4015       4014  
      3884       3885       3896       3895       4005       4006       4017       4016  
      3885       3886       3897       3896       4006       4007       4018       4017  
      3886       3887       3898       3897       4007       4008       4019       4018  
      3887       3888       3899       3898       4008       4009       4020       4019  
      3888       3889       3900       3899       4009       4010       4021       4020  
      3889       3890       3901       3900       4010       4011       4022       4021  
      3890       3891       3902       3901       4011       4012       4023       4022  
      3891       3892       3903       3902       4012       4013       4024       4023  
      3892       3893       3904       3903       4013       4014       4025       4024  
      3893       3894       3905       3904       4014       4015       4026       4025  
      3895       3896       3907       3906       4016       4017       4028       4027  
      3896       3897       3908       3907       4017       4018       4029       4028  
      3897       3898       3909       3908       4018       4019       4030       4029  
      3898       3899       3910       3909       4019       4020       4031       4030  
      3899       3900       3911       3910       4020       4021       4032       4031  
      3900       3901       3912       3911       4021       4022       4033       4032  
      3901       3902       3913       3912       4022       4023       4034       4033  
      3902       3903       3914       3913       4023       4024       4035       4034  
      3903       3904       3915       3914       4024       4025       4036       4035  
      3904       3905       3916       3915       4025       4026       4037       4036  
      3906       3907       3918       3917       4027       4028       4039       4038  
      3907       3908       3919       3918       4028       4029       4040       4039  
      3908       3909       3920       3919       4029       4030       4041       4040  
      3909       3910       3921       3920       4030       4031       4042       4041  
      3910       3911       3922       3921       4031       4032       4043       4042  
      3911       3912       3923       3922       4032       4033       4044       4043  
      3912       3913       3924       3923       4033       4034       4045       4044  
      3913       3914       3925       3924       4034       4035       4046       4045  
      3914       3915       3926       3925       4035       4036       4047       4046  
      3915       3916       3927       3926       4036       4037       4048       4047  
      3917       3918       3929       3928       4038       4039       4050       4049  
      3918       3919       3930       3929       4039       4040       4051       4050  
      3919       3920       3931       3930       4040       4041       4052       4051  
      3920       3921       3932       3931       4041       4042       4053       4052  
      3921       3922       3933       3932       4042       4043       4054       4053  
      3922       3923       3934       3933       4043       4044       4055       4054  
      3923       3924       3935       3934       4044       4045       4056       4055  
      3924       3925       3936       3935       4045       4046       4057       4056  
      3925       3926       3937       3936       4046       4047       4058       4057  
      3926       3927       3938       3937       4047       4048       4059       4058  
      3928       3929       3940       3939       4049       4050       4061       4060  
      3929       3930       3941       3940       4050       4051       4062       4061  
      3930       3931       3942       3941       4051       4052       4063       4062  
      3931       3932       3943       3942       4052       4053       4064       4063  
      3932       3933       3944       3943       4053       4054       4065       4064  
      3933       3934       3945       3944       4054       4055       4066       4065  
      3934       3935       3946       3945       4055       4056       4067       4066  
      3935       3936       3947       3946       4056       4057       4068       4067  
      3936       3937       3948       3947       4057       4058       4069       4068  
      3937       3938       3949       3948       4058       4059       4070       4069  
      3939       3940       3951       3950       4060       4061       4072       4071  
      3940       3941       3952       3951       4061       4062       4073       4072  
      3941       3942       3953       3952       4062       4063       4074       4073  
      3942       3943       3954       3953       4063       4064       4075       4074  
      3943       3944       3955       3954       4064       4065       4076       4075  
      3944       3945       3956       3955       4065       4066       4077       4076  
      3945       3946       3957       3956       4066       4067       4078       4077  
      3946       3947       3958       3957       4067       4068       4079       4078  
      3947       3948       3959       3958       4068       4069       4080       4079  
      3948       3949       3960       3959       4069       4070       4081       4080  
      3950       3951       3962       3961       4071       4072       4083       4082  
      3951       3952       3963       3962       4072       4073       4084       4083  
      3952       3953       3964       3963       4073       4074       4085       4084  
      3953       3954       3965       3964       4074       4075       4086       4085  
      3954       3955       3966       3965       4075       4076       4087       4086  
      3955       3956       3967       3966       4076       4077       4088       4087  
      3956       3957       3968       3967       4077       4078       4089       4088  
      3957       3958       3969       3968       4078       4079       4090       4089  
      3958       3959       3970       3969       4079       4080       4091       4090  
      3959       3960       3971       3970       4080       4081       4092       4091  
      3961       3962       3973       3972       4082       4083       4094       4093  
      3962       3963       3974       3973       4083       4084       4095       4094  
      3963       3964       3975       3974       4084       4085       4096       4095  
      3964       3965       3976       3975       4085       4086       4097       4096  
      3965       3966       3977       3976       4086       4087       4098       4097  
      3966       3967       3978       3977       4087       4088       4099       4098  
      3967       3968       3979       3978       4088       4089       4100       4099  
      3968       3969       3980       3979       4089       4090       4101       4100  
      3969       3970       3981       3980       4090       4091       4102       4101  
      3970       3971       3982       3981       4091       4092       4103       4102  
      3972       3973       3984       3983       4093       4094       4105       4104  
      3973       3974       3985       3984       4094       4095       4106       4105  
      3974       3975       3986       3985       4095       4096       4107       4106  
      3975       3976       3987       3986       4096       4097       4108       4107  
      3976       3977       3988       3987       4097       4098       4109       4108  
      3977       3978       3989       3988       4098       4099       4110       4109  
      3978       3979       3990       3989       4099       4100       4111       4110  
      3979       3980       3991       3990       4100       4101       4112       4111  
      3980       3981       3992       3991       4101       4102       4113       4112  
      3981       3982       3993       3992       4102       4103       4114       4113  
      3994       3995       4006       4005       4115       4116       4127       4126  
      3995       3996       4007       4006       4116       4117       4128       4127  
      3996       3997       4008       4007       4117       4118       4129       4128  
      3997       3998       4009       4008       4118       4119       4130       4129  
      3998       3999       4010       4009       4119       4120       4131       4130  
      3999       4000       4011       4010       4120       4121       4132       4131  
      4000       4001       4012       4011       4121       4122       4133       4132  
      4001       4002       4013       4012       4122       4123       4134       4133  
      4002       4003       4014       4013       4123       4124       4135       4134  
      4003       4004       4015       4014       4124       4125       4136       4135  
      4005       4006       4017       4016       4126       4127       4138       4137  
      4006       4007       4018       4017       4127       4128       4139       4138  
      4007       4008       4019       4018       4128       4129       4140       4139  
      4008       4009       4020       4019       4129       4130       4141       4140  
      4009       4010       4021       4020       4130       4131       4142       4141  
      4010       4011       4022       4021       4131       4132       4143       4142  
      4011       4012       4023       4022       4132       4133       4144       4143  
      4012       4013       4024       4023       4133       4134       4145       4144  
      4013       4014       4025       4024       4134       4135       4146       4145  
      4014       4015       4026       4025       4135       4136       4147       4146  
      4016       4017       4028       4027       4137       4138       4149       4148  
      4017       4018       4029       4028       4138       4139       4150       4149  
      4018       4019       4030       4029       4139       4140       4151       4150  
      4019       4020       4031       4030       4140       4141       4152       4151  
      4020       4021       4032       4031       4141       4142       4153       4152  
      4021       4022       4033       4032       4142       4143       4154       4153  
      4022       4023       4034       4033       4143       4144       4155       4154  
      4023       4024       4035       4034       4144       4145       4156       4155  
      4024       4025       4036       4035       4145       4146       4157       4156  
      4025       4026       4037       4036       4146       4147       4158       4157  
      4027       4028       4039       4038       4148       4149       4160       4159  
      4028       4029       4040       4039       4149       4150       4161       4160  
      4029       4030       4041       4040       4150       4151       4162       4161  
      4030       4031       4042       4041       4151       4152       4163       4162  
      4031       4032       4043       4042       4152       4153       4164       4163  
      4032       4033       4044       4043       4153       4154       4165       4164  
      4033       4034       4045       4044       4154       4155       4166       4165  
      4034       4035       4046       4045       4155       4156       4167       4166  
      4035       4036       4047       4046       4156       4157       4168       4167  
      4036       4037       4048       4047       4157       4158       4169       4168  
      4038       4039       4050       4049       4159       4160       4171       4170  
      4039       4040       4051       4050       4160       4161       4172       4171  
      4040       4041       4052       4051       4161       4162       4173       4172  
      4041       4042       4053       4052       4162       4163       4174       4173  
      4042       4043       4054       4053       4163       4164       4175       4174  
      4043       4044       4055       4054       4164       4165       4176       4175  
      4044       4045       4056       4055       4165       4166       4177       4176  
      4045       4046       4057       4056       4166       4167       4178       4177  
      4046       4047       4058       4057       4167       4168       4179       4178  
      4047       4048       4059       4058       4168       4169       4180       4179  
      4049       4050       4061       4060       4170       4171       4182       4181  
      4050       4051       4062       4061       4171       4172       4183       4182  
      4051       4052       4063       4062       4172       4173       4184       4183  
      4052       4053       4064       4063       4173       4174       4185       4184  
      4053       4054       4065       4064       4174       4175       4186       4185  
      4054       4055       4066       4065       4175       4176       4187       4186  
      4055       4056       4067       4066       4176       4177       4188       4187  
      4056       4057       4068       4067       4177       4178       4189       4188  
      4057       4058       4069       4068       4178       4179       4190       4189  
      4058       4059       4070       4069       4179       4180       4191       4190  
      4060       4061       4072       4071       4181       4182       4193       4192  
      4061       4062       4073       4072       4182       4183       4194       4193  
      4062       4063       4074       4073       4183       4184       4195       4194  
      4063       4064       4075       4074       4184       4185       4196       4195  
      4064       4065       4076       4075       4185       4186       4197       4196  
      4065       4066       4077       4076       4186       4187       4198       4197  
      4066       4067       4078       4077       4187       4188       4199       4198  
      4067       4068       4079       4078       4188       4189       4200       4199  
      4068       4069       4080       4079       4189       4190       4201       4200  
      4069       4070       4081       4080       4190       4191       4202       4201  
      4071       4072       4083       4082       4192       4193       4204       4203  
      4072       4073       4084       4083       4193       4194       4205       4204  
      4073       4074       4085       4084       4194       4195       4206       4205  
      4074       4075       4086       4085       4195       4196       4207       4206  
      4075       4076       4087       4086       4196       4197       4208       4207  
      4076       4077       4088       4087       4197       4198       4209       4208  
      4077       4078       4089       4088       4198       4199       4210       4209  
      4078       4079       4090       4089       4199       4200       4211       4210  
      4079       4080       4091       4090       4200       4201       4212       4211  
      4080       4081       4092       4091       4201       4202       4213       4212  
      4082       4083       4094       4093       4203       4204       4215       4214  
      4083       4084       4095       4094       4204       4205       4216       4215  
      4084       4085       4096       4095       4205       4206       4217       4216  
      4085       4086       4097       4096       4206       4207       4218       4217  
      4086       4087       4098       4097       4207       4208       4219       4218  
      4087       4088       4099       4098       4208       4209       4220       4219  
      4088       4089       4100       4099       4209       4210       4221       4220  
      4089       4090       4101       4100       4210       4211       4222       4221  
      4090       4091       4102       4101       4211       4212       4223       4222  
      4091       4092       4103       4102       4212       4213       4224       4223  
      4093       4094       4105       4104       4214       4215       4226       4225  
      4094       4095       4106       4105       4215       4216       4227       4226  
      4095       4096       4107       4106       4216       4217       4228       4227  
      4096       4097       4108       4107       4217       4218       4229       4228  
      4097       4098       4109       4108       4218       4219       4230       4229  
      4098       4099       4110       4109       4219       4220       4231       4230  
      4099       4100       4111       4110       4220       4221       4232       4231  
      4100       4101       4112       4111       4221       4222       4233       4232  
      4101       4102       4113       4112       4222       4223       4234       4233  
      4102       4103       4114       4113       4223       4224       4235       4234  
      4115       4116       4127       4126       4236       4237       4248       4247  
      4116       4117       4128       4127       4237       4238       4249       4248  
      4117       4118       4129       4128       4238       4239       4250       4249  
      4118       4119       4130       4129       4239       4240       4251       4250  
      4119       4120       4131       4130       4240       4241       4252       4251  
      4120       4121       4132       4131       4241       4242       4253       4252  
      4121       4122       4133       4132       4242       4243       4254       4253  
      4122       4123       4134       4133       4243       4244       4255       4254  
      4123       4124       4135       4134       4244       4245       4256       4255  
      4124       4125       4136       4135       4245       4246       4257       4256  
      4126       4127       4138       4137       4247       4248       4259       4258  
      4127       4128       4139       4138       4248       4249       4260       4259  
      4128       4129       4140       4139       4249       4250       4261       4260  
      4129       4130       4141       4140       4250       4251       4262       4261  
      4130       4131       4142       4141       4251       4252       4263       4262  
      4131       4132       4143       4142       4252       4253       4264       4263  
      4132       4133       4144       4143       4253       4254       4265       4264  
      4133       4134       4145       4144       4254       4255       4266       4265  
      4134       4135       4146       4145       4255       4256       4267       4266  
      4135       4136       4147       4146       4256       4257       4268       4267  
      4137       4138       4149       4148       4258       4259       4270       4269  
      4138       4139       4150       4149       4259       4260       4271       4270  
      4139       4140       4151       4150       4260       4261       4272       4271  
      4140       4141       4152       4151       4261       4262       4273       4272  
      4141       4142       4153       4152       4262       4263       4274       4273  
      4142       4143       4154       4153       4263       4264       4275       4274  
      4143       4144       4155       4154       4264       4265       4276       4275  
      4144       4145       4156       4155       4265       4266       4277       4276  
      4145       4146       4157       4156       4266       4267       4278       4277  
      4146       4147       4158       4157       4267       4268       4279       4278  
      4148       4149       4160       4159       4269       4270       4281       4280  
      4149       4150       4161       4160       4270       4271       4282       4281  
      4150       4151       4162       4161       4271       4272       4283       4282  
      4151       4152       4163       4162       4272       4273       4284       4283  
      4152       4153       4164       4163       4273       4274       4285       4284  
      4153       4154       4165       4164       4274       4275       4286       4285  
      4154       4155       4166       4165       4275       4276       4287       4286  
      4155       4156       4167       4166       4276       4277       4288       4287  
      4156       4157       4168       4167       4277       4278       4289       4288  
      4157       4158       4169       4168       4278       4279       4290       4289  
      4159       4160       4171       4170       4280       4281       4292       4291  
      4160       4161       4172       4171       4281       4282       4293       4292  
      4161       4162       4173       4172       4282       4283       4294       4293  
      4162       4163       4174       4173       4283       4284       4295       4294  
      4163       4164       4175       4174       4284       4285       4296       4295  
      4164       4165       4176       4175       4285       4286       4297       4296  
      4165       4166       4177       4176       4286       4287       4298       4297  
      4166       4167       4178       4177       4287       4288       4299       4298  
      4167       4168       4179       4178       4288       4289       4300       4299  
      4168       4169       4180       4179       4289       4290       4301       4300  
      4170       4171       4182       4181       4291       4292       4303       4302  
      4171       4172       4183       4182       4292       4293       4304       4303  
      4172       4173       4184       4183       4293       4294       4305       4304  
      4173       4174       4185       4184       4294       4295       4306       4305  
      4174       4175       4186       4185       4295       4296       4307       4306  
      4175       4176       4187       4186       4296       4297       4308       4307  
      4176       4177       4188       4187       4297       4298       4309       4308  
      4177       4178       4189       4188       4298       4299       4310       4309  
      4178       4179       4190       4189       4299       4300       4311       4310  
      4179       4180       4191       4190       4300       4301       4312       4311  
      4181       4182       4193       4192       4302       4303       4314       4313  
      4182       4183       4194       4193       4303       4304       4315       4314  
      4183       4184       4195       4194       4304       4305       4316       4315  
      4184       4185       4196       4195       4305       4306       4317       4316  
      4185       4186       4197       4196       4306       4307       4318       4317  
      4186       4187       4198       4197       4307       4308       4319       4318  
      4187       4188       4199       4198       4308       4309       4320       4319  
      4188       4189       4200       4199       4309       4310       4321       4320  
      4189       4190       4201       4200       4310       4311       4322       4321  
      4190       4191       4202       4201       4311       4312       4323       4322  
      4192       4193       4204       4203       4313       4314       4325       4324  
      4193       4194       4205       4204       4314       4315       4326       4325  
      4194       4195       4206       4205       4315       4316       4327       4326  
      4195       4196       4207       4206       4316       4317       4328       4327  
      4196       4197       4208       4207       4317       4318       4329       4328  
      4197       4198       4209       4208       4318       4319       4330       4329  
      4198       4199       4210       4209       4319       4320       4331       4330  
      4199       4200       4211       4210       4320       4321       4332       4331  
      4200       4201       4212       4211       4321       4322       4333       4332  
      4201       4202       4213       4212       4322       4323       4334       4333  
      4203       4204       4215       4214       4324       4325       4336       4335  
      4204       4205       4216       4215       4325       4326       4337       4336  
      4205       4206       4217       4216       4326       4327       4338       4337  
      4206       4207       4218       4217       4327       4328       4339       4338  
      4207       4208       4219       4218       4328       4329       4340       4339  
      4208       4209       4220       4219       4329       4330       4341       4340  
      4209       4210       4221       4220       4330       4331       4342       4341  
      4210       4211       4222       4221       4331       4332       4343       4342  
      4211       4212       4223       4222       4332       4333       4344       4343  
      4212       4213       4224       4223       4333       4334       4345       4344  
      4214       4215       4226       4225       4335       4336       4347       4346  
      4215       4216       4227       4226       4336       4337       4348       4347  
      4216       4217       4228       4227       4337       4338       4349       4348  
      4217       4218       4229       4228       4338       4339       4350       4349  
      4218       4219       4230       4229       4339       4340       4351       4350  
      4219       4220       4231       4230       4340       4341       4352       4351  
      4220       4221       4232       4231       4341       4342       4353       4352  
      4221       4222       4233       4232       4342       4343       4354       4353  
      4222       4223       4234       4233       4343       4344       4355       4354  
      4223       4224       4235       4234       4344       4345       4356       4355  
      4236       4237       4248       4247       4357       4358       4369       4368  
      4237       4238       4249       4248       4358       4359       4370       4369  
      4238       4239       4250       4249       4359       4360       4371       4370  
      4239       4240       4251       4250       4360       4361       4372       4371  
      4240       4241       4252       4251       4361       4362       4373       4372  
      4241       4242       4253       4252       4362       4363       4374       4373  
      4242       4243       4254       4253       4363       4364       4375       4374  
      4243       4244       4255       4254       4364       4365       4376       4375  
      4244       4245       4256       4255       4365       4366       4377       4376  
      4245       4246       4257       4256       4366       4367       4378       4377  
      4247       4248       4259       4258       4368       4369       4380       4379  
      4248       4249       4260       4259       4369       4370       4381       4380  
      4249       4250       4261       4260       4370       4371       4382       4381  
      4250       4251       4262       4261       4371       4372       4383       4382  
      4251       4252       4263       4262       4372       4373       4384       4383  
      4252       4253       4264       4263       4373       4374       4385       4384  
      4253       4254       4265       4264       4374       4375       4386       4385  
      4254       4255       4266       4265       4375       4376       4387       4386  
      4255       4256       4267       4266       4376       4377       4388       4387  
      4256       4257       4268       4267       4377       4378       4389       4388  
      4258       4259       4270       4269       4379       4380       4391       4390  
      4259       4260       4271       4270       4380       4381       4392       4391  
      4260       4261       4272       4271       4381       4382       4393       4392  
      4261       4262       4273       4272       4382       4383       4394       4393  
      4262       4263       4274       4273       4383       4384       4395       4394  
      4263       4264       4275       4274       4384       4385       4396       4395  
      4264       4265       4276       4275       4385       4386       4397       4396  
      4265       4266       4277       4276       4386       4387       4398       4397  
      4266       4267       4278       4277       4387       4388       4399       4398  
      4267       4268       4279       4278       4388       4389       4400       4399  
      4269       4270       4281       4280       4390       4391       4402       4401  
      4270       4271       4282       4281       4391       4392       4403       4402  
      4271       4272       4283       4282       4392       4393       4404       4403  
      4272       4273       4284       4283       4393       4394       4405       4404  
      4273       4274       4285       4284       4394       4395       4406       4405  
      4274       4275       4286       4285       4395       4396       4407       4406  
      4275       4276       4287       4286       4396       4397       4408       4407  
      4276       4277       4288       4287       4397       4398       4409       4408  
      4277       4278       4289       4288       4398       4399       4410       4409  
      4278       4279       4290       4289       4399       4400       4411       4410  
      4280       4281       4292       4291       4401       4402       4413       4412  
      4281       4282       4293       4292       4402       4403       4414       4413  
      4282       4283       4294       4293       4403       4404       4415       4414  
      4283       4284       4295       4294       4404       4405       4416       4415  
      4284       4285       4296       4295       4405       4406       4417       4416  
      4285       4286       4297       4296       4406       4407       4418       4417  
      4286       4287       4298       4297       4407       4408       4419       4418  
      4287       4288       4299       4298       4408       4409       4420       4419  
      4288       4289       4300       4299       4409       4410       4421       4420  
      4289       4290       4301       4300       4410       4411       4422       4421  
      4291       4292       4303       4302       4412       4413       4424       4423  
      4292       4293       4304       4303       4413       4414       4425       4424  
      4293       4294       4305       4304       4414       4415       4426       4425  
      4294       4295       4306       4305       4415       4416       4427       4426  
      4295       4296       4307       4306       4416       4417       4428       4427  
      4296       4297       4308       4307       4417       4418       4429       4428  
      4297       4298       4309       4308       4418       4419       4430       4429  
      4298       4299       4310       4309       4419       4420       4431       4430  
      4299       4300       4311       4310       4420       4421       4432       4431  
      4300       4301       4312       4311       4421       4422       4433       4432  
      4302       4303       4314       4313       4423       4424       4435       4434  
      4303       4304       4315       4314       4424       4425       4436       4435  
      4304       4305       4316       4315       4425       4426       4437       4436  
      4305       4306       4317       4316       4426       4427       4438       4437  
      4306       4307       4318       4317       4427       4428       4439       4438  
      4307       4308       4319       4318       4428       4429       4440       4439  
      4308       4309       4320       4319       4429       4430       4441       4440  
      4309       4310       4321       4320       4430       4431       4442       4441  
      4310       4311       4322       4321       4431       4432       4443       4442  
      4311       4312       4323       4322       4432       4433       4444       4443  
      4313       4314       4325       4324       4434       4435       4446       4445  
      4314       4315       4326       4325       4435       4436       4447       4446  
      4315       4316       4327       4326       4436       4437       4448       4447  
      4316       4317       4328       4327       4437       4438       4449       4448  
      4317       4318       4329       4328       4438       4439       4450       4449  
      4318       4319       4330       4329       4439       4440       4451       4450  
      4319       4320       4331       4330       4440       4441       4452       4451  
      4320       4321       4332       4331       4441       4442       4453       4452  
      4321       4322       4333       4332       4442       4443       4454       4453  
      4322       4323       4334       4333       4443       4444       4455       4454  
      4324       4325       4336       4335       4445       4446       4457       4456  
      4325       4326       4337       4336       4446       4447       4458       4457  
      4326       4327       4338       4337       4447       4448       4459       4458  
      4327       4328       4339       4338       4448       4449       4460       4459  
      4328       4329       4340       4339       4449       4450       4461       4460  
      4329       4330       4341       4340       4450       4451       4462       4461  
      4330       4331       4342       4341       4451       4452       4463       4462  
      4331       4332       4343       4342       4452       4453       4464       4463  
      4332       4333       4344       4343       4453       4454       4465       4464  
      4333       4334       4345       4344       4454       4455       4466       4465  
      4335       4336       4347       4346       4456       4457       4468       4467  
      4336       4337       4348       4347       4457       4458       4469       4468  
      4337       4338       4349       4348       4458       4459       4470       4469  
      4338       4339       4350       4349       4459       4460       4471       4470  
      4339       4340       4351       4350       4460       4461       4472       4471  
      4340       4341       4352       4351       4461       4462       4473       4472  
      4341       4342       4353       4352       4462       4463       4474       4473  
      4342       4343       4354       4353       4463       4464       4475       4474  
      4343       4344       4355       4354       4464       4465       4476       4475  
      4344       4345       4356       4355       4465       4466       4477       4476  
      4357       4358       4369       4368       4478       4479       4490       4489  
      4358       4359       4370       4369       4479       4480       4491       4490  
      4359       4360       4371       4370       4480       4481       4492       4491  
      4360       4361       4372       4371       4481       4482       4493       4492  
      4361       4362       4373       4372       4482       4483       4494       4493  
      4362       4363       4374       4373       4483       4484       4495       4494  
      4363       4364       4375       4374       4484       4485       4496       4495  
      4364       4365       4376       4375       4485       4486       4497       4496  
      4365       4366       4377       4376       4486       4487       4498       4497  
      4366       4367       4378       4377       4487       4488       4499       4498  
      4368       4369       4380       4379       4489       4490       4501       4500  
      4369       4370       4381       4380       4490       4491       4502       4501  
      4370       4371       4382       4381       4491       4492       4503       4502  
      4371       4372       4383       4382       4492       4493       4504       4503  
      4372       4373       4384       4383       4493       4494       4505       4504  
      4373       4374       4385       4384       4494       4495       4506       4505  
      4374       4375       4386       4385       4495       4496       4507       4506  
      4375       4376       4387       4386       4496       4497       4508       4507  
      4376       4377       4388       4387       4497       4498       4509       4508  
      4377       4378       4389       4388       4498       4499       4510       4509  
      4379       4380       4391       4390       4500       4501       4512       4511  
      4380       4381       4392       4391       4501       4502       4513       4512  
      4381       4382       4393       4392       4502       4503       4514       4513  
      4382       4383       4394       4393       4503       4504       4515       4514  
      4383       4384       4395       4394       4504       4505       4516       4515  
      4384       4385       4396       4395       4505       4506       4517       4516  
      4385       4386       4397       4396       4506       4507       4518       4517  
      4386       4387       4398       4397       4507       4508       4519       4518  
      4387       4388       4399       4398       4508       4509       4520       4519  
      4388       4389       4400       4399       4509       4510       4521       4520  
      4390       4391       4402       4401       4511       4512       4523       4522  
      4391       4392       4403       4402       4512       4513       4524       4523  
      4392       4393       4404       4403       4513       4514       4525       4524  
      4393       4394       4405       4404       4514       4515       4526       4525  
      4394       4395       4406       4405       4515       4516       4527       4526  
      4395       4396       4407       4406       4516       4517       4528       4527  
      4396       4397       4408       4407       4517       4518       4529       4528  
      4397       4398       4409       4408       4518       4519       4530       4529  
      4398       4399       4410       4409       4519       4520       4531       4530  
      4399       4400       4411       4410       4520       4521       4532       4531  
      4401       4402       4413       4412       4522       4523       4534       4533  
      4402       4403       4414       4413       4523       4524       4535       4534  
      4403       4404       4415       4414       4524       4525       4536       4535  
      4404       4405       4416       4415       4525       4526       4537       4536  
      4405       4406       4417       4416       4526       4527       4538       4537  
      4406       4407       4418       4417       4527       4528       4539       4538  
      4407       4408       4419       4418       4528       4529       4540       4539  
      4408       4409       4420       4419       4529       4530       4541       4540  
      4409       4410       4421       4420       4530       4531       4542       4541  
      4410       4411       4422       4421       4531       4532       4543       4542  
      4412       4413       4424       4423       4533       4534       4545       4544  
      4413       4414       4425       4424       4534       4535       4546       4545  
      4414       4415       4426       4425       4535       4536       4547       4546  
      4415       4416       4427       4426       4536       4537       4548       4547  
      4416       4417       4428       4427       4537       4538       4549       4548  
      4417       4418       4429       4428       4538       4539       4550       4549  
      4418       4419       4430       4429       4539       4540       4551       4550  
      4419       4420       4431       4430       4540       4541       4552       4551  
      4420       4421       4432       4431       4541       4542       4553       4552  
      4421       4422       4433       4432       4542       4543       4554       4553  
      4423       4424       4435       4434       4544       4545       4556       4555  
      4424       4425       4436       4435       4545       4546       4557       4556  
      4425       4426       4437       4436       4546       4547       4558       4557  
      4426       4427       4438       4437       4547       4548       4559       4558  
      4427       4428       4439       4438       4548       4549       4560       4559  
      4428       4429       4440       4439       4549       4550       4561       4560  
      4429       4430       4441       4440       4550       4551       4562       4561  
      4430       4431       4442       4441       4551       4552       4563       4562  
      4431       4432       4443       4442       4552       4553       4564       4563  
      4432       4433       4444       4443       4553       4554       4565       4564  
      4434       4435       4446       4445       4555       4556       4567       4566  
      4435       4436       4447       4446       4556       4557       4568       4567  
      4436       4437       4448       4447       4557       4558       4569       4568  
      4437       4438       4449       4448       4558       4559       4570       4569  
      4438       4439       4450       4449       4559       4560       4571       4570  
      4439       4440       4451       4450       4560       4561       4572       4571  
      4440       4441       4452       4451       4561       4562       4573       4572  
      4441       4442       4453       4452       4562       4563       4574       4573  
      4442       4443       4454       4453       4563       4564       4575       4574  
      4443       4444       4455       4454       4564       4565       4576       4575  
      4445       4446       4457       4456       4566       4567       4578       4577  
      4446       4447       4458       4457       4567       4568       4579       4578  
      4447       4448       4459       4458       4568       4569       4580       4579  
      4448       4449       4460       4459       4569       4570       4581       4580  
      4449       4450       4461       4460       4570       4571       4582       4581  
      4450       4451       4462       4461       4571       4572       4583       4582  
      4451       4452       4463       4462       4572       4573       4584       4583  
      4452       4453       4464       4463       4573       4574       4585       4584  
      4453       4454       4465       4464       4574       4575       4586       4585  
      4454       4455       4466       4465       4575       4576       4587       4586  
      4456       4457       4468       4467       4577       4578       4589       4588  
      4457       4458       4469       4468       4578       4579       4590       4589  
      4458       4459       4470       4469       4579       4580       4591       4590  
      4459       4460       4471       4470       4580       4581       4592       4591  
      4460       4461       4472       4471       4581       4582       4593       4592  
      4461       4462       4473       4472       4582       4583       4594       4593  
      4462       4463       4474       4473       4583       4584       4595       4594  
      4463       4464       4475       4474       4584       4585       4596       4595  
      4464       4465       4476       4475       4585       4586       4597       4596  
      4465       4466       4477       4476       4586       4587       4598       4597  
      4478       4479       4490       4489       4599       4600       4611       4610  
      4479       4480       4491       4490       4600       4601       4612       4611  
      4480       4481       4492       4491       4601       4602       4613       4612  
      4481       4482       4493       4492       4602       4603       4614       4613  
      4482       4483       4494       4493       4603       4604       4615       4614  
      4483       4484       4495       4494       4604       4605       4616       4615  
      4484       4485       4496       4495       4605       4606       4617       4616  
      4485       4486       4497       4496       4606       4607       4618       4617  
      4486       4487       4498       4497       4607       4608       4619       4618  
      4487       4488       4499       4498       4608       4609       4620       4619  
      4489       4490       4501       4500       4610       4611       4622       4621  
      4490       4491       4502       4501       4611       4612       4623       4622  
      4491       4492       4503       4502       4612       4613       4624       4623  
      4492       4493       4504       4503       4613       4614       4625       4624  
      4493       4494       4505       4504       4614       4615       4626       4625  
      4494       4495       4506       4505       4615       4616       4627       4626  
      4495       4496       4507       4506       4616       4617       4628       4627  
      4496       4497       4508       4507       4617       4618       4629       4628  
      4497       4498       4509       4508       4618       4619       4630       4629  
      4498       4499       4510       4509       4619       4620       4631       4630  
      4500       4501       4512       4511       4621       4622       4633       4632  
      4501       4502       4513       4512       4622       4623       4634       4633  
      4502       4503       4514       4513       4623       4624       4635       4634  
      4503       4504       4515       4514       4624       4625       4636       4635  
      4504       4505       4516       4515       4625       4626       4637       4636  
      4505       4506       4517       4516       4626       4627       4638       4637  
      4506       4507       4518       4517       4627       4628       4639       4638  
      4507       4508       4519       4518       4628       4629       4640       4639  
      4508       4509       4520       4519       4629       4630       4641       4640  
      4509       4510       4521       4520       4630       4631       4642       4641  
      4511       4512       4523       4522       4632       4633       4644       4643  
      4512       4513       4524       4523       4633       4634       4645       4644  
      4513       4514       4525       4524       4634       4635       4646       4645  
      4514       4515       4526       4525       4635       4636       4647       4646  
      4515       4516       4527       4526       4636       4637       4648       4647  
      4516       4517       4528       4527       4637       4638       4649       4648  
      4517       4518       4529       4528       4638       4639       4650       4649  
      4518       4519       4530       4529       4639       4640       4651       4650  
      4519       4520       4531       4530       4640       4641       4652       4651  
      4520       4521       4532       4531       4641       4642       4653       4652  
      4522       4523       4534       4533       4643       4644       4655       4654  
      4523       4524       4535       4534       4644       4645       4656       4655  
      4524       4525       4536       4535       4645       4646       4657       4656  
      4525       4526       4537       4536       4646       4647       4658       4657  
      4526       4527       4538       4537       4647       4648       4659       4658  
      4527       4528       4539       4538       4648       4649       4660       4659  
      4528       4529       4540       4539       4649       4650       4661       4660  
      4529       4530       4541       4540       4650       4651       4662       4661  
      4530       4531       4542       4541       4651       4652       4663       4662  
      4531       4532       4543       4542       4652       4653       4664       4663  
      4533       4534       4545       4544       4654       4655       4666       4665  
      4534       4535       4546       4545       4655       4656       4667       4666  
      4535       4536       4547       4546       4656       4657       4668       4667  
      4536       4537       4548       4547       4657       4658       4669       4668  
      4537       4538       4549       4548       4658       4659       4670       4669  
      4538       4539       4550       4549       4659       4660       4671       4670  
      4539       4540       4551       4550       4660       4661       4672       4671  
      4540       4541       4552       4551       4661       4662       4673       4672  
      4541       4542       4553       4552       4662       4663       4674       4673  
      4542       4543       4554       4553       4663       4664       4675       4674  
      4544       4545       4556       4555       4665       4666       4677       4676  
      4545       4546       4557       4556       4666       4667       4678       4677  
      4546       4547       4558       4557       4667       4668       4679       4678  
      4547       4548       4559       4558       4668       4669       4680       4679  
      4548       4549       4560       4559       4669       4670       4681       4680  
      4549       4550       4561       4560       4670       4671       4682       4681  
      4550       4551       4562       4561       4671       4672       4683       4682  
      4551       4552       4563       4562       4672       4673       4684       4683  
      4552       4553       4564       4563       4673       4674       4685       4684  
      4553       4554       4565       4564       4674       4675       4686       4685  
      4555       4556       4567       4566       4676       4677       4688       4687  
      4556       4557       4568       4567       4677       4678       4689       4688  
      4557       4558       4569       4568       4678       4679       4690       4689  
      4558       4559       4570       4569       4679       4680       4691       4690  
      4559       4560       4571       4570       4680       4681       4692       4691  
      4560       4561       4572       4571       4681       4682       4693       4692  
      4561       4562       4573       4572       4682       4683       4694       4693  
      4562       4563       4574       4573       4683       4684       4695       4694  
      4563       4564       4575       4574       4684       4685       4696       4695  
      4564       4565       4576       4575       4685       4686       4697       4696  
      4566       4567       4578       4577       4687       4688       4699       4698  
      4567       4568       4579       4578       4688       4689       4700       4699  
      4568       4569       4580       4579       4689       4690       4701       4700  
      4569       4570       4581       4580       4690       4691       4702       4701  
      4570       4571       4582       4581       4691       4692       4703       4702  
      4571       4572       4583       4582       4692       4693       4704       4703  
      4572       4573       4584       4583       4693       4694       4705       4704  
      4573       4574       4585       4584       4694       4695       4706       4705  
      4574       4575       4586       4585       4695       4696       4707       4706  
      4575       4576       4587       4586       4696       4697       4708       4707  
      4577       4578       4589       4588       4698       4699       4710       4709  
      4578       4579       4590       4589       4699       4700       4711       4710  
      4579       4580       4591       4590       4700       4701       4712       4711  
      4580       4581       4592       4591       4701       4702       4713       4712  
      4581       4582       4593       4592       4702       4703       4714       4713  
      4582       4583       4594       4593       4703       4704       4715       4714  
      4583       4584       4595       4594       4704       4705       4716       4715  
      4584       4585       4596       4595       4705       4706       4717       4716  
      4585       4586       4597       4596       4706       4707       4718       4717  
      4586       4587       4598       4597       4707       4708       4719       4718  
      4599       4600       4611       4610       4720       4721       4732       4731  
      4600       4601       4612       4611       4721       4722       4733       4732  
      4601       4602       4613       4612       4722       4723       4734       4733  
      4602       4603       4614       4613       4723       4724       4735       4734  
      4603       4604       4615       4614       4724       4725       4736       4735  
      4604       4605       4616       4615       4725       4726       4737       4736  
      4605       4606       4617       4616       4726       4727       4738       4737  
      4606       4607       4618       4617       4727       4728       4739       4738  
      4607       4608       4619       4618       4728       4729       4740       4739  
      4608       4609       4620       4619       4729       4730       4741       4740  
      4610       4611       4622       4621       4731       4732       4743       4742  
      4611       4612       4623       4622       4732       4733       4744       4743  
      4612       4613       4624       4623       4733       4734       4745       4744  
      4613       4614       4625       4624       4734       4735       4746       4745  
      4614       4615       4626       4625       4735       4736       4747       4746  
      4615       4616       4627       4626       4736       4737       4748       4747  
      4616       4617       4628       4627       4737       4738       4749       4748  
      4617       4618       4629       4628       4738       4739       4750       4749  
      4618       4619       4630       4629       4739       4740       4751       4750  
      4619       4620       4631       4630       4740       4741       4752       4751  
      4621       4622       4633       4632       4742       4743       4754       4753  
      4622       4623       4634       4633       4743       4744       4755       4754  
      4623       4624       4635       4634       4744       4745       4756       4755  
      4624       4625       4636       4635       4745       4746       4757       4756  
      4625       4626       4637       4636       4746       4747       4758       4757  
      4626       4627       4638       4637       4747       4748       4759       4758  
      4627       4628       4639       4638       4748       4749       4760       4759  
      4628       4629       4640       4639       4749       4750       4761       4760  
      4629       4630       4641       4640       4750       4751       4762       4761  
      4630       4631       4642       4641       4751       4752       4763       4762  
      4632       4633       4644       4643       4753       4754       4765       4764  
      4633       4634       4645       4644       4754       4755       4766       4765  
      4634       4635       4646       4645       4755       4756       4767       4766  
      4635       4636       4647       4646       4756       4757       4768       4767  
      4636       4637       4648       4647       4757       4758       4769       4768  
      4637       4638       4649       4648       4758       4759       4770       4769  
      4638       4639       4650       4649       4759       4760       4771       4770  
      4639       4640       4651       4650       4760       4761       4772       4771  
      4640       4641       4652       4651       4761       4762       4773       4772  
      4641       4642       4653       4652       4762       4763       4774       4773  
      4643       4644       4655       4654       4764       4765       4776       4775  
      4644       4645       4656       4655       4765       4766       4777       4776  
      4645       4646       4657       4656       4766       4767       4778       4777  
      4646       4647       4658       4657       4767       4768       4779       4778  
      4647       4648       4659       4658       4768       4769       4780       4779  
      4648       4649       4660       4659       4769       4770       4781       4780  
      4649       4650       4661       4660       4770       4771       4782       4781  
      4650       4651       4662       4661       4771       4772       4783       4782  
      4651       4652       4663       4662       4772       4773       4784       4783  
      4652       4653       4664       4663       4773       4774       4785       4784  
      4654       4655       4666       4665       4775       4776       4787       4786  
      4655       4656       4667       4666       4776       4777       4788       4787  
      4656       4657       4668       4667       4777       4778       4789       4788  
      4657       4658       4669       4668       4778       4779       4790       4789  
      4658       4659       4670       4669       4779       4780       4791       4790  
      4659       4660       4671       4670       4780       4781       4792       4791  
      4660       4661       4672       4671       4781       4782       4793       4792  
      4661       4662       4673       4672       4782       4783       4794       4793  
      4662       4663       4674       4673       4783       4784       4795       4794  
      4663       4664       4675       4674       4784       4785       4796       4795  
      4665       4666       4677       4676       4786       4787       4798       4797  
      4666       4667       4678       4677       4787       4788       4799       4798  
      4667       4668       4679       4678       4788       4789       4800       4799  
      4668       4669       4680       4679       4789       4790       4801       4800  
      4669       4670       4681       4680       4790       4791       4802       4801  
      4670       4671       4682       4681       4791       4792       4803       4802  
      4671       4672       4683       4682       4792       4793       4804       4803  
      4672       4673       4684       4683       4793       4794       4805       4804  
      4673       4674       4685       4684       4794       4795       4806       4805  
      4674       4675       4686       4685       4795       4796       4807       4806  
      4676       4677       4688       4687       4797       4798       4809       4808  
      4677       4678       4689       4688       4798       4799       4810       4809  
      4678       4679       4690       4689       4799       4800       4811       4810  
      4679       4680       4691       4690       4800       4801       4812       4811  
      4680       4681       4692       4691       4801       4802       4813       4812  
      4681       4682       4693       4692       4802       4803       4814       4813  
      4682       4683       4694       4693       4803       4804       4815       4814  
      4683       4684       4695       4694       4804       4805       4816       4815  
      4684       4685       4696       4695       4805       4806       4817       4816  
      4685       4686       4697       4696       4806       4807       4818       4817  
      4687       4688       4699       4698       4808       4809       4820       4819  
      4688       4689       4700       4699       4809       4810       4821       4820  
      4689       4690       4701       4700       4810       4811       4822       4821  
      4690       4691       4702       4701       4811       4812       4823       4822  
      4691       4692       4703       4702       4812       4813       4824       4823  
      4692       4693       4704       4703       4813       4814       4825       4824  
      4693       4694       4705       4704       4814       4815       4826       4825  
      4694       4695       4706       4705       4815       4816       4827       4826  
      4695       4696       4707       4706       4816       4817       4828       4827  
      4696       4697       4708       4707       4817       4818       4829       4828  
      4698       4699       4710       4709       4819       4820       4831       4830  
      4699       4700       4711       4710       4820       4821       4832       4831  
      4700       4701       4712       4711       4821       4822       4833       4832  
      4701       4702       4713       4712       4822       4823       4834       4833  
      4702       4703       4714       4713       4823       4824       4835       4834  
      4703       4704       4715       4714       4824       4825       4836       4835  
      4704       4705       4716       4715       4825       4826       4837       4836  
      4705       4706       4717       4716       4826       4827       4838       4837  
      4706       4707       4718       4717       4827       4828       4839       4838  
      4707       4708       4719       4718       4828       4829       4840       4839  
      4720       4721       4732       4731       4841       4842       4853       4852  
      4721       4722       4733       4732       4842       4843       4854       4853  
      4722       4723       4734       4733       4843       4844       4855       4854  
      4723       4724       4735       4734       4844       4845       4856       4855  
      4724       4725       4736       4735       4845       4846       4857       4856  
      4725       4726       4737       4736       4846       4847       4858       4857  
      4726       4727       4738       4737       4847       4848       4859       4858  
      4727       4728       4739       4738       4848       4849       4860       4859  
      4728       4729       4740       4739       4849       4850       4861       4860  
      4729       4730       4741       4740       4850       4851       4862       4861  
      4731       4732       4743       4742       4852       4853       4864       4863  
      4732       4733       4744       4743       4853       4854       4865       4864  
      4733       4734       4745       4744       4854       4855       4866       4865  
      4734       4735       4746       4745       4855       4856       4867       4866  
      4735       4736       4747       4746       4856       4857       4868       4867  
      4736       4737       4748       4747       4857       4858       4869       4868  
      4737       4738       4749       4748       4858       4859       4870       4869  
      4738       4739       4750       4749       4859       4860       4871       4870  
      4739       4740       4751       4750       4860       4861       4872       4871  
      4740       4741       4752       4751       4861       4862       4873       4872  
      4742       4743       4754       4753       4863       4864       4875       4874  
      4743       4744       4755       4754       4864       4865       4876       4875  
      4744       4745       4756       4755       4865       4866       4877       4876  
      4745       4746       4757       4756       4866       4867       4878       4877  
      4746       4747       4758       4757       4867       4868       4879       4878  
      4747       4748       4759       4758       4868       4869       4880       4879  
      4748       4749       4760       4759       4869       4870       4881       4880  
      4749       4750       4761       4760       4870       4871       4882       4881  
      4750       4751       4762       4761       4871       4872       4883       4882  
      4751       4752       4763       4762       4872       4873       4884       4883  
      4753       4754       4765       4764       4874       4875       4886       4885  
      4754       4755       4766       4765       4875       4876       4887       4886  
      4755       4756       4767       4766       4876       4877       4888       4887  
      4756       4757       4768       4767       4877       4878       4889       4888  
      4757       4758       4769       4768       4878       4879       4890       4889  
      4758       4759       4770       4769       4879       4880       4891       4890  
      4759       4760       4771       4770       4880       4881       4892       4891  
      4760       4761       4772       4771       4881       4882       4893       4892  
      4761       4762       4773       4772       4882       4883       4894       4893  
      4762       4763       4774       4773       4883       4884       4895       4894  
      4764       4765       4776       4775       4885       4886       4897       4896  
      4765       4766       4777       4776       4886       4887       4898       4897  
      4766       4767       4778       4777       4887       4888       4899       4898  
      4767       4768       4779       4778       4888       4889       4900       4899  
      4768       4769       4780       4779       4889       4890       4901       4900  
      4769       4770       4781       4780       4890       4891       4902       4901  
      4770       4771       4782       4781       4891       4892       4903       4902  
      4771       4772       4783       4782       4892       4893       4904       4903  
      4772       4773       4784       4783       4893       4894       4905       4904  
      4773       4774       4785       4784       4894       4895       4906       4905  
      4775       4776       4787       4786       4896       4897       4908       4907  
      4776       4777       4788       4787       4897       4898       4909       4908  
      4777       4778       4789       4788       4898       4899       4910       4909  
      4778       4779       4790       4789       4899       4900       4911       4910  
      4779       4780       4791       4790       4900       4901       4912       4911  
      4780       4781       4792       4791       4901       4902       4913       4912  
      4781       4782       4793       4792       4902       4903       4914       4913  
      4782       4783       4794       4793       4903       4904       4915       4914  
      4783       4784       4795       4794       4904       4905       4916       4915  
      4784       4785       4796       4795       4905       4906       4917       4916  
      4786       4787       4798       4797       4907       4908       4919       4918  
      4787       4788       4799       4798       4908       4909       4920       4919  
      4788       4789       4800       4799       4909       4910       4921       4920  
      4789       4790       4801       4800       4910       4911       4922       4921  
      4790       4791       4802       4801       4911       4912       4923       4922  
      4791       4792       4803       4802       4912       4913       4924       4923  
      4792       4793       4804       4803       4913       4914       4925       4924  
      4793       4794       4805       4804       4914       4915       4926       4925  
      4794       4795       4806       4805       4915       4916       4927       4926  
      4795       4796       4807       4806       4916       4917       4928       4927  
      4797       4798       4809       4808       4918       4919       4930       4929  
      4798       4799       4810       4809       4919       4920       4931       4930  
      4799       4800       4811       4810       4920       4921       4932       4931  
      4800       4801       4812       4811       4921       4922       4933       4932  
      4801       4802       4813       4812       4922       4923       4934       4933  
      4802       4803       4814       4813       4923       4924       4935       4934  
      4803       4804       4815       4814       4924       4925       4936       4935  
      4804       4805       4816       4815       4925       4926       4937       4936  
      4805       4806       4817       4816       4926       4927       4938       4937  
      4806       4807       4818       4817       4927       4928       4939       4938  
      4808       4809       4820       4819       4929       4930       4941       4940  
      4809       4810       4821       4820       4930       4931       4942       4941  
      4810       4811       4822       4821       4931       4932       4943       4942  
      4811       4812       4823       4822       4932       4933       4944       4943  
      4812       4813       4824       4823       4933       4934       4945       4944  
      4813       4814       4825       4824       4934       4935       4946       4945  
      4814       4815       4826       4825       4935       4936       4947       4946  
      4815       4816       4827       4826       4936       4937       4948       4947  
      4816       4817       4828       4827       4937       4938       4949       4948  
      4817       4818       4829       4828       4938       4939       4950       4949  
      4819       4820       4831       4830       4940       4941       4952       4951  
      4820       4821       4832       4831       4941       4942       4953       4952  
      4821       4822       4833       4832       4942       4943       4954       4953  
      4822       4823       4834       4833       4943       4944       4955       4954  
      4823       4824       4835       4834       4944       4945       4956       4955  
      4824       4825       4836       4835       4945       4946       4957       4956  
      4825       4826       4837       4836       4946       4947       4958       4957  
      4826       4827       4838       4837       4947       4948       4959       4958  
      4827       4828       4839       4838       4948       4949       4960       4959  
      4828       4829       4840       4839       4949       4950       4961       4960  
      4841       4842       4853       4852       4962       4963       4974       4973  
      4842       4843       4854       4853       4963       4964       4975       4974  
      4843       4844       4855       4854       4964       4965       4976       4975  
      4844       4845       4856       4855       4965       4966       4977       4976  
      4845       4846       4857       4856       4966       4967       4978       4977  
      4846       4847       4858       4857       4967       4968       4979       4978  
      4847       4848       4859       4858       4968       4969       4980       4979  
      4848       4849       4860       4859       4969       4970       4981       4980  
      4849       4850       4861       4860       4970       4971       4982       4981  
      4850       4851       4862       4861       4971       4972       4983       4982  
      4852       4853       4864       4863       4973       4974       4985       4984  
      4853       4854       4865       4864       4974       4975       4986       4985  
      4854       4855       4866       4865       4975       4976       4987       4986  
      4855       4856       4867       4866       4976       4977       4988       4987  
      4856       4857       4868       4867       4977       4978       4989       4988  
      4857       4858       4869       4868       4978       4979       4990       4989  
      4858       4859       4870       4869       4979       4980       4991       4990  
      4859       4860       4871       4870       4980       4981       4992       4991  
      4860       4861       4872       4871       4981       4982       4993       4992  
      4861       4862       4873       4872       4982       4983       4994       4993  
      4863       4864       4875       4874       4984       4985       4996       4995  
      4864       4865       4876       4875       4985       4986       4997       4996  
      4865       4866       4877       4876       4986       4987       4998       4997  
      4866       4867       4878       4877       4987       4988       4999       4998  
      4867       4868       4879       4878       4988       4989       5000       4999  
      4868       4869       4880       4879       4989       4990       5001       5000  
      4869       4870       4881       4880       4990       4991       5002       5001  
      4870       4871       4882       4881       4991       4992       5003       5002  
      4871       4872       4883       4882       4992       4993       5004       5003  
      4872       4873       4884       4883       4993       4994       5005       5004  
      4874       4875       4886       4885       4995       4996       5007       5006  
      4875       4876       4887       4886       4996       4997       5008       5007  
      4876       4877       4888       4887       4997       4998       5009       5008  
      4877       4878       4889       4888       4998       4999       5010       5009  
      4878       4879       4890       4889       4999       5000       5011       5010  
      4879       4880       4891       4890       5000       5001       5012       5011  
      4880       4881       4892       4891       5001       5002       5013       5012  
      4881       4882       4893       4892       5002       5003       5014       5013  
      4882       4883       4894       4893       5003       5004       5015       5014  
      4883       4884       4895       4894       5004       5005       5016       5015  
      4885       4886       4897       4896       5006       5007       5018       5017  
      4886       4887       4898       4897       5007       5008       5019       5018  
      4887       4888       4899       4898       5008       5009       5020       5019  
      4888       4889       4900       4899       5009       5010       5021       5020  
      4889       4890       4901       4900       5010       5011       5022       5021  
      4890       4891       4902       4901       5011       5012       5023       5022  
      4891       4892       4903       4902       5012       5013       5024       5023  
      4892       4893       4904       4903       5013       5014       5025       5024  
      4893       4894       4905       4904       5014       5015       5026       5025  
      4894       4895       4906       4905       5015       5016       5027       5026  
      4896       4897       4908       4907       5017       5018       5029       5028  
      4897       4898       4909       4908       5018       5019       5030       5029  
      4898       4899       4910       4909       5019       5020       5031       5030  
      4899       4900       4911       4910       5020       5021       5032       5031  
      4900       4901       4912       4911       5021       5022       5033       5032  
      4901       4902       4913       4912       5022       5023       5034       5033  
      4902       4903       4914       4913       5023       5024       5035       5034  
      4903       4904       4915       4914       5024       5025       5036       5035  
      4904       4905       4916       4915       5025       5026       5037       5036  
      4905       4906       4917       4916       5026       5027       5038       5037  
      4907       4908       4919       4918       5028       5029       5040       5039  
      4908       4909       4920       4919       5029       5030       5041       5040  
      4909       4910       4921       4920       5030       5031       5042       5041  
      4910       4911       4922       4921       5031       5032       5043       5042  
      4911       4912       4923       4922       5032       5033       5044       5043  
      4912       4913       4924       4923       5033       5034       5045       5044  
      4913       4914       4925       4924       5034       5035       5046       5045  
      4914       4915       4926       4925       5035       5036       5047       5046  
      4915       4916       4927       4926       5036       5037       5048       5047  
      4916       4917       4928       4927       5037       5038       5049       5048  
      4918       4919       4930       4929       5039       5040       5051       5050  
      4919       4920       4931       4930       5040       5041       5052       5051  
      4920       4921       4932       4931       5041       5042       5053       5052  
      4921       4922       4933       4932       5042       5043       5054       5053  
      4922       4923       4934       4933       5043       5044       5055       5054  
      4923       4924       4935       4934       5044       5045       5056       5055  
      4924       4925       4936       4935       5045       5046       5057       5056  
      4925       4926       4937       4936       5046       5047       5058       5057  
      4926       4927       4938       4937       5047       5048       5059       5058  
      4927       4928       4939       4938       5048       5049       5060       5059  
      4929       4930       4941       4940       5050       5051       5062       5061  
      4930       4931       4942       4941       5051       5052       5063       5062  
      4931       4932       4943       4942       5052       5053       5064       5063  
      4932       4933       4944       4943       5053       5054       5065       5064  
      4933       4934       4945       4944       5054       5055       5066       5065  
      4934       4935       4946       4945       5055       5056       5067       5066  
      4935       4936       4947       4946       5056       5057       5068       5067  
      4936       4937       4948       4947       5057       5058       5069       5068  
      4937       4938       4949       4948       5058       5059       5070       5069  
      4938       4939       4950       4949       5059       5060       5071       5070  
      4940       4941       4952       4951       5061       5062       5073       5072  
      4941       4942       4953       4952       5062       5063       5074       5073  
      4942       4943       4954       4953       5063       5064       5075       5074  
      4943       4944       4955       4954       5064       5065       5076       5075  
      4944       4945       4956       4955       5065       5066       5077       5076  
      4945       4946       4957       4956       5066       5067       5078       5077  
      4946       4947       4958       4957       5067       5068       5079       5078  
      4947       4948       4959       4958       5068       5069       5080       5079  
      4948       4949       4960       4959       5069       5070       5081       5080  
      4949       4950       4961       4960       5070       5071       5082       5081  
      4962       4963       4974       4973       5083       5084       5095       5094  
      4963       4964       4975       4974       5084       5085       5096       5095  
      4964       4965       4976       4975       5085       5086       5097       5096  
      4965       4966       4977       4976       5086       5087       5098       5097  
      4966       4967       4978       4977       5087       5088       5099       5098  
      4967       4968       4979       4978       5088       5089       5100       5099  
      4968       4969       4980       4979       5089       5090       5101       5100  
      4969       4970       4981       4980       5090       5091       5102       5101  
      4970       4971       4982       4981       5091       5092       5103       5102  
      4971       4972       4983       4982       5092       5093       5104       5103  
      4973       4974       4985       4984       5094       5095       5106       5105  
      4974       4975       4986       4985       5095       5096       5107       5106  
      4975       4976       4987       4986       5096       5097       5108       5107  
      4976       4977       4988       4987       5097       5098       5109       5108  
      4977       4978       4989       4988       5098       5099       5110       5109  
      4978       4979       4990       4989       5099       5100       5111       5110  
      4979       4980       4991       4990       5100       5101       5112       5111  
      4980       4981       4992       4991       5101       5102       5113       5112  
      4981       4982       4993       4992       5102       5103       5114       5113  
      4982       4983       4994       4993       5103       5104       5115       5114  
      4984       4985       4996       4995       5105       5106       5117       5116  
      4985       4986       4997       4996       5106       5107       5118       5117  
      4986       4987       4998       4997       5107       5108       5119       5118  
      4987       4988       4999       4998       5108       5109       5120       5119  
      4988       4989       5000       4999       5109       5110       5121       5120  
      4989       4990       5001       5000       5110       5111       5122       5121  
      4990       4991       5002       5001       5111       5112       5123       5122  
      4991       4992       5003       5002       5112       5113       5124       5123  
      4992       4993       5004       5003       5113       5114       5125       5124  
      4993       4994       5005       5004       5114       5115       5126       5125  
      4995       4996       5007       5006       5116       5117       5128       5127  
      4996       4997       5008       5007       5117       5118       5129       5128  
      4997       4998       5009       5008       5118       5119       5130       5129  
      4998       4999       5010       5009       5119       5120       5131       5130  
      4999       5000       5011       5010       5120       5121       5132       5131  
      5000       5001       5012       5011       5121       5122       5133       5132  
      5001       5002       5013       5012       5122       5123       5134       5133  
      5002       5003       5014       5013       5123       5124       5135       5134  
      5003       5004       5015       5014       5124       5125       5136       5135  
      5004       5005       5016       5015       5125       5126       5137       5136  
      5006       5007       5018       5017       5127       5128       5139       5138  
      5007       5008       5019       5018       5128       5129       5140       5139  
      5008       5009       5020       5019       5129       5130       5141       5140  
      5009       5010       5021       5020       5130       5131       5142       5141  
      5010       5011       5022       5021       5131       5132       5143       5142  
      5011       5012       5023       5022       5132       5133       5144       5143  
      5012       5013       5024       5023       5133       5134       5145       5144  
      5013       5014       5025       5024       5134       5135       5146       5145  
      5014       5015       5026       5025       5135       5136       5147       5146  
      5015       5016       5027       5026       5136       5137       5148       5147  
      5017       5018       5029       5028       5138       5139       5150       5149  
      5018       5019       5030       5029       5139       5140       5151       5150  
      5019       5020       5031       5030       5140       5141       5152       5151  
      5020       5021       5032       5031       5141       5142       5153       5152  
      5021       5022       5033       5032       5142       5143       5154       5153  
      5022       5023       5034       5033       5143       5144       5155       5154  
      5023       5024       5035       5034       5144       5145       5156       5155  
      5024       5025       5036       5035       5145       5146       5157       5156  
      5025       5026       5037       5036       5146       5147       5158       5157  
      5026       5027       5038       5037       5147       5148       5159       5158  
      5028       5029       5040       5039       5149       5150       5161       5160  
      5029       5030       5041       5040       5150       5151       5162       5161  
      5030       5031       5042       5041       5151       5152       5163       5162  
      5031       5032       5043       5042       5152       5153       5164       5163  
      5032       5033       5044       5043       5153       5154       5165       5164  
      5033       5034       5045       5044       5154       5155       5166       5165  
      5034       5035       5046       5045       5155       5156       5167       5166  
      5035       5036       5047       5046       5156       5157       5168       5167  
      5036       5037       5048       5047       5157       5158       5169       5168  
      5037       5038       5049       5048       5158       5159       5170       5169  
      5039       5040       5051       5050       5160       5161       5172       5171  
      5040       5041       5052       5051       5161       5162       5173       5172  
      5041       5042       5053       5052       5162       5163       5174       5173  
      5042       5043       5054       5053       5163       5164       5175       5174  
      5043       5044       5055       5054       5164       5165       5176       5175  
      5044       5045       5056       5055       5165       5166       5177       5176  
      5045       5046       5057       5056       5166       5167       5178       5177  
      5046       5047       5058       5057       5167       5168       5179       5178  
      5047       5048       5059       5058       5168       5169       5180       5179  
      5048       5049       5060       5059       5169       5170       5181       5180  
      5050       5051       5062       5061       5171       5172       5183       5182  
      5051       5052       5063       5062       5172       5173       5184       5183  
      5052       5053       5064       5063       5173       5174       5185       5184  
      5053       5054       5065       5064       5174       5175       5186       5185  
      5054       5055       5066       5065       5175       5176       5187       5186  
      5055       5056       5067       5066       5176       5177       5188       5187  
      5056       5057       5068       5067       5177       5178       5189       5188  
      5057       5058       5069       5068       5178       5179       5190       5189  
      5058       5059       5070       5069       5179       5180       5191       5190  
      5059       5060       5071       5070       5180       5181       5192       5191  
      5061       5062       5073       5072       5182       5183       5194       5193  
      5062       5063       5074       5073       5183       5184       5195       5194  
      5063       5064       5075       5074       5184       5185       5196       5195  
      5064       5065       5076       5075       5185       5186       5197       5196  
      5065       5066       5077       5076       5186       5187       5198       5197  
      5066       5067       5078       5077       5187       5188       5199       5198  
      5067       5068       5079       5078       5188       5189       5200       5199  
      5068       5069       5080       5079       5189       5190       5201       5200  
      5069       5070       5081       5080       5190       5191       5202       5201  
      5070       5071       5082       5081       5191       5192       5203       5202  
      5083       5084       5095       5094       5204       5205       5216       5215  
      5084       5085       5096       5095       5205       5206       5217       5216  
      5085       5086       5097       5096       5206       5207       5218       5217  
      5086       5087       5098       5097       5207       5208       5219       5218  
      5087       5088       5099       5098       5208       5209       5220       5219  
      5088       5089       5100       5099       5209       5210       5221       5220  
      5089       5090       5101       5100       5210       5211       5222       5221  
      5090       5091       5102       5101       5211       5212       5223       5222  
      5091       5092       5103       5102       5212       5213       5224       5223  
      5092       5093       5104       5103       5213       5214       5225       5224  
      5094       5095       5106       5105       5215       5216       5227       5226  
      5095       5096       5107       5106       5216       5217       5228       5227  
      5096       5097       5108       5107       5217       5218       5229       5228  
      5097       5098       5109       5108       5218       5219       5230       5229  
      5098       5099       5110       5109       5219       5220       5231       5230  
      5099       5100       5111       5110       5220       5221       5232       5231  
      5100       5101       5112       5111       5221       5222       5233       5232  
      5101       5102       5113       5112       5222       5223       5234       5233  
      5102       5103       5114       5113       5223       5224       5235       5234  
      5103       5104       5115       5114       5224       5225       5236       5235  
      5105       5106       5117       5116       5226       5227       5238       5237  
      5106       5107       5118       5117       5227       5228       5239       5238  
      5107       5108       5119       5118       5228       5229       5240       5239  
      5108       5109       5120       5119       5229       5230       5241       5240  
      5109       5110       5121       5120       5230       5231       5242       5241  
      5110       5111       5122       5121       5231       5232       5243       5242  
      5111       5112       5123       5122       5232       5233       5244       5243  
      5112       5113       5124       5123       5233       5234       5245       5244  
      5113       5114       5125       5124       5234       5235       5246       5245  
      5114       5115       5126       5125       5235       5236       5247       5246  
      5116       5117       5128       5127       5237       5238       5249       5248  
      5117       5118       5129       5128       5238       5239       5250       5249  
      5118       5119       5130       5129       5239       5240       5251       5250  
      5119       5120       5131       5130       5240       5241       5252       5251  
      5120       5121       5132       5131       5241       5242       5253       5252  
      5121       5122       5133       5132       5242       5243       5254       5253  
      5122       5123       5134       5133       5243       5244       5255       5254  
      5123       5124       5135       5134       5244       5245       5256       5255  
      5124       5125       5136       5135       5245       5246       5257       5256  
      5125       5126       5137       5136       5246       5247       5258       5257  
      5127       5128       5139       5138       5248       5249       5260       5259  
      5128       5129       5140       5139       5249       5250       5261       5260  
      5129       5130       5141       5140       5250       5251       5262       5261  
      5130       5131       5142       5141       5251       5252       5263       5262  
      5131       5132       5143       5142       5252       5253       5264       5263  
      5132       5133       5144       5143       5253       5254       5265       5264  
      5133       5134       5145       5144       5254       5255       5266       5265  
      5134       5135       5146       5145       5255       5256       5267       5266  
      5135       5136       5147       5146       5256       5257       5268       5267  
      5136       5137       5148       5147       5257       5258       5269       5268  
      5138       5139       5150       5149       5259       5260       5271       5270  
      5139       5140       5151       5150       5260       5261       5272       5271  
      5140       5141       5152       5151       5261       5262       5273       5272  
      5141       5142       5153       5152       5262       5263       5274       5273  
      5142       5143       5154       5153       5263       5264       5275       5274  
      5143       5144       5155       5154       5264       5265       5276       5275  
      5144       5145       5156       5155       5265       5266       5277       5276  
      5145       5146       5157       5156       5266       5267       5278       5277  
      5146       5147       5158       5157       5267       5268       5279       5278  
      5147       5148       5159       5158       5268       5269       5280       5279  
      5149       5150       5161       5160       5270       5271       5282       5281  
      5150       5151       5162       5161       5271       5272       5283       5282  
      5151       5152       5163       5162       5272       5273       5284       5283  
      5152       5153       5164       5163       5273       5274       5285       5284  
      5153       5154       5165       5164       5274       5275       5286       5285  
      5154       5155       5166       5165       5275       5276       5287       5286  
      5155       5156       5167       5166       5276       5277       5288       5287  
      5156       5157       5168       5167       5277       5278       5289       5288  
      5157       5158       5169       5168       5278       5279       5290       5289  
      5158       5159       5170       5169       5279       5280       5291       5290  
      5160       5161       5172       5171       5281       5282       5293       5292  
      5161       5162       5173       5172       5282       5283       5294       5293  
      5162       5163       5174       5173       5283       5284       5295       5294  
      5163       5164       5175       5174       5284       5285       5296       5295  
      5164       5165       5176       5175       5285       5286       5297       5296  
      5165       5166       5177       5176       5286       5287       5298       5297  
      5166       5167       5178       5177       5287       5288       5299       5298  
      5167       5168       5179       5178       5288       5289       5300       5299  
      5168       5169       5180       5179       5289       5290       5301       5300  
      5169       5170       5181       5180       5290       5291       5302       5301  
      5171       5172       5183       5182       5292       5293       5304       5303  
      5172       5173       5184       5183       5293       5294       5305       5304  
      5173       5174       5185       5184       5294       5295       5306       5305  
      5174       5175       5186       5185       5295       5296       5307       5306  
      5175       5176       5187       5186       5296       5297       5308       5307  
      5176       5177       5188       5187       5297       5298       5309       5308  
      5177       5178       5189       5188       5298       5299       5310       5309  
      5178       5179       5190       5189       5299       5300       5311       5310  
      5179       5180       5191       5190       5300       5301       5312       5311  
      5180       5181       5192       5191       5301       5302       5313       5312  
      5182       5183       5194       5193       5303       5304       5315       5314  
      5183       5184       5195       5194       5304       5305       5316       5315  
      5184       5185       5196       5195       5305       5306       5317       5316  
      5185       5186       5197       5196       5306       5307       5318       5317  
      5186       5187       5198       5197       5307       5308       5319       5318  
      5187       5188       5199       5198       5308       5309       5320       5319  
      5188       5189       5200       5199       5309       5310       5321       5320  
      5189       5190       5201       5200       5310       5311       5322       5321  
      5190       5191       5202       5201       5311       5312       5323       5322  
      5191       5192       5203       5202       5312       5313       5324       5323  
      5204       5205       5216       5215       5325       5326       5337       5336  
      5205       5206       5217       5216       5326       5327       5338       5337  
      5206       5207       5218       5217       5327       5328       5339       5338  
      5207       5208       5219       5218       5328       5329       5340       5339  
      5208       5209       5220       5219       5329       5330       5341       5340  
      5209       5210       5221       5220       5330       5331       5342       5341  
      5210       5211       5222       5221       5331       5332       5343       5342  
      5211       5212       5223       5222       5332       5333       5344       5343  
      5212       5213       5224       5223       5333       5334       5345       5344  
      5213       5214       5225       5224       5334       5335       5346       5345  
      5215       5216       5227       5226       5336       5337       5348       5347  
      5216       5217       5228       5227       5337       5338       5349       5348  
      5217       5218       5229       5228       5338       5339       5350       5349  
      5218       5219       5230       5229       5339       5340       5351       5350  
      5219       5220       5231       5230       5340       5341       5352       5351  
      5220       5221       5232       5231       5341       5342       5353       5352  
      5221       5222       5233       5232       5342       5343       5354       5353  
      5222       5223       5234       5233       5343       5344       5355       5354  
      5223       5224       5235       5234       5344       5345       5356       5355  
      5224       5225       5236       5235       5345       5346       5357       5356  
      5226       5227       5238       5237       5347       5348       5359       5358  
      5227       5228       5239       5238       5348       5349       5360       5359  
      5228       5229       5240       5239       5349       5350       5361       5360  
      5229       5230       5241       5240       5350       5351       5362       5361  
      5230       5231       5242       5241       5351       5352       5363       5362  
      5231       5232       5243       5242       5352       5353       5364       5363  
      5232       5233       5244       5243       5353       5354       5365       5364  
      5233       5234       5245       5244       5354       5355       5366       5365  
      5234       5235       5246       5245       5355       5356       5367       5366  
      5235       5236       5247       5246       5356       5357       5368       5367  
      5237       5238       5249       5248       5358       5359       5370       5369  
      5238       5239       5250       5249       5359       5360       5371       5370  
      5239       5240       5251       5250       5360       5361       5372       5371  
      5240       5241       5252       5251       5361       5362       5373       5372  
      5241       5242       5253       5252       5362       5363       5374       5373  
      5242       5243       5254       5253       5363       5364       5375       5374  
      5243       5244       5255       5254       5364       5365       5376       5375  
      5244       5245       5256       5255       5365       5366       5377       5376  
      5245       5246       5257       5256       5366       5367       5378       5377  
      5246       5247       5258       5257       5367       5368       5379       5378  
      5248       5249       5260       5259       5369       5370       5381       5380  
      5249       5250       5261       5260       5370       5371       5382       5381  
      5250       5251       5262       5261       5371       5372       5383       5382  
      5251       5252       5263       5262       5372       5373       5384       5383  
      5252       5253       5264       5263       5373       5374       5385       5384  
      5253       5254       5265       5264       5374       5375       5386       5385  
      5254       5255       5266       5265       5375       5376       5387       5386  
      5255       5256       5267       5266       5376       5377       5388       5387  
      5256       5257       5268       5267       5377       5378       5389       5388  
      5257       5258       5269       5268       5378       5379       5390       5389  
      5259       5260       5271       5270       5380       5381       5392       5391  
      5260       5261       5272       5271       5381       5382       5393       5392  
      5261       5262       5273       5272       5382       5383       5394       5393  
      5262       5263       5274       5273       5383       5384       5395       5394  
      5263       5264       5275       5274       5384       5385       5396       5395  
      5264       5265       5276       5275       5385       5386       5397       5396  
      5265       5266       5277       5276       5386       5387       5398       5397  
      5266       5267       5278       5277       5387       5388       5399       5398  
      5267       5268       5279       5278       5388       5389       5400       5399  
      5268       5269       5280       5279       5389       5390       5401       5400  
      5270       5271       5282       5281       5391       5392       5403       5402  
      5271       5272       5283       5282       5392       5393       5404       5403  
      5272       5273       5284       5283       5393       5394       5405       5404  
      5273       5274       5285       5284       5394       5395       5406       5405  
      5274       5275       5286       5285       5395       5396       5407       5406  
      5275       5276       5287       5286       5396       5397       5408       5407  
      5276       5277       5288       5287       5397       5398       5409       5408  
      5277       5278       5289       5288       5398       5399       5410       5409  
      5278       5279       5290       5289       5399       5400       5411       5410  
      5279       5280       5291       5290       5400       5401       5412       5411  
      5281       5282       5293       5292       5402       5403       5414       5413  
      5282       5283       5294       5293       5403       5404       5415       5414  
      5283       5284       5295       5294       5404       5405       5416       5415  
      5284       5285       5296       5295       5405       5406       5417       5416  
      5285       5286       5297       5296       5406       5407       5418       5417  
      5286       5287       5298       5297       5407       5408       5419       5418  
      5287       5288       5299       5298       5408       5409       5420       5419  
      5288       5289       5300       5299       5409       5410       5421       5420  
      5289       5290       5301       5300       5410       5411       5422       5421  
      5290       5291       5302       5301       5411       5412       5423       5422  
      5292       5293       5304       5303       5413       5414       5425       5424  
      5293       5294       5305       5304       5414       5415       5426       5425  
      5294       5295       5306       5305       5415       5416       5427       5426  
      5295       5296       5307       5306       5416       5417       5428       5427  
      5296       5297       5308       5307       5417       5418       5429       5428  
      5297       5298       5309       5308       5418       5419       5430       5429  
      5298       5299       5310       5309       5419       5420       5431       5430  
      5299       5300       5311       5310       5420       5421       5432       5431  
      5300       5301       5312       5311       5421       5422       5433       5432  
      5301       5302       5313       5312       5422       5423       5434       5433  
      5303       5304       5315       5314       5424       5425       5436       5435  
      5304       5305       5316       5315       5425       5426       5437       5436  
      5305       5306       5317       5316       5426       5427       5438       5437  
      5306       5307       5318       5317       5427       5428       5439       5438  
      5307       5308       5319       5318       5428       5429       5440       5439  
      5308       5309       5320       5319       5429       5430       5441       5440  
      5309       5310       5321       5320       5430       5431       5442       5441  
      5310       5311       5322       5321       5431       5432       5443       5442  
      5311       5312       5323       5322       5432       5433       5444       5443  
      5312       5313       5324       5323       5433       5434       5445       5444  
      5325       5326       5337       5336       5446       5447       5458       5457  
      5326       5327       5338       5337       5447       5448       5459       5458  
      5327       5328       5339       5338       5448       5449       5460       5459  
      5328       5329       5340       5339       5449       5450       5461       5460  
      5329       5330       5341       5340       5450       5451       5462       5461  
      5330       5331       5342       5341       5451       5452       5463       5462  
      5331       5332       5343       5342       5452       5453       5464       5463  
      5332       5333       5344       5343       5453       5454       5465       5464  
      5333       5334       5345       5344       5454       5455       5466       5465  
      5334       5335       5346       5345       5455       5456       5467       5466  
      5336       5337       5348       5347       5457       5458       5469       5468  
      5337       5338       5349       5348       5458       5459       5470       5469  
      5338       5339       5350       5349       5459       5460       5471       5470  
      5339       5340       5351       5350       5460       5461       5472       5471  
      5340       5341       5352       5351       5461       5462       5473       5472  
      5341       5342       5353       5352       5462       5463       5474       5473  
      5342       5343       5354       5353       5463       5464       5475       5474  
      5343       5344       5355       5354       5464       5465       5476       5475  
      5344       5345       5356       5355       5465       5466       5477       5476  
      5345       5346       5357       5356       5466       5467       5478       5477  
      5347       5348       5359       5358       5468       5469       5480       5479  
      5348       5349       5360       5359       5469       5470       5481       5480  
      5349       5350       5361       5360       5470       5471       5482       5481  
      5350       5351       5362       5361       5471       5472       5483       5482  
      5351       5352       5363       5362       5472       5473       5484       5483  
      5352       5353       5364       5363       5473       5474       5485       5484  
      5353       5354       5365       5364       5474       5475       5486       5485  
      5354       5355       5366       5365       5475       5476       5487       5486  
      5355       5356       5367       5366       5476       5477       5488       5487  
      5356       5357       5368       5367       5477       5478       5489       5488  
      5358       5359       5370       5369       5479       5480       5491       5490  
      5359       5360       5371       5370       5480       5481       5492       5491  
      5360       5361       5372       5371       5481       5482       5493       5492  
      5361       5362       5373       5372       5482       5483       5494       5493  
      5362       5363       5374       5373       5483       5484       5495       5494  
      5363       5364       5375       5374       5484       5485       5496       5495  
      5364       5365       5376       5375       5485       5486       5497       5496  
      5365       5366       5377       5376       5486       5487       5498       5497  
      5366       5367       5378       5377       5487       5488       5499       5498  
      5367       5368       5379       5378       5488       5489       5500       5499  
      5369       5370       5381       5380       5490       5491       5502       5501  
      5370       5371       5382       5381       5491       5492       5503       5502  
      5371       5372       5383       5382       5492       5493       5504       5503  
      5372       5373       5384       5383       5493       5494       5505       5504  
      5373       5374       5385       5384       5494       5495       5506       5505  
      5374       5375       5386       5385       5495       5496       5507       5506  
      5375       5376       5387       5386       5496       5497       5508       5507  
      5376       5377       5388       5387       5497       5498       5509       5508  
      5377       5378       5389       5388       5498       5499       5510       5509  
      5378       5379       5390       5389       5499       5500       5511       5510  
      5380       5381       5392       5391       5501       5502       5513       5512  
      5381       5382       5393       5392       5502       5503       5514       5513  
      5382       5383       5394       5393       5503       5504       5515       5514  
      5383       5384       5395       5394       5504       5505       5516       5515  
      5384       5385       5396       5395       5505       5506       5517       5516  
      5385       5386       5397       5396       5506       5507       5518       5517  
      5386       5387       5398       5397       5507       5508       5519       5518  
      5387       5388       5399       5398       5508       5509       5520       5519  
      5388       5389       5400       5399       5509       5510       5521       5520  
      5389       5390       5401       5400       5510       5511       5522       5521  
      5391       5392       5403       5402       5512       5513       5524       5523  
      5392       5393       5404       5403       5513       5514       5525       5524  
      5393       5394       5405       5404       5514       5515       5526       5525  
      5394       5395       5406       5405       5515       5516       5527       5526  
      5395       5396       5407       5406       5516       5517       5528       5527  
      5396       5397       5408       5407       5517       5518       5529       5528  
      5397       5398       5409       5408       5518       5519       5530       5529  
      5398       5399       5410       5409       5519       5520       5531       5530  
      5399       5400       5411       5410       5520       5521       5532       5531  
      5400       5401       5412       5411       5521       5522       5533       5532  
      5402       5403       5414       5413       5523       5524       5535       5534  
      5403       5404       5415       5414       5524       5525       5536       5535  
      5404       5405       5416       5415       5525       5526       5537       5536  
      5405       5406       5417       5416       5526       5527       5538       5537  
      5406       5407       5418       5417       5527       5528       5539       5538  
      5407       5408       5419       5418       5528       5529       5540       5539  
      5408       5409       5420       5419       5529       5530       5541       5540  
      5409       5410       5421       5420       5530       5531       5542       5541  
      5410       5411       5422       5421       5531       5532       5543       5542  
      5411       5412       5423       5422       5532       5533       5544       5543  
      5413       5414       5425       5424       5534       5535       5546       5545  
      5414       5415       5426       5425       5535       5536       5547       5546  
      5415       5416       5427       5426       5536       5537       5548       5547  
      5416       5417       5428       5427       5537       5538       5549       5548  
      5417       5418       5429       5428       5538       5539       5550       5549  
      5418       5419       5430       5429       5539       5540       5551       5550  
      5419       5420       5431       5430       5540       5541       5552       5551  
      5420       5421       5432       5431       5541       5542       5553       5552  
      5421       5422       5433       5432       5542       5543       5554       5553  
      5422       5423       5434       5433       5543       5544       5555       5554  
      5424       5425       5436       5435       5545       5546       5557       5556  
      5425       5426       5437       5436       5546       5547       5558       5557  
      5426       5427       5438       5437       5547       5548       5559       5558  
      5427       5428       5439       5438       5548       5549       5560       5559  
      5428       5429       5440       5439       5549       5550       5561       5560  
      5429       5430       5441       5440       5550       5551       5562       5561  
      5430       5431       5442       5441       5551       5552       5563       5562  
      5431       5432       5443       5442       5552       5553       5564       5563  
      5432       5433       5444       5443       5553       5554       5565       5564  
      5433       5434       5445       5444       5554       5555       5566       5565  
      5446       5447       5458       5457       5567       5568       5579       5578  
      5447       5448       5459       5458       5568       5569       5580       5579  
      5448       5449       5460       5459       5569       5570       5581       5580  
      5449       5450       5461       5460       5570       5571       5582       5581  
      5450       5451       5462       5461       5571       5572       5583       5582  
      5451       5452       5463       5462       5572       5573       5584       5583  
      5452       5453       5464       5463       5573       5574       5585       5584  
      5453       5454       5465       5464       5574       5575       5586       5585  
      5454       5455       5466       5465       5575       5576       5587       5586  
      5455       5456       5467       5466       5576       5577       5588       5587  
      5457       5458       5469       5468       5578       5579       5590       5589  
      5458       5459       5470       5469       5579       5580       5591       5590  
      5459       5460       5471       5470       5580       5581       5592       5591  
      5460       5461       5472       5471       5581       5582       5593       5592  
      5461       5462       5473       5472       5582       5583       5594       5593  
      5462       5463       5474       5473       5583       5584       5595       5594  
      5463       5464       5475       5474       5584       5585       5596       5595  
      5464       5465       5476       5475       5585       5586       5597       5596  
      5465       5466       5477       5476       5586       5587       5598       5597  
      5466       5467       5478       5477       5587       5588       5599       5598  
      5468       5469       5480       5479       5589       5590       5601       5600  
      5469       5470       5481       5480       5590       5591       5602       5601  
      5470       5471       5482       5481       5591       5592       5603       5602  
      5471       5472       5483       5482       5592       5593       5604       5603  
      5472       5473       5484       5483       5593       5594       5605       5604  
      5473       5474       5485       5484       5594       5595       5606       5605  
      5474       5475       5486       5485       5595       5596       5607       5606  
      5475       5476       5487       5486       5596       5597       5608       5607  
      5476       5477       5488       5487       5597       5598       5609       5608  
      5477       5478       5489       5488       5598       5599       5610       5609  
      5479       5480       5491       5490       5600       5601       5612       5611  
      5480       5481       5492       5491       5601       5602       5613       5612  
      5481       5482       5493       5492       5602       5603       5614       5613  
      5482       5483       5494       5493       5603       5604       5615       5614  
      5483       5484       5495       5494       5604       5605       5616       5615  
      5484       5485       5496       5495       5605       5606       5617       5616  
      5485       5486       5497       5496       5606       5607       5618       5617  
      5486       5487       5498       5497       5607       5608       5619       5618  
      5487       5488       5499       5498       5608       5609       5620       5619  
      5488       5489       5500       5499       5609       5610       5621       5620  
      5490       5491       5502       5501       5611       5612       5623       5622  
      5491       5492       5503       5502       5612       5613       5624       5623  
      5492       5493       5504       5503       5613       5614       5625       5624  
      5493       5494       5505       5504       5614       5615       5626       5625  
      5494       5495       5506       5505       5615       5616       5627       5626  
      5495       5496       5507       5506       5616       5617       5628       5627  
      5496       5497       5508       5507       5617       5618       5629       5628  
      5497       5498       5509       5508       5618       5619       5630       5629  
      5498       5499       5510       5509       5619       5620       5631       5630  
      5499       5500       5511       5510       5620       5621       5632       5631  
      5501       5502       5513       5512       5622       5623       5634       5633  
      5502       5503       5514       5513       5623       5624       5635       5634  
      5503       5504       5515       5514       5624       5625       5636       5635  
      5504       5505       5516       5515       5625       5626       5637       5636  
      5505       5506       5517       5516       5626       5627       5638       5637  
      5506       5507       5518       5517       5627       5628       5639       5638  
      5507       5508       5519       5518       5628       5629       5640       5639  
      5508       5509       5520       5519       5629       5630       5641       5640  
      5509       5510       5521       5520       5630       5631       5642       5641  
      5510       5511       5522       5521       5631       5632       5643       5642  
      5512       5513       5524       5523       5633       5634       5645       5644  
      5513       5514       5525       5524       5634       5635       5646       5645  
      5514       5515       5526       5525       5635       5636       5647       5646  
      5515       5516       5527       5526       5636       5637       5648       5647  
      5516       5517       5528       5527       5637       5638       5649       5648  
      5517       5518       5529       5528       5638       5639       5650       5649  
      5518       5519       5530       5529       5639       5640       5651       5650  
      5519       5520       5531       5530       5640       5641       5652       5651  
      5520       5521       5532       5531       5641       5642       5653       5652  
      5521       5522       5533       5532       5642       5643       5654       5653  
      5523       5524       5535       5534       5644       5645       5656       5655  
      5524       5525       5536       5535       5645       5646       5657       5656  
      5525       5526       5537       5536       5646       5647       5658       5657  
      5526       5527       5538       5537       5647       5648       5659       5658  
      5527       5528       5539       5538       5648       5649       5660       5659  
      5528       5529       5540       5539       5649       5650       5661       5660  
      5529       5530       5541       5540       5650       5651       5662       5661  
      5530       5531       5542       5541       5651       5652       5663       5662  
      5531       5532       5543       5542       5652       5653       5664       5663  
      5532       5533       5544       5543       5653       5654       5665       5664  
      5534       5535       5546       5545       5655       5656       5667       5666  
      5535       5536       5547       5546       5656       5657       5668       5667  
      5536       5537       5548       5547       5657       5658       5669       5668  
      5537       5538       5549       5548       5658       5659       5670       5669  
      5538       5539       5550       5549       5659       5660       5671       5670  
      5539       5540       5551       5550       5660       5661       5672       5671  
      5540       5541       5552       5551       5661       5662       5673       5672  
      5541       5542       5553       5552       5662       5663       5674       5673  
      5542       5543       5554       5553       5663       5664       5675       5674  
      5543       5544       5555       5554       5664       5665       5676       5675  
      5545       5546       5557       5556       5666       5667       5678       5677  
      5546       5547       5558       5557       5667       5668       5679       5678  
      5547       5548       5559       5558       5668       5669       5680       5679  
      5548       5549       5560       5559       5669       5670       5681       5680  
      5549       5550       5561       5560       5670       5671       5682       5681  
      5550       5551       5562       5561       5671       5672       5683       5682  
      5551       5552       5563       5562       5672       5673       5684       5683  
      5552       5553       5564       5563       5673       5674       5685       5684  
      5553       5554       5565       5564       5674       5675       5686       5685  
      5554       5555       5566       5565       5675       5676       5687       5686  
      5567       5568       5579       5578       5688       5689       5700       5699  
      5568       5569       5580       5579       5689       5690       5701       5700  
      5569       5570       5581       5580       5690       5691       5702       5701  
      5570       5571       5582       5581       5691       5692       5703       5702  
      5571       5572       5583       5582       5692       5693       5704       5703  
      5572       5573       5584       5583       5693       5694       5705       5704  
      5573       5574       5585       5584       5694       5695       5706       5705  
      5574       5575       5586       5585       5695       5696       5707       5706  
      5575       5576       5587       5586       5696       5697       5708       5707  
      5576       5577       5588       5587       5697       5698       5709       5708  
      5578       5579       5590       5589       5699       5700       5711       5710  
      5579       5580       5591       5590       5700       5701       5712       5711  
      5580       5581       5592       5591       5701       5702       5713       5712  
      5581       5582       5593       5592       5702       5703       5714       5713  
      5582       5583       5594       5593       5703       5704       5715       5714  
      5583       5584       5595       5594       5704       5705       5716       5715  
      5584       5585       5596       5595       5705       5706       5717       5716  
      5585       5586       5597       5596       5706       5707       5718       5717  
      5586       5587       5598       5597       5707       5708       5719       5718  
      5587       5588       5599       5598       5708       5709       5720       5719  
      5589       5590       5601       5600       5710       5711       5722       5721  
      5590       5591       5602       5601       5711       5712       5723       5722  
      5591       5592       5603       5602       5712       5713       5724       5723  
      5592       5593       5604       5603       5713       5714       5725       5724  
      5593       5594       5605       5604       5714       5715       5726       5725  
      5594       5595       5606       5605       5715       5716       5727       5726  
      5595       5596       5607       5606       5716       5717       5728       5727  
      5596       5597       5608       5607       5717       5718       5729       5728  
      5597       5598       5609       5608       5718       5719       5730       5729  
      5598       5599       5610       5609       5719       5720       5731       5730  
      5600       5601       5612       5611       5721       5722       5733       5732  
      5601       5602       5613       5612       5722       5723       5734       5733  
      5602       5603       5614       5613       5723       5724       5735       5734  
      5603       5604       5615       5614       5724       5725       5736       5735  
      5604       5605       5616       5615       5725       5726       5737       5736  
      5605       5606       5617       5616       5726       5727       5738       5737  
      5606       5607       5618       5617       5727       5728       5739       5738  
      5607       5608       5619       5618       5728       5729       5740       5739  
      5608       5609       5620       5619       5729       5730       5741       5740  
      5609       5610       5621       5620       5730       5731       5742       5741  
      5611       5612       5623       5622       5732       5733       5744       5743  
      5612       5613       5624       5623       5733       5734       5745       5744  
      5613       5614       5625       5624       5734       5735       5746       5745  
      5614       5615       5626       5625       5735       5736       5747       5746  
      5615       5616       5627       5626       5736       5737       5748       5747  
      5616       5617       5628       5627       5737       5738       5749       5748  
      5617       5618       5629       5628       5738       5739       5750       5749  
      5618       5619       5630       5629       5739       5740       5751       5750  
      5619       5620       5631       5630       5740       5741       5752       5751  
      5620       5621       5632       5631       5741       5742       5753       5752  
      5622       5623       5634       5633       5743       5744       5755       5754  
      5623       5624       5635       5634       5744       5745       5756       5755  
      5624       5625       5636       5635       5745       5746       5757       5756  
      5625       5626       5637       5636       5746       5747       5758       5757  
      5626       5627       5638       5637       5747       5748       5759       5758  
      5627       5628       5639       5638       5748       5749       5760       5759  
      5628       5629       5640       5639       5749       5750       5761       5760  
      5629       5630       5641       5640       5750       5751       5762       5761  
      5630       5631       5642       5641       5751       5752       5763       5762  
      5631       5632       5643       5642       5752       5753       5764       5763  
      5633       5634       5645       5644       5754       5755       5766       5765  
      5634       5635       5646       5645       5755       5756       5767       5766  
      5635       5636       5647       5646       5756       5757       5768       5767  
      5636       5637       5648       5647       5757       5758       5769       5768  
      5637       5638       5649       5648       5758       5759       5770       5769  
      5638       5639       5650       5649       5759       5760       5771       5770  
      5639       5640       5651       5650       5760       5761       5772       5771  
      5640       5641       5652       5651       5761       5762       5773       5772  
      5641       5642       5653       5652       5762       5763       5774       5773  
      5642       5643       5654       5653       5763       5764       5775       5774  
      5644       5645       5656       5655       5765       5766       5777       5776  
      5645       5646       5657       5656       5766       5767       5778       5777  
      5646       5647       5658       5657       5767       5768       5779       5778  
      5647       5648       5659       5658       5768       5769       5780       5779  
      5648       5649       5660       5659       5769       5770       5781       5780  
      5649       5650       5661       5660       5770       5771       5782       5781  
      5650       5651       5662       5661       5771       5772       5783       5782  
      5651       5652       5663       5662       5772       5773       5784       5783  
      5652       5653       5664       5663       5773       5774       5785       5784  
      5653       5654       5665       5664       5774       5775       5786       5785  
      5655       5656       5667       5666       5776       5777       5788       5787  
      5656       5657       5668       5667       5777       5778       5789       5788  
      5657       5658       5669       5668       5778       5779       5790       5789  
      5658       5659       5670       5669       5779       5780       5791       5790  
      5659       5660       5671       5670       5780       5781       5792       5791  
      5660       5661       5672       5671       5781       5782       5793       5792  
      5661       5662       5673       5672       5782       5783       5794       5793  
      5662       5663       5674       5673       5783       5784       5795       5794  
      5663       5664       5675       5674       5784       5785       5796       5795  
      5664       5665       5676       5675       5785       5786       5797       5796  
      5666       5667       5678       5677       5787       5788       5799       5798  
      5667       5668       5679       5678       5788       5789       5800       5799  
      5668       5669       5680       5679       5789       5790       5801       5800  
      5669       5670       5681       5680       5790       5791       5802       5801  
      5670       5671       5682       5681       5791       5792       5803       5802  
      5671       5672       5683       5682       5792       5793       5804       5803  
      5672       5673       5684       5683       5793       5794       5805       5804  
      5673       5674       5685       5684       5794       5795       5806       5805  
      5674       5675       5686       5685       5795       5796       5807       5806  
      5675       5676       5687       5686       5796       5797       5808       5807  
      5688       5689       5700       5699       5809       5810       5821       5820  
      5689       5690       5701       5700       5810       5811       5822       5821  
      5690       5691       5702       5701       5811       5812       5823       5822  
      5691       5692       5703       5702       5812       5813       5824       5823  
      5692       5693       5704       5703       5813       5814       5825       5824  
      5693       5694       5705       5704       5814       5815       5826       5825  
      5694       5695       5706       5705       5815       5816       5827       5826  
      5695       5696       5707       5706       5816       5817       5828       5827  
      5696       5697       5708       5707       5817       5818       5829       5828  
      5697       5698       5709       5708       5818       5819       5830       5829  
      5699       5700       5711       5710       5820       5821       5832       5831  
      5700       5701       5712       5711       5821       5822       5833       5832  
      5701       5702       5713       5712       5822       5823       5834       5833  
      5702       5703       5714       5713       5823       5824       5835       5834  
      5703       5704       5715       5714       5824       5825       5836       5835  
      5704       5705       5716       5715       5825       5826       5837       5836  
      5705       5706       5717       5716       5826       5827       5838       5837  
      5706       5707       5718       5717       5827       5828       5839       5838  
      5707       5708       5719       5718       5828       5829       5840       5839  
      5708       5709       5720       5719       5829       5830       5841       5840  
      5710       5711       5722       5721       5831       5832       5843       5842  
      5711       5712       5723       5722       5832       5833       5844       5843  
      5712       5713       5724       5723       5833       5834       5845       5844  
      5713       5714       5725       5724       5834       5835       5846       5845  
      5714       5715       5726       5725       5835       5836       5847       5846  
      5715       5716       5727       5726       5836       5837       5848       5847  
      5716       5717       5728       5727       5837       5838       5849       5848  
      5717       5718       5729       5728       5838       5839       5850       5849  
      5718       5719       5730       5729       5839       5840       5851       5850  
      5719       5720       5731       5730       5840       5841       5852       5851  
      5721       5722       5733       5732       5842       5843       5854       5853  
      5722       5723       5734       5733       5843       5844       5855       5854  
      5723       5724       5735       5734       5844       5845       5856       5855  
      5724       5725       5736       5735       5845       5846       5857       5856  
      5725       5726       5737       5736       5846       5847       5858       5857  
      5726       5727       5738       5737       5847       5848       5859       5858  
      5727       5728       5739       5738       5848       5849       5860       5859  
      5728       5729       5740       5739       5849       5850       5861       5860  
      5729       5730       5741       5740       5850       5851       5862       5861  
      5730       5731       5742       5741       5851       5852       5863       5862  
      5732       5733       5744       5743       5853       5854       5865       5864  
      5733       5734       5745       5744       5854       5855       5866       5865  
      5734       5735       5746       5745       5855       5856       5867       5866  
      5735       5736       5747       5746       5856       5857       5868       5867  
      5736       5737       5748       5747       5857       5858       5869       5868  
      5737       5738       5749       5748       5858       5859       5870       5869  
      5738       5739       5750       5749       5859       5860       5871       5870  
      5739       5740       5751       5750       5860       5861       5872       5871  
      5740       5741       5752       5751       5861       5862       5873       5872  
      5741       5742       5753       5752       5862       5863       5874       5873  
      5743       5744       5755       5754       5864       5865       5876       5875  
      5744       5745       5756       5755       5865       5866       5877       5876  
      5745       5746       5757       5756       5866       5867       5878       5877  
      5746       5747       5758       5757       5867       5868       5879       5878  
      5747       5748       5759       5758       5868       5869       5880       5879  
      5748       5749       5760       5759       5869       5870       5881       5880  
      5749       5750       5761       5760       5870       5871       5882       5881  
      5750       5751       5762       5761       5871       5872       5883       5882  
      5751       5752       5763       5762       5872       5873       5884       5883  
      5752       5753       5764       5763       5873       5874       5885       5884  
      5754       5755       5766       5765       5875       5876       5887       5886  
      5755       5756       5767       5766       5876       5877       5888       5887  
      5756       5757       5768       5767       5877       5878       5889       5888  
      5757       5758       5769       5768       5878       5879       5890       5889  
      5758       5759       5770       5769       5879       5880       5891       5890  
      5759       5760       5771       5770       5880       5881       5892       5891  
      5760       5761       5772       5771       5881       5882       5893       5892  
      5761       5762       5773       5772       5882       5883       5894       5893  
      5762       5763       5774       5773       5883       5884       5895       5894  
      5763       5764       5775       5774       5884       5885       5896       5895  
      5765       5766       5777       5776       5886       5887       5898       5897  
      5766       5767       5778       5777       5887       5888       5899       5898  
      5767       5768       5779       5778       5888       5889       5900       5899  
      5768       5769       5780       5779       5889       5890       5901       5900  
      5769       5770       5781       5780       5890       5891       5902       5901  
      5770       5771       5782       5781       5891       5892       5903       5902  
      5771       5772       5783       5782       5892       5893       5904       5903  
      5772       5773       5784       5783       5893       5894       5905       5904  
      5773       5774       5785       5784       5894       5895       5906       5905  
      5774       5775       5786       5785       5895       5896       5907       5906  
      5776       5777       5788       5787       5897       5898       5909       5908  
      5777       5778       5789       5788       5898       5899       5910       5909  
      5778       5779       5790       5789       5899       5900       5911       5910  
      5779       5780       5791       5790       5900       5901       5912       5911  
      5780       5781       5792       5791       5901       5902       5913       5912  
      5781       5782       5793       5792       5902       5903       5914       5913  
      5782       5783       5794       5793       5903       5904       5915       5914  
      5783       5784       5795       5794       5904       5905       5916       5915  
      5784       5785       5796       5795       5905       5906       5917       5916  
      5785       5786       5797       5796       5906       5907       5918       5917  
      5787       5788       5799       5798       5908       5909       5920       5919  
      5788       5789       5800       5799       5909       5910       5921       5920  
      5789       5790       5801       5800       5910       5911       5922       5921  
      5790       5791       5802       5801       5911       5912       5923       5922  
      5791       5792       5803       5802       5912       5913       5924       5923  
      5792       5793       5804       5803       5913       5914       5925       5924  
      5793       5794       5805       5804       5914       5915       5926       5925  
      5794       5795       5806       5805       5915       5916       5927       5926  
      5795       5796       5807       5806       5916       5917       5928       5927  
      5796       5797       5808       5807       5917       5918       5929       5928  
      5809       5810       5821       5820       5930       5931       5942       5941  
      5810       5811       5822       5821       5931       5932       5943       5942  
      5811       5812       5823       5822       5932       5933       5944       5943  
      5812       5813       5824       5823       5933       5934       5945       5944  
      5813       5814       5825       5824       5934       5935       5946       5945  
      5814       5815       5826       5825       5935       5936       5947       5946  
      5815       5816       5827       5826       5936       5937       5948       5947  
      5816       5817       5828       5827       5937       5938       5949       5948  
      5817       5818       5829       5828       5938       5939       5950       5949  
      5818       5819       5830       5829       5939       5940       5951       5950  
      5820       5821       5832       5831       5941       5942       5953       5952  
      5821       5822       5833       5832       5942       5943       5954       5953  
      5822       5823       5834       5833       5943       5944       5955       5954  
      5823       5824       5835       5834       5944       5945       5956       5955  
      5824       5825       5836       5835       5945       5946       5957       5956  
      5825       5826       5837       5836       5946       5947       5958       5957  
      5826       5827       5838       5837       5947       5948       5959       5958  
      5827       5828       5839       5838       5948       5949       5960       5959  
      5828       5829       5840       5839       5949       5950       5961       5960  
      5829       5830       5841       5840       5950       5951       5962       5961  
      5831       5832       5843       5842       5952       5953       5964       5963  
      5832       5833       5844       5843       5953       5954       5965       5964  
      5833       5834       5845       5844       5954       5955       5966       5965  
      5834       5835       5846       5845       5955       5956       5967       5966  
      5835       5836       5847       5846       5956       5957       5968       5967  
      5836       5837       5848       5847       5957       5958       5969       5968  
      5837       5838       5849       5848       5958       5959       5970       5969  
      5838       5839       5850       5849       5959       5960       5971       5970  
      5839       5840       5851       5850       5960       5961       5972       5971  
      5840       5841       5852       5851       5961       5962       5973       5972  
      5842       5843       5854       5853       5963       5964       5975       5974  
      5843       5844       5855       5854       5964       5965       5976       5975  
      5844       5845       5856       5855       5965       5966       5977       5976  
      5845       5846       5857       5856       5966       5967       5978       5977  
      5846       5847       5858       5857       5967       5968       5979       5978  
      5847       5848       5859       5858       5968       5969       5980       5979  
      5848       5849       5860       5859       5969       5970       5981       5980  
      5849       5850       5861       5860       5970       5971       5982       5981  
      5850       5851       5862       5861       5971       5972       5983       5982  
      5851       5852       5863       5862       5972       5973       5984       5983  
      5853       5854       5865       5864       5974       5975       5986       5985  
      5854       5855       5866       5865       5975       5976       5987       5986  
      5855       5856       5867       5866       5976       5977       5988       5987  
      5856       5857       5868       5867       5977       5978       5989       5988  
      5857       5858       5869       5868       5978       5979       5990       5989  
      5858       5859       5870       5869       5979       5980       5991       5990  
      5859       5860       5871       5870       5980       5981       5992       5991  
      5860       5861       5872       5871       5981       5982       5993       5992  
      5861       5862       5873       5872       5982       5983       5994       5993  
      5862       5863       5874       5873       5983       5984       5995       5994  
      5864       5865       5876       5875       5985       5986       5997       5996  
      5865       5866       5877       5876       5986       5987       5998       5997  
      5866       5867       5878       5877       5987       5988       5999       5998  
      5867       5868       5879       5878       5988       5989       6000       5999  
      5868       5869       5880       5879       5989       5990       6001       6000  
      5869       5870       5881       5880       5990       5991       6002       6001  
      5870       5871       5882       5881       5991       5992       6003       6002  
      5871       5872       5883       5882       5992       5993       6004       6003  
      5872       5873       5884       5883       5993       5994       6005       6004  
      5873       5874       5885       5884       5994       5995       6006       6005  
      5875       5876       5887       5886       5996       5997       6008       6007  
      5876       5877       5888       5887       5997       5998       6009       6008  
      5877       5878       5889       5888       5998       5999       6010       6009  
      5878       5879       5890       5889       5999       6000       6011       6010  
      5879       5880       5891       5890       6000       6001       6012       6011  
      5880       5881       5892       5891       6001       6002       6013       6012  
      5881       5882       5893       5892       6002       6003       6014       6013  
      5882       5883       5894       5893       6003       6004       6015       6014  
      5883       5884       5895       5894       6004       6005       6016       6015  
      5884       5885       5896       5895       6005       6006       6017       6016  
      5886       5887       5898       5897       6007       6008       6019       6018  
      5887       5888       5899       5898       6008       6009       6020       6019  
      5888       5889       5900       5899       6009       6010       6021       6020  
      5889       5890       5901       5900       6010       6011       6022       6021  
      5890       5891       5902       5901       6011       6012       6023       6022  
      5891       5892       5903       5902       6012       6013       6024       6023  
      5892       5893       5904       5903       6013       6014       6025       6024  
      5893       5894       5905       5904       6014       6015       6026       6025  
      5894       5895       5906       5905       6015       6016       6027       6026  
      5895       5896       5907       5906       6016       6017       6028       6027  
      5897       5898       5909       5908       6018       6019       6030       6029  
      5898       5899       5910       5909       6019       6020       6031       6030  
      5899       5900       5911       5910       6020       6021       6032       6031  
      5900       5901       5912       5911       6021       6022       6033       6032  
      5901       5902       5913       5912       6022       6023       6034       6033  
      5902       5903       5914       5913       6023       6024       6035       6034  
      5903       5904       5915       5914       6024       6025       6036       6035  
      5904       5905       5916       5915       6025       6026       6037       6036  
      5905       5906       5917       5916       6026       6027       6038       6037  
      5906       5907       5918       5917       6027       6028       6039       6038  
      5908       5909       5920       5919       6029       6030       6041       6040  
      5909       5910       5921       5920       6030       6031       6042       6041  
      5910       5911       5922       5921       6031       6032       6043       6042  
      5911       5912       5923       5922       6032       6033       6044       6043  
      5912       5913       5924       5923       6033       6034       6045       6044  
      5913       5914       5925       5924       6034       6035       6046       6045  
      5914       5915       5926       5925       6035       6036       6047       6046  
      5915       5916       5927       5926       6036       6037       6048       6047  
      5916       5917       5928       5927       6037       6038       6049       6048  
      5917       5918       5929       5928       6038       6039       6050       6049  
      5930       5931       5942       5941       6051       6052       6063       6062  
      5931       5932       5943       5942       6052       6053       6064       6063  
      5932       5933       5944       5943       6053       6054       6065       6064  
      5933       5934       5945       5944       6054       6055       6066       6065  
      5934       5935       5946       5945       6055       6056       6067       6066  
      5935       5936       5947       5946       6056       6057       6068       6067  
      5936       5937       5948       5947       6057       6058       6069       6068  
      5937       5938       5949       5948       6058       6059       6070       6069  
      5938       5939       5950       5949       6059       6060       6071       6070  
      5939       5940       5951       5950       6060       6061       6072       6071  
      5941       5942       5953       5952       6062       6063       6074       6073  
      5942       5943       5954       5953       6063       6064       6075       6074  
      5943       5944       5955       5954       6064       6065       6076       6075  
      5944       5945       5956       5955       6065       6066       6077       6076  
      5945       5946       5957       5956       6066       6067       6078       6077  
      5946       5947       5958       5957       6067       6068       6079       6078  
      5947       5948       5959       5958       6068       6069       6080       6079  
      5948       5949       5960       5959       6069       6070       6081       6080  
      5949       5950       5961       5960       6070       6071       6082       6081  
      5950       5951       5962       5961       6071       6072       6083       6082  
      5952       5953       5964       5963       6073       6074       6085       6084  
      5953       5954       5965       5964       6074       6075       6086       6085  
      5954       5955       5966       5965       6075       6076       6087       6086  
      5955       5956       5967       5966       6076       6077       6088       6087  
      5956       5957       5968       5967       6077       6078       6089       6088  
      5957       5958       5969       5968       6078       6079       6090       6089  
      5958       5959       5970       5969       6079       6080       6091       6090  
      5959       5960       5971       5970       6080       6081       6092       6091  
      5960       5961       5972       5971       6081       6082       6093       6092  
      5961       5962       5973       5972       6082       6083       6094       6093  
      5963       5964       5975       5974       6084       6085       6096       6095  
      5964       5965       5976       5975       6085       6086       6097       6096  
      5965       5966       5977       5976       6086       6087       6098       6097  
      5966       5967       5978       5977       6087       6088       6099       6098  
      5967       5968       5979       5978       6088       6089       6100       6099  
      5968       5969       5980       5979       6089       6090       6101       6100  
      5969       5970       5981       5980       6090       6091       6102       6101  
      5970       5971       5982       5981       6091       6092       6103       6102  
      5971       5972       5983       5982       6092       6093       6104       6103  
      5972       5973       5984       5983       6093       6094       6105       6104  
      5974       5975       5986       5985       6095       6096       6107       6106  
      5975       5976       5987       5986       6096       6097       6108       6107  
      5976       5977       5988       5987       6097       6098       6109       6108  
      5977       5978       5989       5988       6098       6099       6110       6109  
      5978       5979       5990       5989       6099       6100       6111       6110  
      5979       5980       5991       5990       6100       6101       6112       6111  
      5980       5981       5992       5991       6101       6102       6113       6112  
      5981       5982       5993       5992       6102       6103       6114       6113  
      5982       5983       5994       5993       6103       6104       6115       6114  
      5983       5984       5995       5994       6104       6105       6116       6115  
      5985       5986       5997       5996       6106       6107       6118       6117  
      5986       5987       5998       5997       6107       6108       6119       6118  
      5987       5988       5999       5998       6108       6109       6120       6119  
      5988       5989       6000       5999       6109       6110       6121       6120  
      5989       5990       6001       6000       6110       6111       6122       6121  
      5990       5991       6002       6001       6111       6112       6123       6122  
      5991       5992       6003       6002       6112       6113       6124       6123  
      5992       5993       6004       6003       6113       6114       6125       6124  
      5993       5994       6005       6004       6114       6115       6126       6125  
      5994       5995       6006       6005       6115       6116       6127       6126  
      5996       5997       6008       6007       6117       6118       6129       6128  
      5997       5998       6009       6008       6118       6119       6130       6129  
      5998       5999       6010       6009       6119       6120       6131       6130  
      5999       6000       6011       6010       6120       6121       6132       6131  
      6000       6001       6012       6011       6121       6122       6133       6132  
      6001       6002       6013       6012       6122       6123       6134       6133  
      6002       6003       6014       6013       6123       6124       6135       6134  
      6003       6004       6015       6014       6124       6125       6136       6135  
      6004       6005       6016       6015       6125       6126       6137       6136  
      6005       6006       6017       6016       6126       6127       6138       6137  
      6007       6008       6019       6018       6128       6129       6140       6139  
      6008       6009       6020       6019       6129       6130       6141       6140  
      6009       6010       6021       6020       6130       6131       6142       6141  
      6010       6011       6022       6021       6131       6132       6143       6142  
      6011       6012       6023       6022       6132       6133       6144       6143  
      6012       6013       6024       6023       6133       6134       6145       6144  
      6013       6014       6025       6024       6134       6135       6146       6145  
      6014       6015       6026       6025       6135       6136       6147       6146  
      6015       6016       6027       6026       6136       6137       6148       6147  
      6016       6017       6028       6027       6137       6138       6149       6148  
      6018       6019       6030       6029       6139       6140       6151       6150  
      6019       6020       6031       6030       6140       6141       6152       6151  
      6020       6021       6032       6031       6141       6142       6153       6152  
      6021       6022       6033       6032       6142       6143       6154       6153  
      6022       6023       6034       6033       6143       6144       6155       6154  
      6023       6024       6035       6034       6144       6145       6156       6155  
      6024       6025       6036       6035       6145       6146       6157       6156  
      6025       6026       6037       6036       6146       6147       6158       6157  
      6026       6027       6038       6037       6147       6148       6159       6158  
      6027       6028       6039       6038       6148       6149       6160       6159  
      6029       6030       6041       6040       6150       6151       6162       6161  
      6030       6031       6042       6041       6151       6152       6163       6162  
      6031       6032       6043       6042       6152       6153       6164       6163  
      6032       6033       6044       6043       6153       6154       6165       6164  
      6033       6034       6045       6044       6154       6155       6166       6165  
      6034       6035       6046       6045       6155       6156       6167       6166  
      6035       6036       6047       6046       6156       6157       6168       6167  
      6036       6037       6048       6047       6157       6158       6169       6168  
      6037       6038       6049       6048       6158       6159       6170       6169  
      6038       6039       6050       6049       6159       6160       6171       6170  
      6051       6052       6063       6062       6172       6173       6184       6183  
      6052       6053       6064       6063       6173       6174       6185       6184  
      6053       6054       6065       6064       6174       6175       6186       6185  
      6054       6055       6066       6065       6175       6176       6187       6186  
      6055       6056       6067       6066       6176       6177       6188       6187  
      6056       6057       6068       6067       6177       6178       6189       6188  
      6057       6058       6069       6068       6178       6179       6190       6189  
      6058       6059       6070       6069       6179       6180       6191       6190  
      6059       6060       6071       6070       6180       6181       6192       6191  
      6060       6061       6072       6071       6181       6182       6193       6192  
      6062       6063       6074       6073       6183       6184       6195       6194  
      6063       6064       6075       6074       6184       6185       6196       6195  
      6064       6065       6076       6075       6185       6186       6197       6196  
      6065       6066       6077       6076       6186       6187       6198       6197  
      6066       6067       6078       6077       6187       6188       6199       6198  
      6067       6068       6079       6078       6188       6189       6200       6199  
      6068       6069       6080       6079       6189       6190       6201       6200  
      6069       6070       6081       6080       6190       6191       6202       6201  
      6070       6071       6082       6081       6191       6192       6203       6202  
      6071       6072       6083       6082       6192       6193       6204       6203  
      6073       6074       6085       6084       6194       6195       6206       6205  
      6074       6075       6086       6085       6195       6196       6207       6206  
      6075       6076       6087       6086       6196       6197       6208       6207  
      6076       6077       6088       6087       6197       6198       6209       6208  
      6077       6078       6089       6088       6198       6199       6210       6209  
      6078       6079       6090       6089       6199       6200       6211       6210  
      6079       6080       6091       6090       6200       6201       6212       6211  
      6080       6081       6092       6091       6201       6202       6213       6212  
      6081       6082       6093       6092       6202       6203       6214       6213  
      6082       6083       6094       6093       6203       6204       6215       6214  
      6084       6085       6096       6095       6205       6206       6217       6216  
      6085       6086       6097       6096       6206       6207       6218       6217  
      6086       6087       6098       6097       6207       6208       6219       6218  
      6087       6088       6099       6098       6208       6209       6220       6219  
      6088       6089       6100       6099       6209       6210       6221       6220  
      6089       6090       6101       6100       6210       6211       6222       6221  
      6090       6091       6102       6101       6211       6212       6223       6222  
      6091       6092       6103       6102       6212       6213       6224       6223  
      6092       6093       6104       6103       6213       6214       6225       6224  
      6093       6094       6105       6104       6214       6215       6226       6225  
      6095       6096       6107       6106       6216       6217       6228       6227  
      6096       6097       6108       6107       6217       6218       6229       6228  
      6097       6098       6109       6108       6218       6219       6230       6229  
      6098       6099       6110       6109       6219       6220       6231       6230  
      6099       6100       6111       6110       6220       6221       6232       6231  
      6100       6101       6112       6111       6221       6222       6233       6232  
      6101       6102       6113       6112       6222       6223       6234       6233  
      6102       6103       6114       6113       6223       6224       6235       6234  
      6103       6104       6115       6114       6224       6225       6236       6235  
      6104       6105       6116       6115       6225       6226       6237       6236  
      6106       6107       6118       6117       6227       6228       6239       6238  
      6107       6108       6119       6118       6228       6229       6240       6239  
      6108       6109       6120       6119       6229       6230       6241       6240  
      6109       6110       6121       6120       6230       6231       6242       6241  
      6110       6111       6122       6121       6231       6232       6243       6242  
      6111       6112       6123       6122       6232       6233       6244       6243  
      6112       6113       6124       6123       6233       6234       6245       6244  
      6113       6114       6125       6124       6234       6235       6246       6245  
      6114       6115       6126       6125       6235       6236       6247       6246  
      6115       6116       6127       6126       6236       6237       6248       6247  
      6117       6118       6129       6128       6238       6239       6250       6249  
      6118       6119       6130       6129       6239       6240       6251       6250  
      6119       6120       6131       6130       6240       6241       6252       6251  
      6120       6121       6132       6131       6241       6242       6253       6252  
      6121       6122       6133       6132       6242       6243       6254       6253  
      6122       6123       6134       6133       6243       6244       6255       6254  
      6123       6124       6135       6134       6244       6245       6256       6255  
      6124       6125       6136       6135       6245       6246       6257       6256  
      6125       6126       6137       6136       6246       6247       6258       6257  
      6126       6127       6138       6137       6247       6248       6259       6258  
      6128       6129       6140       6139       6249       6250       6261       6260  
      6129       6130       6141       6140       6250       6251       6262       6261  
      6130       6131       6142       6141       6251       6252       6263       6262  
      6131       6132       6143       6142       6252       6253       6264       6263  
      6132       6133       6144       6143       6253       6254       6265       6264  
      6133       6134       6145       6144       6254       6255       6266       6265  
      6134       6135       6146       6145       6255       6256       6267       6266  
      6135       6136       6147       6146       6256       6257       6268       6267  
      6136       6137       6148       6147       6257       6258       6269       6268  
      6137       6138       6149       6148       6258       6259       6270       6269  
      6139       6140       6151       6150       6260       6261       6272       6271  
      6140       6141       6152       6151       6261       6262       6273       6272  
      6141       6142       6153       6152       6262       6263       6274       6273  
      6142       6143       6154       6153       6263       6264       6275       6274  
      6143       6144       6155       6154       6264       6265       6276       6275  
      6144       6145       6156       6155       6265       6266       6277       6276  
      6145       6146       6157       6156       6266       6267       6278       6277  
      6146       6147       6158       6157       6267       6268       6279       6278  
      6147       6148       6159       6158       6268       6269       6280       6279  
      6148       6149       6160       6159       6269       6270       6281       6280  
      6150       6151       6162       6161       6271       6272       6283       6282  
      6151       6152       6163       6162       6272       6273       6284       6283  
      6152       6153       6164       6163       6273       6274       6285       6284  
      6153       6154       6165       6164       6274       6275       6286       6285  
      6154       6155       6166       6165       6275       6276       6287       6286  
      6155       6156       6167       6166       6276       6277       6288       6287  
      6156       6157       6168       6167       6277       6278       6289       6288  
      6157       6158       6169       6168       6278       6279       6290       6289  
      6158       6159       6170       6169       6279       6280       6291       6290  
      6159       6160       6171       6170       6280       6281       6292       6291  
      6172       6173       6184       6183       6293       6294       6305       6304  
      6173       6174       6185       6184       6294       6295       6306       6305  
      6174       6175       6186       6185       6295       6296       6307       6306  
      6175       6176       6187       6186       6296       6297       6308       6307  
      6176       6177       6188       6187       6297       6298       6309       6308  
      6177       6178       6189       6188       6298       6299       6310       6309  
      6178       6179       6190       6189       6299       6300       6311       6310  
      6179       6180       6191       6190       6300       6301       6312       6311  
      6180       6181       6192       6191       6301       6302       6313       6312  
      6181       6182       6193       6192       6302       6303       6314       6313  
      6183       6184       6195       6194       6304       6305       6316       6315  
      6184       6185       6196       6195       6305       6306       6317       6316  
      6185       6186       6197       6196       6306       6307       6318       6317  
      6186       6187       6198       6197       6307       6308       6319       6318  
      6187       6188       6199       6198       6308       6309       6320       6319  
      6188       6189       6200       6199       6309       6310       6321       6320  
      6189       6190       6201       6200       6310       6311       6322       6321  
      6190       6191       6202       6201       6311       6312       6323       6322  
      6191       6192       6203       6202       6312       6313       6324       6323  
      6192       6193       6204       6203       6313       6314       6325       6324  
      6194       6195       6206       6205       6315       6316       6327       6326  
      6195       6196       6207       6206       6316       6317       6328       6327  
      6196       6197       6208       6207       6317       6318       6329       6328  
      6197       6198       6209       6208       6318       6319       6330       6329  
      6198       6199       6210       6209       6319       6320       6331       6330  
      6199       6200       6211       6210       6320       6321       6332       6331  
      6200       6201       6212       6211       6321       6322       6333       6332  
      6201       6202       6213       6212       6322       6323       6334       6333  
      6202       6203       6214       6213       6323       6324       6335       6334  
      6203       6204       6215       6214       6324       6325       6336       6335  
      6205       6206       6217       6216       6326       6327       6338       6337  
      6206       6207       6218       6217       6327       6328       6339       6338  
      6207       6208       6219       6218       6328       6329       6340       6339  
      6208       6209       6220       6219       6329       6330       6341       6340  
      6209       6210       6221       6220       6330       6331       6342       6341  
      6210       6211       6222       6221       6331       6332       6343       6342  
      6211       6212       6223       6222       6332       6333       6344       6343  
      6212       6213       6224       6223       6333       6334       6345       6344  
      6213       6214       6225       6224       6334       6335       6346       6345  
      6214       6215       6226       6225       6335       6336       6347       6346  
      6216       6217       6228       6227       6337       6338       6349       6348  
      6217       6218       6229       6228       6338       6339       6350       6349  
      6218       6219       6230       6229       6339       6340       6351       6350  
      6219       6220       6231       6230       6340       6341       6352       6351  
      6220       6221       6232       6231       6341       6342       6353       6352  
      6221       6222       6233       6232       6342       6343       6354       6353  
      6222       6223       6234       6233       6343       6344       6355       6354  
      6223       6224       6235       6234       6344       6345       6356       6355  
      6224       6225       6236       6235       6345       6346       6357       6356  
      6225       6226       6237       6236       6346       6347       6358       6357  
      6227       6228       6239       6238       6348       6349       6360       6359  
      6228       6229       6240       6239       6349       6350       6361       6360  
      6229       6230       6241       6240       6350       6351       6362       6361  
      6230       6231       6242       6241       6351       6352       6363       6362  
      6231       6232       6243       6242       6352       6353       6364       6363  
      6232       6233       6244       6243       6353       6354       6365       6364  
      6233       6234       6245       6244       6354       6355       6366       6365  
      6234       6235       6246       6245       6355       6356       6367       6366  
      6235       6236       6247       6246       6356       6357       6368       6367  
      6236       6237       6248       6247       6357       6358       6369       6368  
      6238       6239       6250       6249       6359       6360       6371       6370  
      6239       6240       6251       6250       6360       6361       6372       6371  
      6240       6241       6252       6251       6361       6362       6373       6372  
      6241       6242       6253       6252       6362       6363       6374       6373  
      6242       6243       6254       6253       6363       6364       6375       6374  
      6243       6244       6255       6254       6364       6365       6376       6375  
      6244       6245       6256       6255       6365       6366       6377       6376  
      6245       6246       6257       6256       6366       6367       6378       6377  
      6246       6247       6258       6257       6367       6368       6379       6378  
      6247       6248       6259       6258       6368       6369       6380       6379  
      6249       6250       6261       6260       6370       6371       6382       6381  
      6250       6251       6262       6261       6371       6372       6383       6382  
      6251       6252       6263       6262       6372       6373       6384       6383  
      6252       6253       6264       6263       6373       6374       6385       6384  
      6253       6254       6265       6264       6374       6375       6386       6385  
      6254       6255       6266       6265       6375       6376       6387       6386  
      6255       6256       6267       6266       6376       6377       6388       6387  
      6256       6257       6268       6267       6377       6378       6389       6388  
      6257       6258       6269       6268       6378       6379       6390       6389  
      6258       6259       6270       6269       6379       6380       6391       6390  
      6260       6261       6272       6271       6381       6382       6393       6392  
      6261       6262       6273       6272       6382       6383       6394       6393  
      6262       6263       6274       6273       6383       6384       6395       6394  
      6263       6264       6275       6274       6384       6385       6396       6395  
      6264       6265       6276       6275       6385       6386       6397       6396  
      6265       6266       6277       6276       6386       6387       6398       6397  
      6266       6267       6278       6277       6387       6388       6399       6398  
      6267       6268       6279       6278       6388       6389       6400       6399  
      6268       6269       6280       6279       6389       6390       6401       6400  
      6269       6270       6281       6280       6390       6391       6402       6401  
      6271       6272       6283       6282       6392       6393       6404       6403  
      6272       6273       6284       6283       6393       6394       6405       6404  
      6273       6274       6285       6284       6394       6395       6406       6405  
      6274       6275       6286       6285       6395       6396       6407       6406  
      6275       6276       6287       6286       6396       6397       6408       6407  
      6276       6277       6288       6287       6397       6398       6409       6408  
      6277       6278       6289       6288       6398       6399       6410       6409  
      6278       6279       6290       6289       6399       6400       6411       6410  
      6279       6280       6291       6290       6400       6401       6412       6411  
      6280       6281       6292       6291       6401       6402       6413       6412  
      6293       6294       6305       6304       6414       6415       6426       6425  
      6294       6295       6306       6305       6415       6416       6427       6426  
      6295       6296       6307       6306       6416       6417       6428       6427  
      6296       6297       6308       6307       6417       6418       6429       6428  
      6297       6298       6309       6308       6418       6419       6430       6429  
      6298       6299       6310       6309       6419       6420       6431       6430  
      6299       6300       6311       6310       6420       6421       6432       6431  
      6300       6301       6312       6311       6421       6422       6433       6432  
      6301       6302       6313       6312       6422       6423       6434       6433  
      6302       6303       6314       6313       6423       6424       6435       6434  
      6304       6305       6316       6315       6425       6426       6437       6436  
      6305       6306       6317       6316       6426       6427       6438       6437  
      6306       6307       6318       6317       6427       6428       6439       6438  
      6307       6308       6319       6318       6428       6429       6440       6439  
      6308       6309       6320       6319       6429       6430       6441       6440  
      6309       6310       6321       6320       6430       6431       6442       6441  
      6310       6311       6322       6321       6431       6432       6443       6442  
      6311       6312       6323       6322       6432       6433       6444       6443  
      6312       6313       6324       6323       6433       6434       6445       6444  
      6313       6314       6325       6324       6434       6435       6446       6445  
      6315       6316       6327       6326       6436       6437       6448       6447  
      6316       6317       6328       6327       6437       6438       6449       6448  
      6317       6318       6329       6328       6438       6439       6450       6449  
      6318       6319       6330       6329       6439       6440       6451       6450  
      6319       6320       6331       6330       6440       6441       6452       6451  
      6320       6321       6332       6331       6441       6442       6453       6452  
      6321       6322       6333       6332       6442       6443       6454       6453  
      6322       6323       6334       6333       6443       6444       6455       6454  
      6323       6324       6335       6334       6444       6445       6456       6455  
      6324       6325       6336       6335       6445       6446       6457       6456  
      6326       6327       6338       6337       6447       6448       6459       6458  
      6327       6328       6339       6338       6448       6449       6460       6459  
      6328       6329       6340       6339       6449       6450       6461       6460  
      6329       6330       6341       6340       6450       6451       6462       6461  
      6330       6331       6342       6341       6451       6452       6463       6462  
      6331       6332       6343       6342       6452       6453       6464       6463  
      6332       6333       6344       6343       6453       6454       6465       6464  
      6333       6334       6345       6344       6454       6455       6466       6465  
      6334       6335       6346       6345       6455       6456       6467       6466  
      6335       6336       6347       6346       6456       6457       6468       6467  
      6337       6338       6349       6348       6458       6459       6470       6469  
      6338       6339       6350       6349       6459       6460       6471       6470  
      6339       6340       6351       6350       6460       6461       6472       6471  
      6340       6341       6352       6351       6461       6462       6473       6472  
      6341       6342       6353       6352       6462       6463       6474       6473  
      6342       6343       6354       6353       6463       6464       6475       6474  
      6343       6344       6355       6354       6464       6465       6476       6475  
      6344       6345       6356       6355       6465       6466       6477       6476  
      6345       6346       6357       6356       6466       6467       6478       6477  
      6346       6347       6358       6357       6467       6468       6479       6478  
      6348       6349       6360       6359       6469       6470       6481       6480  
      6349       6350       6361       6360       6470       6471       6482       6481  
      6350       6351       6362       6361       6471       6472       6483       6482  
      6351       6352       6363       6362       6472       6473       6484       6483  
      6352       6353       6364       6363       6473       6474       6485       6484  
      6353       6354       6365       6364       6474       6475       6486       6485  
      6354       6355       6366       6365       6475       6476       6487       6486  
      6355       6356       6367       6366       6476       6477       6488       6487  
      6356       6357       6368       6367       6477       6478       6489       6488  
      6357       6358       6369       6368       6478       6479       6490       6489  
      6359       6360       6371       6370       6480       6481       6492       6491  
      6360       6361       6372       6371       6481       6482       6493       6492  
      6361       6362       6373       6372       6482       6483       6494       6493  
      6362       6363       6374       6373       6483       6484       6495       6494  
      6363       6364       6375       6374       6484       6485       6496       6495  
      6364       6365       6376       6375       6485       6486       6497       6496  
      6365       6366       6377       6376       6486       6487       6498       6497  
      6366       6367       6378       6377       6487       6488       6499       6498  
      6367       6368       6379       6378       6488       6489       6500       6499  
      6368       6369       6380       6379       6489       6490       6501       6500  
      6370       6371       6382       6381       6491       6492       6503       6502  
      6371       6372       6383       6382       6492       6493       6504       6503  
      6372       6373       6384       6383       6493       6494       6505       6504  
      6373       6374       6385       6384       6494       6495       6506       6505  
      6374       6375       6386       6385       6495       6496       6507       6506  
      6375       6376       6387       6386       6496       6497       6508       6507  
      6376       6377       6388       6387       6497       6498       6509       6508  
      6377       6378       6389       6388       6498       6499       6510       6509  
      6378       6379       6390       6389       6499       6500       6511       6510  
      6379       6380       6391       6390       6500       6501       6512       6511  
      6381       6382       6393       6392       6502       6503       6514       6513  
      6382       6383       6394       6393       6503       6504       6515       6514  
      6383       6384       6395       6394       6504       6505       6516       6515  
      6384       6385       6396       6395       6505       6506       6517       6516  
      6385       6386       6397       6396       6506       6507       6518       6517  
      6386       6387       6398       6397       6507       6508       6519       6518  
      6387       6388       6399       6398       6508       6509       6520       6519  
      6388       6389       6400       6399       6509       6510       6521       6520  
      6389       6390       6401       6400       6510       6511       6522       6521  
      6390       6391       6402       6401       6511       6512       6523       6522  
      6392       6393       6404       6403       6513       6514       6525       6524  
      6393       6394       6405       6404       6514       6515       6526       6525  
      6394       6395       6406       6405       6515       6516       6527       6526  
      6395       6396       6407       6406       6516       6517       6528       6527  
      6396       6397       6408       6407       6517       6518       6529       6528  
      6397       6398       6409       6408       6518       6519       6530       6529  
      6398       6399       6410       6409       6519       6520       6531       6530  
      6399       6400       6411       6410       6520       6521       6532       6531  
      6400       6401       6412       6411       6521       6522       6533       6532  
      6401       6402       6413       6412       6522       6523       6534       6533  
      6414       6415       6426       6425       6535       6536       6547       6546  
      6415       6416       6427       6426       6536       6537       6548       6547  
      6416       6417       6428       6427       6537       6538       6549       6548  
      6417       6418       6429       6428       6538       6539       6550       6549  
      6418       6419       6430       6429       6539       6540       6551       6550  
      6419       6420       6431       6430       6540       6541       6552       6551  
      6420       6421       6432       6431       6541       6542       6553       6552  
      6421       6422       6433       6432       6542       6543       6554       6553  
      6422       6423       6434       6433       6543       6544       6555       6554  
      6423       6424       6435       6434       6544       6545       6556       6555  
      6425       6426       6437       6436       6546       6547       6558       6557  
      6426       6427       6438       6437       6547       6548       6559       6558  
      6427       6428       6439       6438       6548       6549       6560       6559  
      6428       6429       6440       6439       6549       6550       6561       6560  
      6429       6430       6441       6440       6550       6551       6562       6561  
      6430       6431       6442       6441       6551       6552       6563       6562  
      6431       6432       6443       6442       6552       6553       6564       6563  
      6432       6433       6444       6443       6553       6554       6565       6564  
      6433       6434       6445       6444       6554       6555       6566       6565  
      6434       6435       6446       6445       6555       6556       6567       6566  
      6436       6437       6448       6447       6557       6558       6569       6568  
      6437       6438       6449       6448       6558       6559       6570       6569  
      6438       6439       6450       6449       6559       6560       6571       6570  
      6439       6440       6451       6450       6560       6561       6572       6571  
      6440       6441       6452       6451       6561       6562       6573       6572  
      6441       6442       6453       6452       6562       6563       6574       6573  
      6442       6443       6454       6453       6563       6564       6575       6574  
      6443       6444       6455       6454       6564       6565       6576       6575  
      6444       6445       6456       6455       6565       6566       6577       6576  
      6445       6446       6457       6456       6566       6567       6578       6577  
      6447       6448       6459       6458       6568       6569       6580       6579  
      6448       6449       6460       6459       6569       6570       6581       6580  
      6449       6450       6461       6460       6570       6571       6582       6581  
      6450       6451       6462       6461       6571       6572       6583       6582  
      6451       6452       6463       6462       6572       6573       6584       6583  
      6452       6453       6464       6463       6573       6574       6585       6584  
      6453       6454       6465       6464       6574       6575       6586       6585  
      6454       6455       6466       6465       6575       6576       6587       6586  
      6455       6456       6467       6466       6576       6577       6588       6587  
      6456       6457       6468       6467       6577       6578       6589       6588  
      6458       6459       6470       6469       6579       6580       6591       6590  
      6459       6460       6471       6470       6580       6581       6592       6591  
      6460       6461       6472       6471       6581       6582       6593       6592  
      6461       6462       6473       6472       6582       6583       6594       6593  
      6462       6463       6474       6473       6583       6584       6595       6594  
      6463       6464       6475       6474       6584       6585       6596       6595  
      6464       6465       6476       6475       6585       6586       6597       6596  
      6465       6466       6477       6476       6586       6587       6598       6597  
      6466       6467       6478       6477       6587       6588       6599       6598  
      6467       6468       6479       6478       6588       6589       6600       6599  
      6469       6470       6481       6480       6590       6591       6602       6601  
      6470       6471       6482       6481       6591       6592       6603       6602  
      6471       6472       6483       6482       6592       6593       6604       6603  
      6472       6473       6484       6483       6593       6594       6605       6604  
      6473       6474       6485       6484       6594       6595       6606       6605  
      6474       6475       6486       6485       6595       6596       6607       6606  
      6475       6476       6487       6486       6596       6597       6608       6607  
      6476       6477       6488       6487       6597       6598       6609       6608  
      6477       6478       6489       6488       6598       6599       6610       6609  
      6478       6479       6490       6489       6599       6600       6611       6610  
      6480       6481       6492       6491       6601       6602       6613       6612  
      6481       6482       6493       6492       6602       6603       6614       6613  
      6482       6483       6494       6493       6603       6604       6615       6614  
      6483       6484       6495       6494       6604       6605       6616       6615  
      6484       6485       6496       6495       6605       6606       6617       6616  
      6485       6486       6497       6496       6606       6607       6618       6617  
      6486       6487       6498       6497       6607       6608       6619       6618  
      6487       6488       6499       6498       6608       6609       6620       6619  
      6488       6489       6500       6499       6609       6610       6621       6620  
      6489       6490       6501       6500       6610       6611       6622       6621  
      6491       6492       6503       6502       6612       6613       6624       6623  
      6492       6493       6504       6503       6613       6614       6625       6624  
      6493       6494       6505       6504       6614       6615       6626       6625  
      6494       6495       6506       6505       6615       6616       6627       6626  
      6495       6496       6507       6506       6616       6617       6628       6627  
      6496       6497       6508       6507       6617       6618       6629       6628  
      6497       6498       6509       6508       6618       6619       6630       6629  
      6498       6499       6510       6509       6619       6620       6631       6630  
      6499       6500       6511       6510       6620       6621       6632       6631  
      6500       6501       6512       6511       6621       6622       6633       6632  
      6502       6503       6514       6513       6623       6624       6635       6634  
      6503       6504       6515       6514       6624       6625       6636       6635  
      6504       6505       6516       6515       6625       6626       6637       6636  
      6505       6506       6517       6516       6626       6627       6638       6637  
      6506       6507       6518       6517       6627       6628       6639       6638  
      6507       6508       6519       6518       6628       6629       6640       6639  
      6508       6509       6520       6519       6629       6630       6641       6640  
      6509       6510       6521       6520       6630       6631       6642       6641  
      6510       6511       6522       6521       6631       6632       6643       6642  
      6511       6512       6523       6522       6632       6633       6644       6643  
      6513       6514       6525       6524       6634       6635       6646       6645  
      6514       6515       6526       6525       6635       6636       6647       6646  
      6515       6516       6527       6526       6636       6637       6648       6647  
      6516       6517       6528       6527       6637       6638       6649       6648  
      6517       6518       6529       6528       6638       6639       6650       6649  
      6518       6519       6530       6529       6639       6640       6651       6650  
      6519       6520       6531       6530       6640       6641       6652       6651  
      6520       6521       6532       6531       6641       6642       6653       6652  
      6521       6522       6533       6532       6642       6643       6654       6653  
      6522       6523       6534       6533       6643       6644       6655       6654  
      6535       6536       6547       6546       6656       6657       6668       6667  
      6536       6537       6548       6547       6657       6658       6669       6668  
      6537       6538       6549       6548       6658       6659       6670       6669  
      6538       6539       6550       6549       6659       6660       6671       6670  
      6539       6540       6551       6550       6660       6661       6672       6671  
      6540       6541       6552       6551       6661       6662       6673       6672  
      6541       6542       6553       6552       6662       6663       6674       6673  
      6542       6543       6554       6553       6663       6664       6675       6674  
      6543       6544       6555       6554       6664       6665       6676       6675  
      6544       6545       6556       6555       6665       6666       6677       6676  
      6546       6547       6558       6557       6667       6668       6679       6678  
      6547       6548       6559       6558       6668       6669       6680       6679  
      6548       6549       6560       6559       6669       6670       6681       6680  
      6549       6550       6561       6560       6670       6671       6682       6681  
      6550       6551       6562       6561       6671       6672       6683       6682  
      6551       6552       6563       6562       6672       6673       6684       6683  
      6552       6553       6564       6563       6673       6674       6685       6684  
      6553       6554       6565       6564       6674       6675       6686       6685  
      6554       6555       6566       6565       6675       6676       6687       6686  
      6555       6556       6567       6566       6676       6677       6688       6687  
      6557       6558       6569       6568       6678       6679       6690       6689  
      6558       6559       6570       6569       6679       6680       6691       6690  
      6559       6560       6571       6570       6680       6681       6692       6691  
      6560       6561       6572       6571       6681       6682       6693       6692  
      6561       6562       6573       6572       6682       6683       6694       6693  
      6562       6563       6574       6573       6683       6684       6695       6694  
      6563       6564       6575       6574       6684       6685       6696       6695  
      6564       6565       6576       6575       6685       6686       6697       6696  
      6565       6566       6577       6576       6686       6687       6698       6697  
      6566       6567       6578       6577       6687       6688       6699       6698  
      6568       6569       6580       6579       6689       6690       6701       6700  
      6569       6570       6581       6580       6690       6691       6702       6701  
      6570       6571       6582       6581       6691       6692       6703       6702  
      6571       6572       6583       6582       6692       6693       6704       6703  
      6572       6573       6584       6583       6693       6694       6705       6704  
      6573       6574       6585       6584       6694       6695       6706       6705  
      6574       6575       6586       6585       6695       6696       6707       6706  
      6575       6576       6587       6586       6696       6697       6708       6707  
      6576       6577       6588       6587       6697       6698       6709       6708  
      6577       6578       6589       6588       6698       6699       6710       6709  
      6579       6580       6591       6590       6700       6701       6712       6711  
      6580       6581       6592       6591       6701       6702       6713       6712  
      6581       6582       6593       6592       6702       6703       6714       6713  
      6582       6583       6594       6593       6703       6704       6715       6714  
      6583       6584       6595       6594       6704       6705       6716       6715  
      6584       6585       6596       6595       6705       6706       6717       6716  
      6585       6586       6597       6596       6706       6707       6718       6717  
      6586       6587       6598       6597       6707       6708       6719       6718  
      6587       6588       6599       6598       6708       6709       6720       6719  
      6588       6589       6600       6599       6709       6710       6721       6720  
      6590       6591       6602       6601       6711       6712       6723       6722  
      6591       6592       6603       6602       6712       6713       6724       6723  
      6592       6593       6604       6603       6713       6714       6725       6724  
      6593       6594       6605       6604       6714       6715       6726       6725  
      6594       6595       6606       6605       6715       6716       6727       6726  
      6595       6596       6607       6606       6716       6717       6728       6727  
      6596       6597       6608       6607       6717       6718       6729       6728  
      6597       6598       6609       6608       6718       6719       6730       6729  
      6598       6599       6610       6609       6719       6720       6731       6730  
      6599       6600       6611       6610       6720       6721       6732       6731  
      6601       6602       6613       6612       6722       6723       6734       6733  
      6602       6603       6614       6613       6723       6724       6735       6734  
      6603       6604       6615       6614       6724       6725       6736       6735  
      6604       6605       6616       6615       6725       6726       6737       6736  
      6605       6606       6617       6616       6726       6727       6738       6737  
      6606       6607       6618       6617       6727       6728       6739       6738  
      6607       6608       6619       6618       6728       6729       6740       6739  
      6608       6609       6620       6619       6729       6730       6741       6740  
      6609       6610       6621       6620       6730       6731       6742       6741  
      6610       6611       6622       6621       6731       6732       6743       6742  
      6612       6613       6624       6623       6733       6734       6745       6744  
      6613       6614       6625       6624       6734       6735       6746       6745  
      6614       6615       6626       6625       6735       6736       6747       6746  
      6615       6616       6627       6626       6736       6737       6748       6747  
      6616       6617       6628       6627       6737       6738       6749       6748  
      6617       6618       6629       6628       6738       6739       6750       6749  
      6618       6619       6630       6629       6739       6740       6751       6750  
      6619       6620       6631       6630       6740       6741       6752       6751  
      6620       6621       6632       6631       6741       6742       6753       6752  
      6621       6622       6633       6632       6742       6743       6754       6753  
      6623       6624       6635       6634       6744       6745       6756       6755  
      6624       6625       6636       6635       6745       6746       6757       6756  
      6625       6626       6637       6636       6746       6747       6758       6757  
      6626       6627       6638       6637       6747       6748       6759       6758  
      6627       6628       6639       6638       6748       6749       6760       6759  
      6628       6629       6640       6639       6749       6750       6761       6760  
      6629       6630       6641       6640       6750       6751       6762       6761  
      6630       6631       6642       6641       6751       6752       6763       6762  
      6631       6632       6643       6642       6752       6753       6764       6763  
      6632       6633       6644       6643       6753       6754       6765       6764  
      6634       6635       6646       6645       6755       6756       6767       6766  
      6635       6636       6647       6646       6756       6757       6768       6767  
      6636       6637       6648       6647       6757       6758       6769       6768  
      6637       6638       6649       6648       6758       6759       6770       6769  
      6638       6639       6650       6649       6759       6760       6771       6770  
      6639       6640       6651       6650       6760       6761       6772       6771  
      6640       6641       6652       6651       6761       6762       6773       6772  
      6641       6642       6653       6652       6762       6763       6774       6773  
      6642       6643       6654       6653       6763       6764       6775       6774  
      6643       6644       6655       6654       6764       6765       6776       6775  
      6656       6657       6668       6667       6777       6778       6789       6788  
      6657       6658       6669       6668       6778       6779       6790       6789  
      6658       6659       6670       6669       6779       6780       6791       6790  
      6659       6660       6671       6670       6780       6781       6792       6791  
      6660       6661       6672       6671       6781       6782       6793       6792  
      6661       6662       6673       6672       6782       6783       6794       6793  
      6662       6663       6674       6673       6783       6784       6795       6794  
      6663       6664       6675       6674       6784       6785       6796       6795  
      6664       6665       6676       6675       6785       6786       6797       6796  
      6665       6666       6677       6676       6786       6787       6798       6797  
      6667       6668       6679       6678       6788       6789       6800       6799  
      6668       6669       6680       6679       6789       6790       6801       6800  
      6669       6670       6681       6680       6790       6791       6802       6801  
      6670       6671       6682       6681       6791       6792       6803       6802  
      6671       6672       6683       6682       6792       6793       6804       6803  
      6672       6673       6684       6683       6793       6794       6805       6804  
      6673       6674       6685       6684       6794       6795       6806       6805  
      6674       6675       6686       6685       6795       6796       6807       6806  
      6675       6676       6687       6686       6796       6797       6808       6807  
      6676       6677       6688       6687       6797       6798       6809       6808  
      6678       6679       6690       6689       6799       6800       6811       6810  
      6679       6680       6691       6690       6800       6801       6812       6811  
      6680       6681       6692       6691       6801       6802       6813       6812  
      6681       6682       6693       6692       6802       6803       6814       6813  
      6682       6683       6694       6693       6803       6804       6815       6814  
      6683       6684       6695       6694       6804       6805       6816       6815  
      6684       6685       6696       6695       6805       6806       6817       6816  
      6685       6686       6697       6696       6806       6807       6818       6817  
      6686       6687       6698       6697       6807       6808       6819       6818  
      6687       6688       6699       6698       6808       6809       6820       6819  
      6689       6690       6701       6700       6810       6811       6822       6821  
      6690       6691       6702       6701       6811       6812       6823       6822  
      6691       6692       6703       6702       6812       6813       6824       6823  
      6692       6693       6704       6703       6813       6814       6825       6824  
      6693       6694       6705       6704       6814       6815       6826       6825  
      6694       6695       6706       6705       6815       6816       6827       6826  
      6695       6696       6707       6706       6816       6817       6828       6827  
      6696       6697       6708       6707       6817       6818       6829       6828  
      6697       6698       6709       6708       6818       6819       6830       6829  
      6698       6699       6710       6709       6819       6820       6831       6830  
      6700       6701       6712       6711       6821       6822       6833       6832  
      6701       6702       6713       6712       6822       6823       6834       6833  
      6702       6703       6714       6713       6823       6824       6835       6834  
      6703       6704       6715       6714       6824       6825       6836       6835  
      6704       6705       6716       6715       6825       6826       6837       6836  
      6705       6706       6717       6716       6826       6827       6838       6837  
      6706       6707       6718       6717       6827       6828       6839       6838  
      6707       6708       6719       6718       6828       6829       6840       6839  
      6708       6709       6720       6719       6829       6830       6841       6840  
      6709       6710       6721       6720       6830       6831       6842       6841  
      6711       6712       6723       6722       6832       6833       6844       6843  
      6712       6713       6724       6723       6833       6834       6845       6844  
      6713       6714       6725       6724       6834       6835       6846       6845  
      6714       6715       6726       6725       6835       6836       6847       6846  
      6715       6716       6727       6726       6836       6837       6848       6847  
      6716       6717       6728       6727       6837       6838       6849       6848  
      6717       6718       6729       6728       6838       6839       6850       6849  
      6718       6719       6730       6729       6839       6840       6851       6850  
      6719       6720       6731       6730       6840       6841       6852       6851  
      6720       6721       6732       6731       6841       6842       6853       6852  
      6722       6723       6734       6733       6843       6844       6855       6854  
      6723       6724       6735       6734       6844       6845       6856       6855  
      6724       6725       6736       6735       6845       6846       6857       6856  
      6725       6726       6737       6736       6846       6847       6858       6857  
      6726       6727       6738       6737       6847       6848       6859       6858  
      6727       6728       6739       6738       6848       6849       6860       6859  
      6728       6729       6740       6739       6849       6850       6861       6860  
      6729       6730       6741       6740       6850       6851       6862       6861  
      6730       6731       6742       6741       6851       6852       6863       6862  
      6731       6732       6743       6742       6852       6853       6864       6863  
      6733       6734       6745       6744       6854       6855       6866       6865  
      6734       6735       6746       6745       6855       6856       6867       6866  
      6735       6736       6747       6746       6856       6857       6868       6867  
      6736       6737       6748       6747       6857       6858       6869       6868  
      6737       6738       6749       6748       6858       6859       6870       6869  
      6738       6739       6750       6749       6859       6860       6871       6870  
      6739       6740       6751       6750       6860       6861       6872       6871  
      6740       6741       6752       6751       6861       6862       6873       6872  
      6741       6742       6753       6752       6862       6863       6874       6873  
      6742       6743       6754       6753       6863       6864       6875       6874  
      6744       6745       6756       6755       6865       6866       6877       6876  
      6745       6746       6757       6756       6866       6867       6878       6877  
      6746       6747       6758       6757       6867       6868       6879       6878  
      6747       6748       6759       6758       6868       6869       6880       6879  
      6748       6749       6760       6759       6869       6870       6881       6880  
      6749       6750       6761       6760       6870       6871       6882       6881  
      6750       6751       6762       6761       6871       6872       6883       6882  
      6751       6752       6763       6762       6872       6873       6884       6883  
      6752       6753       6764       6763       6873       6874       6885       6884  
      6753       6754       6765       6764       6874       6875       6886       6885  
      6755       6756       6767       6766       6876       6877       6888       6887  
      6756       6757       6768       6767       6877       6878       6889       6888  
      6757       6758       6769       6768       6878       6879       6890       6889  
      6758       6759       6770       6769       6879       6880       6891       6890  
      6759       6760       6771       6770       6880       6881       6892       6891  
      6760       6761       6772       6771       6881       6882       6893       6892  
      6761       6762       6773       6772       6882       6883       6894       6893  
      6762       6763       6774       6773       6883       6884       6895       6894  
      6763       6764       6775       6774       6884       6885       6896       6895  
      6764       6765       6776       6775       6885       6886       6897       6896  
      6777       6778       6789       6788       6898       6899       6910       6909  
      6778       6779       6790       6789       6899       6900       6911       6910  
      6779       6780       6791       6790       6900       6901       6912       6911  
      6780       6781       6792       6791       6901       6902       6913       6912  
      6781       6782       6793       6792       6902       6903       6914       6913  
      6782       6783       6794       6793       6903       6904       6915       6914  
      6783       6784       6795       6794       6904       6905       6916       6915  
      6784       6785       6796       6795       6905       6906       6917       6916  
      6785       6786       6797       6796       6906       6907       6918       6917  
      6786       6787       6798       6797       6907       6908       6919       6918  
      6788       6789       6800       6799       6909       6910       6921       6920  
      6789       6790       6801       6800       6910       6911       6922       6921  
      6790       6791       6802       6801       6911       6912       6923       6922  
      6791       6792       6803       6802       6912       6913       6924       6923  
      6792       6793       6804       6803       6913       6914       6925       6924  
      6793       6794       6805       6804       6914       6915       6926       6925  
      6794       6795       6806       6805       6915       6916       6927       6926  
      6795       6796       6807       6806       6916       6917       6928       6927  
      6796       6797       6808       6807       6917       6918       6929       6928  
      6797       6798       6809       6808       6918       6919       6930       6929  
      6799       6800       6811       6810       6920       6921       6932       6931  
      6800       6801       6812       6811       6921       6922       6933       6932  
      6801       6802       6813       6812       6922       6923       6934       6933  
      6802       6803       6814       6813       6923       6924       6935       6934  
      6803       6804       6815       6814       6924       6925       6936       6935  
      6804       6805       6816       6815       6925       6926       6937       6936  
      6805       6806       6817       6816       6926       6927       6938       6937  
      6806       6807       6818       6817       6927       6928       6939       6938  
      6807       6808       6819       6818       6928       6929       6940       6939  
      6808       6809       6820       6819       6929       6930       6941       6940  
      6810       6811       6822       6821       6931       6932       6943       6942  
      6811       6812       6823       6822       6932       6933       6944       6943  
      6812       6813       6824       6823       6933       6934       6945       6944  
      6813       6814       6825       6824       6934       6935       6946       6945  
      6814       6815       6826       6825       6935       6936       6947       6946  
      6815       6816       6827       6826       6936       6937       6948       6947  
      6816       6817       6828       6827       6937       6938       6949       6948  
      6817       6818       6829       6828       6938       6939       6950       6949  
      6818       6819       6830       6829       6939       6940       6951       6950  
      6819       6820       6831       6830       6940       6941       6952       6951  
      6821       6822       6833       6832       6942       6943       6954       6953  
      6822       6823       6834       6833       6943       6944       6955       6954  
      6823       6824       6835       6834       6944       6945       6956       6955  
      6824       6825       6836       6835       6945       6946       6957       6956  
      6825       6826       6837       6836       6946       6947       6958       6957  
      6826       6827       6838       6837       6947       6948       6959       6958  
      6827       6828       6839       6838       6948       6949       6960       6959  
      6828       6829       6840       6839       6949       6950       6961       6960  
      6829       6830       6841       6840       6950       6951       6962       6961  
      6830       6831       6842       6841       6951       6952       6963       6962  
      6832       6833       6844       6843       6953       6954       6965       6964  
      6833       6834       6845       6844       6954       6955       6966       6965  
      6834       6835       6846       6845       6955       6956       6967       6966  
      6835       6836       6847       6846       6956       6957       6968       6967  
      6836       6837       6848       6847       6957       6958       6969       6968  
      6837       6838       6849       6848       6958       6959       6970       6969  
      6838       6839       6850       6849       6959       6960       6971       6970  
      6839       6840       6851       6850       6960       6961       6972       6971  
      6840       6841       6852       6851       6961       6962       6973       6972  
      6841       6842       6853       6852       6962       6963       6974       6973  
      6843       6844       6855       6854       6964       6965       6976       6975  
      6844       6845       6856       6855       6965       6966       6977       6976  
      6845       6846       6857       6856       6966       6967       6978       6977  
      6846       6847       6858       6857       6967       6968       6979       6978  
      6847       6848       6859       6858       6968       6969       6980       6979  
      6848       6849       6860       6859       6969       6970       6981       6980  
      6849       6850       6861       6860       6970       6971       6982       6981  
      6850       6851       6862       6861       6971       6972       6983       6982  
      6851       6852       6863       6862       6972       6973       6984       6983  
      6852       6853       6864       6863       6973       6974       6985       6984  
      6854       6855       6866       6865       6975       6976       6987       6986  
      6855       6856       6867       6866       6976       6977       6988       6987  
      6856       6857       6868       6867       6977       6978       6989       6988  
      6857       6858       6869       6868       6978       6979       6990       6989  
      6858       6859       6870       6869       6979       6980       6991       6990  
      6859       6860       6871       6870       6980       6981       6992       6991  
      6860       6861       6872       6871       6981       6982       6993       6992  
      6861       6862       6873       6872       6982       6983       6994       6993  
      6862       6863       6874       6873       6983       6984       6995       6994  
      6863       6864       6875       6874       6984       6985       6996       6995  
      6865       6866       6877       6876       6986       6987       6998       6997  
      6866       6867       6878       6877       6987       6988       6999       6998  
      6867       6868       6879       6878       6988       6989       7000       6999  
      6868       6869       6880       6879       6989       6990       7001       7000  
      6869       6870       6881       6880       6990       6991       7002       7001  
      6870       6871       6882       6881       6991       6992       7003       7002  
      6871       6872       6883       6882       6992       6993       7004       7003  
      6872       6873       6884       6883       6993       6994       7005       7004  
      6873       6874       6885       6884       6994       6995       7006       7005  
      6874       6875       6886       6885       6995       6996       7007       7006  
      6876       6877       6888       6887       6997       6998       7009       7008  
      6877       6878       6889       6888       6998       6999       7010       7009  
      6878       6879       6890       6889       6999       7000       7011       7010  
      6879       6880       6891       6890       7000       7001       7012       7011  
      6880       6881       6892       6891       7001       7002       7013       7012  
      6881       6882       6893       6892       7002       7003       7014       7013  
      6882       6883       6894       6893       7003       7004       7015       7014  
      6883       6884       6895       6894       7004       7005       7016       7015  
      6884       6885       6896       6895       7005       7006       7017       7016  
      6885       6886       6897       6896       7006       7007       7018       7017  
      6898       6899       6910       6909       7019       7020       7031       7030  
      6899       6900       6911       6910       7020       7021       7032       7031  
      6900       6901       6912       6911       7021       7022       7033       7032  
      6901       6902       6913       6912       7022       7023       7034       7033  
      6902       6903       6914       6913       7023       7024       7035       7034  
      6903       6904       6915       6914       7024       7025       7036       7035  
      6904       6905       6916       6915       7025       7026       7037       7036  
      6905       6906       6917       6916       7026       7027       7038       7037  
      6906       6907       6918       6917       7027       7028       7039       7038  
      6907       6908       6919       6918       7028       7029       7040       7039  
      6909       6910       6921       6920       7030       7031       7042       7041  
      6910       6911       6922       6921       7031       7032       7043       7042  
      6911       6912       6923       6922       7032       7033       7044       7043  
      6912       6913       6924       6923       7033       7034       7045       7044  
      6913       6914       6925       6924       7034       7035       7046       7045  
      6914       6915       6926       6925       7035       7036       7047       7046  
      6915       6916       6927       6926       7036       7037       7048       7047  
      6916       6917       6928       6927       7037       7038       7049       7048  
      6917       6918       6929       6928       7038       7039       7050       7049  
      6918       6919       6930       6929       7039       7040       7051       7050  
      6920       6921       6932       6931       7041       7042       7053       7052  
      6921       6922       6933       6932       7042       7043       7054       7053  
      6922       6923       6934       6933       7043       7044       7055       7054  
      6923       6924       6935       6934       7044       7045       7056       7055  
      6924       6925       6936       6935       7045       7046       7057       7056  
      6925       6926       6937       6936       7046       7047       7058       7057  
      6926       6927       6938       6937       7047       7048       7059       7058  
      6927       6928       6939       6938       7048       7049       7060       7059  
      6928       6929       6940       6939       7049       7050       7061       7060  
      6929       6930       6941       6940       7050       7051       7062       7061  
      6931       6932       6943       6942       7052       7053       7064       7063  
      6932       6933       6944       6943       7053       7054       7065       7064  
      6933       6934       6945       6944       7054       7055       7066       7065  
      6934       6935       6946       6945       7055       7056       7067       7066  
      6935       6936       6947       6946       7056       7057       7068       7067  
      6936       6937       6948       6947       7057       7058       7069       7068  
      6937       6938       6949       6948       7058       7059       7070       7069  
      6938       6939       6950       6949       7059       7060       7071       7070  
      6939       6940       6951       6950       7060       7061       7072       7071  
      6940       6941       6952       6951       7061       7062       7073       7072  
      6942       6943       6954       6953       7063       7064       7075       7074  
      6943       6944       6955       6954       7064       7065       7076       7075  
      6944       6945       6956       6955       7065       7066       7077       7076  
      6945       6946       6957       6956       7066       7067       7078       7077  
      6946       6947       6958       6957       7067       7068       7079       7078  
      6947       6948       6959       6958       7068       7069       7080       7079  
      6948       6949       6960       6959       7069       7070       7081       7080  
      6949       6950       6961       6960       7070       7071       7082       7081  
      6950       6951       6962       6961       7071       7072       7083       7082  
      6951       6952       6963       6962       7072       7073       7084       7083  
      6953       6954       6965       6964       7074       7075       7086       7085  
      6954       6955       6966       6965       7075       7076       7087       7086  
      6955       6956       6967       6966       7076       7077       7088       7087  
      6956       6957       6968       6967       7077       7078       7089       7088  
      6957       6958       6969       6968       7078       7079       7090       7089  
      6958       6959       6970       6969       7079       7080       7091       7090  
      6959       6960       6971       6970       7080       7081       7092       7091  
      6960       6961       6972       6971       7081       7082       7093       7092  
      6961       6962       6973       6972       7082       7083       7094       7093  
      6962       6963       6974       6973       7083       7084       7095       7094  
      6964       6965       6976       6975       7085       7086       7097       7096  
      6965       6966       6977       6976       7086       7087       7098       7097  
      6966       6967       6978       6977       7087       7088       7099       7098  
      6967       6968       6979       6978       7088       7089       7100       7099  
      6968       6969       6980       6979       7089       7090       7101       7100  
      6969       6970       6981       6980       7090       7091       7102       7101  
      6970       6971       6982       6981       7091       7092       7103       7102  
      6971       6972       6983       6982       7092       7093       7104       7103  
      6972       6973       6984       6983       7093       7094       7105       7104  
      6973       6974       6985       6984       7094       7095       7106       7105  
      6975       6976       6987       6986       7096       7097       7108       7107  
      6976       6977       6988       6987       7097       7098       7109       7108  
      6977       6978       6989       6988       7098       7099       7110       7109  
      6978       6979       6990       6989       7099       7100       7111       7110  
      6979       6980       6991       6990       7100       7101       7112       7111  
      6980       6981       6992       6991       7101       7102       7113       7112  
      6981       6982       6993       6992       7102       7103       7114       7113  
      6982       6983       6994       6993       7103       7104       7115       7114  
      6983       6984       6995       6994       7104       7105       7116       7115  
      6984       6985       6996       6995       7105       7106       7117       7116  
      6986       6987       6998       6997       7107       7108       7119       7118  
      6987       6988       6999       6998       7108       7109       7120       7119  
      6988       6989       7000       6999       7109       7110       7121       7120  
      6989       6990       7001       7000       7110       7111       7122       7121  
      6990       6991       7002       7001       7111       7112       7123       7122  
      6991       6992       7003       7002       7112       7113       7124       7123  
      6992       6993       7004       7003       7113       7114       7125       7124  
      6993       6994       7005       7004       7114       7115       7126       7125  
      6994       6995       7006       7005       7115       7116       7127       7126  
      6995       6996       7007       7006       7116       7117       7128       7127  
      6997       6998       7009       7008       7118       7119       7130       7129  
      6998       6999       7010       7009       7119       7120       7131       7130  
      6999       7000       7011       7010       7120       7121       7132       7131  
      7000       7001       7012       7011       7121       7122       7133       7132  
      7001       7002       7013       7012       7122       7123       7134       7133  
      7002       7003       7014       7013       7123       7124       7135       7134  
      7003       7004       7015       7014       7124       7125       7136       7135  
      7004       7005       7016       7015       7125       7126       7137       7136  
      7005       7006       7017       7016       7126       7127       7138       7137  
      7006       7007       7018       7017       7127       7128       7139       7138  
      7019       7020       7031       7030       7140       7141       7152       7151  
      7020       7021       7032       7031       7141       7142       7153       7152  
      7021       7022       7033       7032       7142       7143       7154       7153  
      7022       7023       7034       7033       7143       7144       7155       7154  
      7023       7024       7035       7034       7144       7145       7156       7155  
      7024       7025       7036       7035       7145       7146       7157       7156  
      7025       7026       7037       7036       7146       7147       7158       7157  
      7026       7027       7038       7037       7147       7148       7159       7158  
      7027       7028       7039       7038       7148       7149       7160       7159  
      7028       7029       7040       7039       7149       7150       7161       7160  
      7030       7031       7042       7041       7151       7152       7163       7162  
      7031       7032       7043       7042       7152       7153       7164       7163  
      7032       7033       7044       7043       7153       7154       7165       7164  
      7033       7034       7045       7044       7154       7155       7166       7165  
      7034       7035       7046       7045       7155       7156       7167       7166  
      7035       7036       7047       7046       7156       7157       7168       7167  
      7036       7037       7048       7047       7157       7158       7169       7168  
      7037       7038       7049       7048       7158       7159       7170       7169  
      7038       7039       7050       7049       7159       7160       7171       7170  
      7039       7040       7051       7050       7160       7161       7172       7171  
      7041       7042       7053       7052       7162       7163       7174       7173  
      7042       7043       7054       7053       7163       7164       7175       7174  
      7043       7044       7055       7054       7164       7165       7176       7175  
      7044       7045       7056       7055       7165       7166       7177       7176  
      7045       7046       7057       7056       7166       7167       7178       7177  
      7046       7047       7058       7057       7167       7168       7179       7178  
      7047       7048       7059       7058       7168       7169       7180       7179  
      7048       7049       7060       7059       7169       7170       7181       7180  
      7049       7050       7061       7060       7170       7171       7182       7181  
      7050       7051       7062       7061       7171       7172       7183       7182  
      7052       7053       7064       7063       7173       7174       7185       7184  
      7053       7054       7065       7064       7174       7175       7186       7185  
      7054       7055       7066       7065       7175       7176       7187       7186  
      7055       7056       7067       7066       7176       7177       7188       7187  
      7056       7057       7068       7067       7177       7178       7189       7188  
      7057       7058       7069       7068       7178       7179       7190       7189  
      7058       7059       7070       7069       7179       7180       7191       7190  
      7059       7060       7071       7070       7180       7181       7192       7191  
      7060       7061       7072       7071       7181       7182       7193       7192  
      7061       7062       7073       7072       7182       7183       7194       7193  
      7063       7064       7075       7074       7184       7185       7196       7195  
      7064       7065       7076       7075       7185       7186       7197       7196  
      7065       7066       7077       7076       7186       7187       7198       7197  
      7066       7067       7078       7077       7187       7188       7199       7198  
      7067       7068       7079       7078       7188       7189       7200       7199  
      7068       7069       7080       7079       7189       7190       7201       7200  
      7069       7070       7081       7080       7190       7191       7202       7201  
      7070       7071       7082       7081       7191       7192       7203       7202  
      7071       7072       7083       7082       7192       7193       7204       7203  
      7072       7073       7084       7083       7193       7194       7205       7204  
      7074       7075       7086       7085       7195       7196       7207       7206  
      7075       7076       7087       7086       7196       7197       7208       7207  
      7076       7077       7088       7087       7197       7198       7209       7208  
      7077       7078       7089       7088       7198       7199       7210       7209  
      7078       7079       7090       7089       7199       7200       7211       7210  
      7079       7080       7091       7090       7200       7201       7212       7211  
      7080       7081       7092       7091       7201       7202       7213       7212  
      7081       7082       7093       7092       7202       7203       7214       7213  
      7082       7083       7094       7093       7203       7204       7215       7214  
      7083       7084       7095       7094       7204       7205       7216       7215  
      7085       7086       7097       7096       7206       7207       7218       7217  
      7086       7087       7098       7097       7207       7208       7219       7218  
      7087       7088       7099       7098       7208       7209       7220       7219  
      7088       7089       7100       7099       7209       7210       7221       7220  
      7089       7090       7101       7100       7210       7211       7222       7221  
      7090       7091       7102       7101       7211       7212       7223       7222  
      7091       7092       7103       7102       7212       7213       7224       7223  
      7092       7093       7104       7103       7213       7214       7225       7224  
      7093       7094       7105       7104       7214       7215       7226       7225  
      7094       7095       7106       7105       7215       7216       7227       7226  
      7096       7097       7108       7107       7217       7218       7229       7228  
      7097       7098       7109       7108       7218       7219       7230       7229  
      7098       7099       7110       7109       7219       7220       7231       7230  
      7099       7100       7111       7110       7220       7221       7232       7231  
      7100       7101       7112       7111       7221       7222       7233       7232  
      7101       7102       7113       7112       7222       7223       7234       7233  
      7102       7103       7114       7113       7223       7224       7235       7234  
      7103       7104       7115       7114       7224       7225       7236       7235  
      7104       7105       7116       7115       7225       7226       7237       7236  
      7105       7106       7117       7116       7226       7227       7238       7237  
      7107       7108       7119       7118       7228       7229       7240       7239  
      7108       7109       7120       7119       7229       7230       7241       7240  
      7109       7110       7121       7120       7230       7231       7242       7241  
      7110       7111       7122       7121       7231       7232       7243       7242  
      7111       7112       7123       7122       7232       7233       7244       7243  
      7112       7113       7124       7123       7233       7234       7245       7244  
      7113       7114       7125       7124       7234       7235       7246       7245  
      7114       7115       7126       7125       7235       7236       7247       7246  
      7115       7116       7127       7126       7236       7237       7248       7247  
      7116       7117       7128       7127       7237       7238       7249       7248  
      7118       7119       7130       7129       7239       7240       7251       7250  
      7119       7120       7131       7130       7240       7241       7252       7251  
      7120       7121       7132       7131       7241       7242       7253       7252  
      7121       7122       7133       7132       7242       7243       7254       7253  
      7122       7123       7134       7133       7243       7244       7255       7254  
      7123       7124       7135       7134       7244       7245       7256       7255  
      7124       7125       7136       7135       7245       7246       7257       7256  
      7125       7126       7137       7136       7246       7247       7258       7257  
      7126       7127       7138       7137       7247       7248       7259       7258  
      7127       7128       7139       7138       7248       7249       7260       7259  
      7140       7141       7152       7151       7261       7262       7273       7272  
      7141       7142       7153       7152       7262       7263       7274       7273  
      7142       7143       7154       7153       7263       7264       7275       7274  
      7143       7144       7155       7154       7264       7265       7276       7275  
      7144       7145       7156       7155       7265       7266       7277       7276  
      7145       7146       7157       7156       7266       7267       7278       7277  
      7146       7147       7158       7157       7267       7268       7279       7278  
      7147       7148       7159       7158       7268       7269       7280       7279  
      7148       7149       7160       7159       7269       7270       7281       7280  
      7149       7150       7161       7160       7270       7271       7282       7281  
      7151       7152       7163       7162       7272       7273       7284       7283  
      7152       7153       7164       7163       7273       7274       7285       7284  
      7153       7154       7165       7164       7274       7275       7286       7285  
      7154       7155       7166       7165       7275       7276       7287       7286  
      7155       7156       7167       7166       7276       7277       7288       7287  
      7156       7157       7168       7167       7277       7278       7289       7288  
      7157       7158       7169       7168       7278       7279       7290       7289  
      7158       7159       7170       7169       7279       7280       7291       7290  
      7159       7160       7171       7170       7280       7281       7292       7291  
      7160       7161       7172       7171       7281       7282       7293       7292  
      7162       7163       7174       7173       7283       7284       7295       7294  
      7163       7164       7175       7174       7284       7285       7296       7295  
      7164       7165       7176       7175       7285       7286       7297       7296  
      7165       7166       7177       7176       7286       7287       7298       7297  
      7166       7167       7178       7177       7287       7288       7299       7298  
      7167       7168       7179       7178       7288       7289       7300       7299  
      7168       7169       7180       7179       7289       7290       7301       7300  
      7169       7170       7181       7180       7290       7291       7302       7301  
      7170       7171       7182       7181       7291       7292       7303       7302  
      7171       7172       7183       7182       7292       7293       7304       7303  
      7173       7174       7185       7184       7294       7295       7306       7305  
      7174       7175       7186       7185       7295       7296       7307       7306  
      7175       7176       7187       7186       7296       7297       7308       7307  
      7176       7177       7188       7187       7297       7298       7309       7308  
      7177       7178       7189       7188       7298       7299       7310       7309  
      7178       7179       7190       7189       7299       7300       7311       7310  
      7179       7180       7191       7190       7300       7301       7312       7311  
      7180       7181       7192       7191       7301       7302       7313       7312  
      7181       7182       7193       7192       7302       7303       7314       7313  
      7182       7183       7194       7193       7303       7304       7315       7314  
      7184       7185       7196       7195       7305       7306       7317       7316  
      7185       7186       7197       7196       7306       7307       7318       7317  
      7186       7187       7198       7197       7307       7308       7319       7318  
      7187       7188       7199       7198       7308       7309       7320       7319  
      7188       7189       7200       7199       7309       7310       7321       7320  
      7189       7190       7201       7200       7310       7311       7322       7321  
      7190       7191       7202       7201       7311       7312       7323       7322  
      7191       7192       7203       7202       7312       7313       7324       7323  
      7192       7193       7204       7203       7313       7314       7325       7324  
      7193       7194       7205       7204       7314       7315       7326       7325  
      7195       7196       7207       7206       7316       7317       7328       7327  
      7196       7197       7208       7207       7317       7318       7329       7328  
      7197       7198       7209       7208       7318       7319       7330       7329  
      7198       7199       7210       7209       7319       7320       7331       7330  
      7199       7200       7211       7210       7320       7321       7332       7331  
      7200       7201       7212       7211       7321       7322       7333       7332  
      7201       7202       7213       7212       7322       7323       7334       7333  
      7202       7203       7214       7213       7323       7324       7335       7334  
      7203       7204       7215       7214       7324       7325       7336       7335  
      7204       7205       7216       7215       7325       7326       7337       7336  
      7206       7207       7218       7217       7327       7328       7339       7338  
      7207       7208       7219       7218       7328       7329       7340       7339  
      7208       7209       7220       7219       7329       7330       7341       7340  
      7209       7210       7221       7220       7330       7331       7342       7341  
      7210       7211       7222       7221       7331       7332       7343       7342  
      7211       7212       7223       7222       7332       7333       7344       7343  
      7212       7213       7224       7223       7333       7334       7345       7344  
      7213       7214       7225       7224       7334       7335       7346       7345  
      7214       7215       7226       7225       7335       7336       7347       7346  
      7215       7216       7227       7226       7336       7337       7348       7347  
      7217       7218       7229       7228       7338       7339       7350       7349  
      7218       7219       7230       7229       7339       7340       7351       7350  
      7219       7220       7231       7230       7340       7341       7352       7351  
      7220       7221       7232       7231       7341       7342       7353       7352  
      7221       7222       7233       7232       7342       7343       7354       7353  
      7222       7223       7234       7233       7343       7344       7355       7354  
      7223       7224       7235       7234       7344       7345       7356       7355  
      7224       7225       7236       7235       7345       7346       7357       7356  
      7225       7226       7237       7236       7346       7347       7358       7357  
      7226       7227       7238       7237       7347       7348       7359       7358  
      7228       7229       7240       7239       7349       7350       7361       7360  
      7229       7230       7241       7240       7350       7351       7362       7361  
      7230       7231       7242       7241       7351       7352       7363       7362  
      7231       7232       7243       7242       7352       7353       7364       7363  
      7232       7233       7244       7243       7353       7354       7365       7364  
      7233       7234       7245       7244       7354       7355       7366       7365  
      7234       7235       7246       7245       7355       7356       7367       7366  
      7235       7236       7247       7246       7356       7357       7368       7367  
      7236       7237       7248       7247       7357       7358       7369       7368  
      7237       7238       7249       7248       7358       7359       7370       7369  
      7239       7240       7251       7250       7360       7361       7372       7371  
      7240       7241       7252       7251       7361       7362       7373       7372  
      7241       7242       7253       7252       7362       7363       7374       7373  
      7242       7243       7254       7253       7363       7364       7375       7374  
      7243       7244       7255       7254       7364       7365       7376       7375  
      7244       7245       7256       7255       7365       7366       7377       7376  
      7245       7246       7257       7256       7366       7367       7378       7377  
      7246       7247       7258       7257       7367       7368       7379       7378  
      7247       7248       7259       7258       7368       7369       7380       7379  
      7248       7249       7260       7259       7369       7370       7381       7380  
      7261       7262       7273       7272       7382       7383       7394       7393  
      7262       7263       7274       7273       7383       7384       7395       7394  
      7263       7264       7275       7274       7384       7385       7396       7395  
      7264       7265       7276       7275       7385       7386       7397       7396  
      7265       7266       7277       7276       7386       7387       7398       7397  
      7266       7267       7278       7277       7387       7388       7399       7398  
      7267       7268       7279       7278       7388       7389       7400       7399  
      7268       7269       7280       7279       7389       7390       7401       7400  
      7269       7270       7281       7280       7390       7391       7402       7401  
      7270       7271       7282       7281       7391       7392       7403       7402  
      7272       7273       7284       7283       7393       7394       7405       7404  
      7273       7274       7285       7284       7394       7395       7406       7405  
      7274       7275       7286       7285       7395       7396       7407       7406  
      7275       7276       7287       7286       7396       7397       7408       7407  
      7276       7277       7288       7287       7397       7398       7409       7408  
      7277       7278       7289       7288       7398       7399       7410       7409  
      7278       7279       7290       7289       7399       7400       7411       7410  
      7279       7280       7291       7290       7400       7401       7412       7411  
      7280       7281       7292       7291       7401       7402       7413       7412  
      7281       7282       7293       7292       7402       7403       7414       7413  
      7283       7284       7295       7294       7404       7405       7416       7415  
      7284       7285       7296       7295       7405       7406       7417       7416  
      7285       7286       7297       7296       7406       7407       7418       7417  
      7286       7287       7298       7297       7407       7408       7419       7418  
      7287       7288       7299       7298       7408       7409       7420       7419  
      7288       7289       7300       7299       7409       7410       7421       7420  
      7289       7290       7301       7300       7410       7411       7422       7421  
      7290       7291       7302       7301       7411       7412       7423       7422  
      7291       7292       7303       7302       7412       7413       7424       7423  
      7292       7293       7304       7303       7413       7414       7425       7424  
      7294       7295       7306       7305       7415       7416       7427       7426  
      7295       7296       7307       7306       7416       7417       7428       7427  
      7296       7297       7308       7307       7417       7418       7429       7428  
      7297       7298       7309       7308       7418       7419       7430       7429  
      7298       7299       7310       7309       7419       7420       7431       7430  
      7299       7300       7311       7310       7420       7421       7432       7431  
      7300       7301       7312       7311       7421       7422       7433       7432  
      7301       7302       7313       7312       7422       7423       7434       7433  
      7302       7303       7314       7313       7423       7424       7435       7434  
      7303       7304       7315       7314       7424       7425       7436       7435  
      7305       7306       7317       7316       7426       7427       7438       7437  
      7306       7307       7318       7317       7427       7428       7439       7438  
      7307       7308       7319       7318       7428       7429       7440       7439  
      7308       7309       7320       7319       7429       7430       7441       7440  
      7309       7310       7321       7320       7430       7431       7442       7441  
      7310       7311       7322       7321       7431       7432       7443       7442  
      7311       7312       7323       7322       7432       7433       7444       7443  
      7312       7313       7324       7323       7433       7434       7445       7444  
      7313       7314       7325       7324       7434       7435       7446       7445  
      7314       7315       7326       7325       7435       7436       7447       7446  
      7316       7317       7328       7327       7437       7438       7449       7448  
      7317       7318       7329       7328       7438       7439       7450       7449  
      7318       7319       7330       7329       7439       7440       7451       7450  
      7319       7320       7331       7330       7440       7441       7452       7451  
      7320       7321       7332       7331       7441       7442       7453       7452  
      7321       7322       7333       7332       7442       7443       7454       7453  
      7322       7323       7334       7333       7443       7444       7455       7454  
      7323       7324       7335       7334       7444       7445       7456       7455  
      7324       7325       7336       7335       7445       7446       7457       7456  
      7325       7326       7337       7336       7446       7447       7458       7457  
      7327       7328       7339       7338       7448       7449       7460       7459  
      7328       7329       7340       7339       7449       7450       7461       7460  
      7329       7330       7341       7340       7450       7451       7462       7461  
      7330       7331       7342       7341       7451       7452       7463       7462  
      7331       7332       7343       7342       7452       7453       7464       7463  
      7332       7333       7344       7343       7453       7454       7465       7464  
      7333       7334       7345       7344       7454       7455       7466       7465  
      7334       7335       7346       7345       7455       7456       7467       7466  
      7335       7336       7347       7346       7456       7457       7468       7467  
      7336       7337       7348       7347       7457       7458       7469       7468  
      7338       7339       7350       7349       7459       7460       7471       7470  
      7339       7340       7351       7350       7460       7461       7472       7471  
      7340       7341       7352       7351       7461       7462       7473       7472  
      7341       7342       7353       7352       7462       7463       7474       7473  
      7342       7343       7354       7353       7463       7464       7475       7474  
      7343       7344       7355       7354       7464       7465       7476       7475  
      7344       7345       7356       7355       7465       7466       7477       7476  
      7345       7346       7357       7356       7466       7467       7478       7477  
      7346       7347       7358       7357       7467       7468       7479       7478  
      7347       7348       7359       7358       7468       7469       7480       7479  
      7349       7350       7361       7360       7470       7471       7482       7481  
      7350       7351       7362       7361       7471       7472       7483       7482  
      7351       7352       7363       7362       7472       7473       7484       7483  
      7352       7353       7364       7363       7473       7474       7485       7484  
      7353       7354       7365       7364       7474       7475       7486       7485  
      7354       7355       7366       7365       7475       7476       7487       7486  
      7355       7356       7367       7366       7476       7477       7488       7487  
      7356       7357       7368       7367       7477       7478       7489       7488  
      7357       7358       7369       7368       7478       7479       7490       7489  
      7358       7359       7370       7369       7479       7480       7491       7490  
      7360       7361       7372       7371       7481       7482       7493       7492  
      7361       7362       7373       7372       7482       7483       7494       7493  
      7362       7363       7374       7373       7483       7484       7495       7494  
      7363       7364       7375       7374       7484       7485       7496       7495  
      7364       7365       7376       7375       7485       7486       7497       7496  
      7365       7366       7377       7376       7486       7487       7498       7497  
      7366       7367       7378       7377       7487       7488       7499       7498  
      7367       7368       7379       7378       7488       7489       7500       7499  
      7368       7369       7380       7379       7489       7490       7501       7500  
      7369       7370       7381       7380       7490       7491       7502       7501  
      7382       7383       7394       7393       7503       7504       7515       7514  
      7383       7384       7395       7394       7504       7505       7516       7515  
      7384       7385       7396       7395       7505       7506       7517       7516  
      7385       7386       7397       7396       7506       7507       7518       7517  
      7386       7387       7398       7397       7507       7508       7519       7518  
      7387       7388       7399       7398       7508       7509       7520       7519  
      7388       7389       7400       7399       7509       7510       7521       7520  
      7389       7390       7401       7400       7510       7511       7522       7521  
      7390       7391       7402       7401       7511       7512       7523       7522  
      7391       7392       7403       7402       7512       7513       7524       7523  
      7393       7394       7405       7404       7514       7515       7526       7525  
      7394       7395       7406       7405       7515       7516       7527       7526  
      7395       7396       7407       7406       7516       7517       7528       7527  
      7396       7397       7408       7407       7517       7518       7529       7528  
      7397       7398       7409       7408       7518       7519       7530       7529  
      7398       7399       7410       7409       7519       7520       7531       7530  
      7399       7400       7411       7410       7520       7521       7532       7531  
      7400       7401       7412       7411       7521       7522       7533       7532  
      7401       7402       7413       7412       7522       7523       7534       7533  
      7402       7403       7414       7413       7523       7524       7535       7534  
      7404       7405       7416       7415       7525       7526       7537       7536  
      7405       7406       7417       7416       7526       7527       7538       7537  
      7406       7407       7418       7417       7527       7528       7539       7538  
      7407       7408       7419       7418       7528       7529       7540       7539  
      7408       7409       7420       7419       7529       7530       7541       7540  
      7409       7410       7421       7420       7530       7531       7542       7541  
      7410       7411       7422       7421       7531       7532       7543       7542  
      7411       7412       7423       7422       7532       7533       7544       7543  
      7412       7413       7424       7423       7533       7534       7545       7544  
      7413       7414       7425       7424       7534       7535       7546       7545  
      7415       7416       7427       7426       7536       7537       7548       7547  
      7416       7417       7428       7427       7537       7538       7549       7548  
      7417       7418       7429       7428       7538       7539       7550       7549  
      7418       7419       7430       7429       7539       7540       7551       7550  
      7419       7420       7431       7430       7540       7541       7552       7551  
      7420       7421       7432       7431       7541       7542       7553       7552  
      7421       7422       7433       7432       7542       7543       7554       7553  
      7422       7423       7434       7433       7543       7544       7555       7554  
      7423       7424       7435       7434       7544       7545       7556       7555  
      7424       7425       7436       7435       7545       7546       7557       7556  
      7426       7427       7438       7437       7547       7548       7559       7558  
      7427       7428       7439       7438       7548       7549       7560       7559  
      7428       7429       7440       7439       7549       7550       7561       7560  
      7429       7430       7441       7440       7550       7551       7562       7561  
      7430       7431       7442       7441       7551       7552       7563       7562  
      7431       7432       7443       7442       7552       7553       7564       7563  
      7432       7433       7444       7443       7553       7554       7565       7564  
      7433       7434       7445       7444       7554       7555       7566       7565  
      7434       7435       7446       7445       7555       7556       7567       7566  
      7435       7436       7447       7446       7556       7557       7568       7567  
      7437       7438       7449       7448       7558       7559       7570       7569  
      7438       7439       7450       7449       7559       7560       7571       7570  
      7439       7440       7451       7450       7560       7561       7572       7571  
      7440       7441       7452       7451       7561       7562       7573       7572  
      7441       7442       7453       7452       7562       7563       7574       7573  
      7442       7443       7454       7453       7563       7564       7575       7574  
      7443       7444       7455       7454       7564       7565       7576       7575  
      7444       7445       7456       7455       7565       7566       7577       7576  
      7445       7446       7457       7456       7566       7567       7578       7577  
      7446       7447       7458       7457       7567       7568       7579       7578  
      7448       7449       7460       7459       7569       7570       7581       7580  
      7449       7450       7461       7460       7570       7571       7582       7581  
      7450       7451       7462       7461       7571       7572       7583       7582  
      7451       7452       7463       7462       7572       7573       7584       7583  
      7452       7453       7464       7463       7573       7574       7585       7584  
      7453       7454       7465       7464       7574       7575       7586       7585  
      7454       7455       7466       7465       7575       7576       7587       7586  
      7455       7456       7467       7466       7576       7577       7588       7587  
      7456       7457       7468       7467       7577       7578       7589       7588  
      7457       7458       7469       7468       7578       7579       7590       7589  
      7459       7460       7471       7470       7580       7581       7592       7591  
      7460       7461       7472       7471       7581       7582       7593       7592  
      7461       7462       7473       7472       7582       7583       7594       7593  
      7462       7463       7474       7473       7583       7584       7595       7594  
      7463       7464       7475       7474       7584       7585       7596       7595  
      7464       7465       7476       7475       7585       7586       7597       7596  
      7465       7466       7477       7476       7586       7587       7598       7597  
      7466       7467       7478       7477       7587       7588       7599       7598  
      7467       7468       7479       7478       7588       7589       7600       7599  
      7468       7469       7480       7479       7589       7590       7601       7600  
      7470       7471       7482       7481       7591       7592       7603       7602  
      7471       7472       7483       7482       7592       7593       7604       7603  
      7472       7473       7484       7483       7593       7594       7605       7604  
      7473       7474       7485       7484       7594       7595       7606       7605  
      7474       7475       7486       7485       7595       7596       7607       7606  
      7475       7476       7487       7486       7596       7597       7608       7607  
      7476       7477       7488       7487       7597       7598       7609       7608  
      7477       7478       7489       7488       7598       7599       7610       7609  
      7478       7479       7490       7489       7599       7600       7611       7610  
      7479       7480       7491       7490       7600       7601       7612       7611  
      7481       7482       7493       7492       7602       7603       7614       7613  
      7482       7483       7494       7493       7603       7604       7615       7614  
      7483       7484       7495       7494       7604       7605       7616       7615  
      7484       7485       7496       7495       7605       7606       7617       7616  
      7485       7486       7497       7496       7606       7607       7618       7617  
      7486       7487       7498       7497       7607       7608       7619       7618  
      7487       7488       7499       7498       7608       7609       7620       7619  
      7488       7489       7500       7499       7609       7610       7621       7620  
      7489       7490       7501       7500       7610       7611       7622       7621  
      7490       7491       7502       7501       7611       7612       7623       7622  
      7503       7504       7515       7514       7624       7625       7636       7635  
      7504       7505       7516       7515       7625       7626       7637       7636  
      7505       7506       7517       7516       7626       7627       7638       7637  
      7506       7507       7518       7517       7627       7628       7639       7638  
      7507       7508       7519       7518       7628       7629       7640       7639  
      7508       7509       7520       7519       7629       7630       7641       7640  
      7509       7510       7521       7520       7630       7631       7642       7641  
      7510       7511       7522       7521       7631       7632       7643       7642  
      7511       7512       7523       7522       7632       7633       7644       7643  
      7512       7513       7524       7523       7633       7634       7645       7644  
      7514       7515       7526       7525       7635       7636       7647       7646  
      7515       7516       7527       7526       7636       7637       7648       7647  
      7516       7517       7528       7527       7637       7638       7649       7648  
      7517       7518       7529       7528       7638       7639       7650       7649  
      7518       7519       7530       7529       7639       7640       7651       7650  
      7519       7520       7531       7530       7640       7641       7652       7651  
      7520       7521       7532       7531       7641       7642       7653       7652  
      7521       7522       7533       7532       7642       7643       7654       7653  
      7522       7523       7534       7533       7643       7644       7655       7654  
      7523       7524       7535       7534       7644       7645       7656       7655  
      7525       7526       7537       7536       7646       7647       7658       7657  
      7526       7527       7538       7537       7647       7648       7659       7658  
      7527       7528       7539       7538       7648       7649       7660       7659  
      7528       7529       7540       7539       7649       7650       7661       7660  
      7529       7530       7541       7540       7650       7651       7662       7661  
      7530       7531       7542       7541       7651       7652       7663       7662  
      7531       7532       7543       7542       7652       7653       7664       7663  
      7532       7533       7544       7543       7653       7654       7665       7664  
      7533       7534       7545       7544       7654       7655       7666       7665  
      7534       7535       7546       7545       7655       7656       7667       7666  
      7536       7537       7548       7547       7657       7658       7669       7668  
      7537       7538       7549       7548       7658       7659       7670       7669  
      7538       7539       7550       7549       7659       7660       7671       7670  
      7539       7540       7551       7550       7660       7661       7672       7671  
      7540       7541       7552       7551       7661       7662       7673       7672  
      7541       7542       7553       7552       7662       7663       7674       7673  
      7542       7543       7554       7553       7663       7664       7675       7674  
      7543       7544       7555       7554       7664       7665       7676       7675  
      7544       7545       7556       7555       7665       7666       7677       7676  
      7545       7546       7557       7556       7666       7667       7678       7677  
      7547       7548       7559       7558       7668       7669       7680       7679  
      7548       7549       7560       7559       7669       7670       7681       7680  
      7549       7550       7561       7560       7670       7671       7682       7681  
      7550       7551       7562       7561       7671       7672       7683       7682  
      7551       7552       7563       7562       7672       7673       7684       7683  
      7552       7553       7564       7563       7673       7674       7685       7684  
      7553       7554       7565       7564       7674       7675       7686       7685  
      7554       7555       7566       7565       7675       7676       7687       7686  
      7555       7556       7567       7566       7676       7677       7688       7687  
      7556       7557       7568       7567       7677       7678       7689       7688  
      7558       7559       7570       7569       7679       7680       7691       7690  
      7559       7560       7571       7570       7680       7681       7692       7691  
      7560       7561       7572       7571       7681       7682       7693       7692  
      7561       7562       7573       7572       7682       7683       7694       7693  
      7562       7563       7574       7573       7683       7684       7695       7694  
      7563       7564       7575       7574       7684       7685       7696       7695  
      7564       7565       7576       7575       7685       7686       7697       7696  
      7565       7566       7577       7576       7686       7687       7698       7697  
      7566       7567       7578       7577       7687       7688       7699       7698  
      7567       7568       7579       7578       7688       7689       7700       7699  
      7569       7570       7581       7580       7690       7691       7702       7701  
      7570       7571       7582       7581       7691       7692       7703       7702  
      7571       7572       7583       7582       7692       7693       7704       7703  
      7572       7573       7584       7583       7693       7694       7705       7704  
      7573       7574       7585       7584       7694       7695       7706       7705  
      7574       7575       7586       7585       7695       7696       7707       7706  
      7575       7576       7587       7586       7696       7697       7708       7707  
      7576       7577       7588       7587       7697       7698       7709       7708  
      7577       7578       7589       7588       7698       7699       7710       7709  
      7578       7579       7590       7589       7699       7700       7711       7710  
      7580       7581       7592       7591       7701       7702       7713       7712  
      7581       7582       7593       7592       7702       7703       7714       7713  
      7582       7583       7594       7593       7703       7704       7715       7714  
      7583       7584       7595       7594       7704       7705       7716       7715  
      7584       7585       7596       7595       7705       7706       7717       7716  
      7585       7586       7597       7596       7706       7707       7718       7717  
      7586       7587       7598       7597       7707       7708       7719       7718  
      7587       7588       7599       7598       7708       7709       7720       7719  
      7588       7589       7600       7599       7709       7710       7721       7720  
      7589       7590       7601       7600       7710       7711       7722       7721  
      7591       7592       7603       7602       7712       7713       7724       7723  
      7592       7593       7604       7603       7713       7714       7725       7724  
      7593       7594       7605       7604       7714       7715       7726       7725  
      7594       7595       7606       7605       7715       7716       7727       7726  
      7595       7596       7607       7606       7716       7717       7728       7727  
      7596       7597       7608       7607       7717       7718       7729       7728  
      7597       7598       7609       7608       7718       7719       7730       7729  
      7598       7599       7610       7609       7719       7720       7731       7730  
      7599       7600       7611       7610       7720       7721       7732       7731  
      7600       7601       7612       7611       7721       7722       7733       7732  
      7602       7603       7614       7613       7723       7724       7735       7734  
      7603       7604       7615       7614       7724       7725       7736       7735  
      7604       7605       7616       7615       7725       7726       7737       7736  
      7605       7606       7617       7616       7726       7727       7738       7737  
      7606       7607       7618       7617       7727       7728       7739       7738  
      7607       7608       7619       7618       7728       7729       7740       7739  
      7608       7609       7620       7619       7729       7730       7741       7740  
      7609       7610       7621       7620       7730       7731       7742       7741  
      7610       7611       7622       7621       7731       7732       7743       7742  
      7611       7612       7623       7622       7732       7733       7744       7743  
      7624       7625       7636       7635       7745       7746       7757       7756  
      7625       7626       7637       7636       7746       7747       7758       7757  
      7626       7627       7638       7637       7747       7748       7759       7758  
      7627       7628       7639       7638       7748       7749       7760       7759  
      7628       7629       7640       7639       7749       7750       7761       7760  
      7629       7630       7641       7640       7750       7751       7762       7761  
      7630       7631       7642       7641       7751       7752       7763       7762  
      7631       7632       7643       7642       7752       7753       7764       7763  
      7632       7633       7644       7643       7753       7754       7765       7764  
      7633       7634       7645       7644       7754       7755       7766       7765  
      7635       7636       7647       7646       7756       7757       7768       7767  
      7636       7637       7648       7647       7757       7758       7769       7768  
      7637       7638       7649       7648       7758       7759       7770       7769  
      7638       7639       7650       7649       7759       7760       7771       7770  
      7639       7640       7651       7650       7760       7761       7772       7771  
      7640       7641       7652       7651       7761       7762       7773       7772  
      7641       7642       7653       7652       7762       7763       7774       7773  
      7642       7643       7654       7653       7763       7764       7775       7774  
      7643       7644       7655       7654       7764       7765       7776       7775  
      7644       7645       7656       7655       7765       7766       7777       7776  
      7646       7647       7658       7657       7767       7768       7779       7778  
      7647       7648       7659       7658       7768       7769       7780       7779  
      7648       7649       7660       7659       7769       7770       7781       7780  
      7649       7650       7661       7660       7770       7771       7782       7781  
      7650       7651       7662       7661       7771       7772       7783       7782  
      7651       7652       7663       7662       7772       7773       7784       7783  
      7652       7653       7664       7663       7773       7774       7785       7784  
      7653       7654       7665       7664       7774       7775       7786       7785  
      7654       7655       7666       7665       7775       7776       7787       7786  
      7655       7656       7667       7666       7776       7777       7788       7787  
      7657       7658       7669       7668       7778       7779       7790       7789  
      7658       7659       7670       7669       7779       7780       7791       7790  
      7659       7660       7671       7670       7780       7781       7792       7791  
      7660       7661       7672       7671       7781       7782       7793       7792  
      7661       7662       7673       7672       7782       7783       7794       7793  
      7662       7663       7674       7673       7783       7784       7795       7794  
      7663       7664       7675       7674       7784       7785       7796       7795  
      7664       7665       7676       7675       7785       7786       7797       7796  
      7665       7666       7677       7676       7786       7787       7798       7797  
      7666       7667       7678       7677       7787       7788       7799       7798  
      7668       7669       7680       7679       7789       7790       7801       7800  
      7669       7670       7681       7680       7790       7791       7802       7801  
      7670       7671       7682       7681       7791       7792       7803       7802  
      7671       7672       7683       7682       7792       7793       7804       7803  
      7672       7673       7684       7683       7793       7794       7805       7804  
      7673       7674       7685       7684       7794       7795       7806       7805  
      7674       7675       7686       7685       7795       7796       7807       7806  
      7675       7676       7687       7686       7796       7797       7808       7807  
      7676       7677       7688       7687       7797       7798       7809       7808  
      7677       7678       7689       7688       7798       7799       7810       7809  
      7679       7680       7691       7690       7800       7801       7812       7811  
      7680       7681       7692       7691       7801       7802       7813       7812  
      7681       7682       7693       7692       7802       7803       7814       7813  
      7682       7683       7694       7693       7803       7804       7815       7814  
      7683       7684       7695       7694       7804       7805       7816       7815  
      7684       7685       7696       7695       7805       7806       7817       7816  
      7685       7686       7697       7696       7806       7807       7818       7817  
      7686       7687       7698       7697       7807       7808       7819       7818  
      7687       7688       7699       7698       7808       7809       7820       7819  
      7688       7689       7700       7699       7809       7810       7821       7820  
      7690       7691       7702       7701       7811       7812       7823       7822  
      7691       7692       7703       7702       7812       7813       7824       7823  
      7692       7693       7704       7703       7813       7814       7825       7824  
      7693       7694       7705       7704       7814       7815       7826       7825  
      7694       7695       7706       7705       7815       7816       7827       7826  
      7695       7696       7707       7706       7816       7817       7828       7827  
      7696       7697       7708       7707       7817       7818       7829       7828  
      7697       7698       7709       7708       7818       7819       7830       7829  
      7698       7699       7710       7709       7819       7820       7831       7830  
      7699       7700       7711       7710       7820       7821       7832       7831  
      7701       7702       7713       7712       7822       7823       7834       7833  
      7702       7703       7714       7713       7823       7824       7835       7834  
      7703       7704       7715       7714       7824       7825       7836       7835  
      7704       7705       7716       7715       7825       7826       7837       7836  
      7705       7706       7717       7716       7826       7827       7838       7837  
      7706       7707       7718       7717       7827       7828       7839       7838  
      7707       7708       7719       7718       7828       7829       7840       7839  
      7708       7709       7720       7719       7829       7830       7841       7840  
      7709       7710       7721       7720       7830       7831       7842       7841  
      7710       7711       7722       7721       7831       7832       7843       7842  
      7712       7713       7724       7723       7833       7834       7845       7844  
      7713       7714       7725       7724       7834       7835       7846       7845  
      7714       7715       7726       7725       7835       7836       7847       7846  
      7715       7716       7727       7726       7836       7837       7848       7847  
      7716       7717       7728       7727       7837       7838       7849       7848  
      7717       7718       7729       7728       7838       7839       7850       7849  
      7718       7719       7730       7729       7839       7840       7851       7850  
      7719       7720       7731       7730       7840       7841       7852       7851  
      7720       7721       7732       7731       7841       7842       7853       7852  
      7721       7722       7733       7732       7842       7843       7854       7853  
      7723       7724       7735       7734       7844       7845       7856       7855  
      7724       7725       7736       7735       7845       7846       7857       7856  
      7725       7726       7737       7736       7846       7847       7858       7857  
      7726       7727       7738       7737       7847       7848       7859       7858  
      7727       7728       7739       7738       7848       7849       7860       7859  
      7728       7729       7740       7739       7849       7850       7861       7860  
      7729       7730       7741       7740       7850       7851       7862       7861  
      7730       7731       7742       7741       7851       7852       7863       7862  
      7731       7732       7743       7742       7852       7853       7864       7863  
      7732       7733       7744       7743       7853       7854       7865       7864  
      7745       7746       7757       7756       7866       7867       7878       7877  
      7746       7747       7758       7757       7867       7868       7879       7878  
      7747       7748       7759       7758       7868       7869       7880       7879  
      7748       7749       7760       7759       7869       7870       7881       7880  
      7749       7750       7761       7760       7870       7871       7882       7881  
      7750       7751       7762       7761       7871       7872       7883       7882  
      7751       7752       7763       7762       7872       7873       7884       7883  
      7752       7753       7764       7763       7873       7874       7885       7884  
      7753       7754       7765       7764       7874       7875       7886       7885  
      7754       7755       7766       7765       7875       7876       7887       7886  
      7756       7757       7768       7767       7877       7878       7889       7888  
      7757       7758       7769       7768       7878       7879       7890       7889  
      7758       7759       7770       7769       7879       7880       7891       7890  
      7759       7760       7771       7770       7880       7881       7892       7891  
      7760       7761       7772       7771       7881       7882       7893       7892  
      7761       7762       7773       7772       7882       7883       7894       7893  
      7762       7763       7774       7773       7883       7884       7895       7894  
      7763       7764       7775       7774       7884       7885       7896       7895  
      7764       7765       7776       7775       7885       7886       7897       7896  
      7765       7766       7777       7776       7886       7887       7898       7897  
      7767       7768       7779       7778       7888       7889       7900       7899  
      7768       7769       7780       7779       7889       7890       7901       7900  
      7769       7770       7781       7780       7890       7891       7902       7901  
      7770       7771       7782       7781       7891       7892       7903       7902  
      7771       7772       7783       7782       7892       7893       7904       7903  
      7772       7773       7784       7783       7893       7894       7905       7904  
      7773       7774       7785       7784       7894       7895       7906       7905  
      7774       7775       7786       7785       7895       7896       7907       7906  
      7775       7776       7787       7786       7896       7897       7908       7907  
      7776       7777       7788       7787       7897       7898       7909       7908  
      7778       7779       7790       7789       7899       7900       7911       7910  
      7779       7780       7791       7790       7900       7901       7912       7911  
      7780       7781       7792       7791       7901       7902       7913       7912  
      7781       7782       7793       7792       7902       7903       7914       7913  
      7782       7783       7794       7793       7903       7904       7915       7914  
      7783       7784       7795       7794       7904       7905       7916       7915  
      7784       7785       7796       7795       7905       7906       7917       7916  
      7785       7786       7797       7796       7906       7907       7918       7917  
      7786       7787       7798       7797       7907       7908       7919       7918  
      7787       7788       7799       7798       7908       7909       7920       7919  
      7789       7790       7801       7800       7910       7911       7922       7921  
      7790       7791       7802       7801       7911       7912       7923       7922  
      7791       7792       7803       7802       7912       7913       7924       7923  
      7792       7793       7804       7803       7913       7914       7925       7924  
      7793       7794       7805       7804       7914       7915       7926       7925  
      7794       7795       7806       7805       7915       7916       7927       7926  
      7795       7796       7807       7806       7916       7917       7928       7927  
      7796       7797       7808       7807       7917       7918       7929       7928  
      7797       7798       7809       7808       7918       7919       7930       7929  
      7798       7799       7810       7809       7919       7920       7931       7930  
      7800       7801       7812       7811       7921       7922       7933       7932  
      7801       7802       7813       7812       7922       7923       7934       7933  
      7802       7803       7814       7813       7923       7924       7935       7934  
      7803       7804       7815       7814       7924       7925       7936       7935  
      7804       7805       7816       7815       7925       7926       7937       7936  
      7805       7806       7817       7816       7926       7927       7938       7937  
      7806       7807       7818       7817       7927       7928       7939       7938  
      7807       7808       7819       7818       7928       7929       7940       7939  
      7808       7809       7820       7819       7929       7930       7941       7940  
      7809       7810       7821       7820       7930       7931       7942       7941  
      7811       7812       7823       7822       7932       7933       7944       7943  
      7812       7813       7824       7823       7933       7934       7945       7944  
      7813       7814       7825       7824       7934       7935       7946       7945  
      7814       7815       7826       7825       7935       7936       7947       7946  
      7815       7816       7827       7826       7936       7937       7948       7947  
      7816       7817       7828       7827       7937       7938       7949       7948  
      7817       7818       7829       7828       7938       7939       7950       7949  
      7818       7819       7830       7829       7939       7940       7951       7950  
      7819       7820       7831       7830       7940       7941       7952       7951  
      7820       7821       7832       7831       7941       7942       7953       7952  
      7822       7823       7834       7833       7943       7944       7955       7954  
      7823       7824       7835       7834       7944       7945       7956       7955  
      7824       7825       7836       7835       7945       7946       7957       7956  
      7825       7826       7837       7836       7946       7947       7958       7957  
      7826       7827       7838       7837       7947       7948       7959       7958  
      7827       7828       7839       7838       7948       7949       7960       7959  
      7828       7829       7840       7839       7949       7950       7961       7960  
      7829       7830       7841       7840       7950       7951       7962       7961  
      7830       7831       7842       7841       7951       7952       7963       7962  
      7831       7832       7843       7842       7952       7953       7964       7963  
      7833       7834       7845       7844       7954       7955       7966       7965  
      7834       7835       7846       7845       7955       7956       7967       7966  
      7835       7836       7847       7846       7956       7957       7968       7967  
      7836       7837       7848       7847       7957       7958       7969       7968  
      7837       7838       7849       7848       7958       7959       7970       7969  
      7838       7839       7850       7849       7959       7960       7971       7970  
      7839       7840       7851       7850       7960       7961       7972       7971  
      7840       7841       7852       7851       7961       7962       7973       7972  
      7841       7842       7853       7852       7962       7963       7974       7973  
      7842       7843       7854       7853       7963       7964       7975       7974  
      7844       7845       7856       7855       7965       7966       7977       7976  
      7845       7846       7857       7856       7966       7967       7978       7977  
      7846       7847       7858       7857       7967       7968       7979       7978  
      7847       7848       7859       7858       7968       7969       7980       7979  
      7848       7849       7860       7859       7969       7970       7981       7980  
      7849       7850       7861       7860       7970       7971       7982       7981  
      7850       7851       7862       7861       7971       7972       7983       7982  
      7851       7852       7863       7862       7972       7973       7984       7983  
      7852       7853       7864       7863       7973       7974       7985       7984  
      7853       7854       7865       7864       7974       7975       7986       7985  
      7866       7867       7878       7877       7987       7988       7999       7998  
      7867       7868       7879       7878       7988       7989       8000       7999  
      7868       7869       7880       7879       7989       7990       8001       8000  
      7869       7870       7881       7880       7990       7991       8002       8001  
      7870       7871       7882       7881       7991       7992       8003       8002  
      7871       7872       7883       7882       7992       7993       8004       8003  
      7872       7873       7884       7883       7993       7994       8005       8004  
      7873       7874       7885       7884       7994       7995       8006       8005  
      7874       7875       7886       7885       7995       7996       8007       8006  
      7875       7876       7887       7886       7996       7997       8008       8007  
      7877       7878       7889       7888       7998       7999       8010       8009  
      7878       7879       7890       7889       7999       8000       8011       8010  
      7879       7880       7891       7890       8000       8001       8012       8011  
      7880       7881       7892       7891       8001       8002       8013       8012  
      7881       7882       7893       7892       8002       8003       8014       8013  
      7882       7883       7894       7893       8003       8004       8015       8014  
      7883       7884       7895       7894       8004       8005       8016       8015  
      7884       7885       7896       7895       8005       8006       8017       8016  
      7885       7886       7897       7896       8006       8007       8018       8017  
      7886       7887       7898       7897       8007       8008       8019       8018  
      7888       7889       7900       7899       8009       8010       8021       8020  
      7889       7890       7901       7900       8010       8011       8022       8021  
      7890       7891       7902       7901       8011       8012       8023       8022  
      7891       7892       7903       7902       8012       8013       8024       8023  
      7892       7893       7904       7903       8013       8014       8025       8024  
      7893       7894       7905       7904       8014       8015       8026       8025  
      7894       7895       7906       7905       8015       8016       8027       8026  
      7895       7896       7907       7906       8016       8017       8028       8027  
      7896       7897       7908       7907       8017       8018       8029       8028  
      7897       7898       7909       7908       8018       8019       8030       8029  
      7899       7900       7911       7910       8020       8021       8032       8031  
      7900       7901       7912       7911       8021       8022       8033       8032  
      7901       7902       7913       7912       8022       8023       8034       8033  
      7902       7903       7914       7913       8023       8024       8035       8034  
      7903       7904       7915       7914       8024       8025       8036       8035  
      7904       7905       7916       7915       8025       8026       8037       8036  
      7905       7906       7917       7916       8026       8027       8038       8037  
      7906       7907       7918       7917       8027       8028       8039       8038  
      7907       7908       7919       7918       8028       8029       8040       8039  
      7908       7909       7920       7919       8029       8030       8041       8040  
      7910       7911       7922       7921       8031       8032       8043       8042  
      7911       7912       7923       7922       8032       8033       8044       8043  
      7912       7913       7924       7923       8033       8034       8045       8044  
      7913       7914       7925       7924       8034       8035       8046       8045  
      7914       7915       7926       7925       8035       8036       8047       8046  
      7915       7916       7927       7926       8036       8037       8048       8047  
      7916       7917       7928       7927       8037       8038       8049       8048  
      7917       7918       7929       7928       8038       8039       8050       8049  
      7918       7919       7930       7929       8039       8040       8051       8050  
      7919       7920       7931       7930       8040       8041       8052       8051  
      7921       7922       7933       7932       8042       8043       8054       8053  
      7922       7923       7934       7933       8043       8044       8055       8054  
      7923       7924       7935       7934       8044       8045       8056       8055  
      7924       7925       7936       7935       8045       8046       8057       8056  
      7925       7926       7937       7936       8046       8047       8058       8057  
      7926       7927       7938       7937       8047       8048       8059       8058  
      7927       7928       7939       7938       8048       8049       8060       8059  
      7928       7929       7940       7939       8049       8050       8061       8060  
      7929       7930       7941       7940       8050       8051       8062       8061  
      7930       7931       7942       7941       8051       8052       8063       8062  
      7932       7933       7944       7943       8053       8054       8065       8064  
      7933       7934       7945       7944       8054       8055       8066       8065  
      7934       7935       7946       7945       8055       8056       8067       8066  
      7935       7936       7947       7946       8056       8057       8068       8067  
      7936       7937       7948       7947       8057       8058       8069       8068  
      7937       7938       7949       7948       8058       8059       8070       8069  
      7938       7939       7950       7949       8059       8060       8071       8070  
      7939       7940       7951       7950       8060       8061       8072       8071  
      7940       7941       7952       7951       8061       8062       8073       8072  
      7941       7942       7953       7952       8062       8063       8074       8073  
      7943       7944       7955       7954       8064       8065       8076       8075  
      7944       7945       7956       7955       8065       8066       8077       8076  
      7945       7946       7957       7956       8066       8067       8078       8077  
      7946       7947       7958       7957       8067       8068       8079       8078  
      7947       7948       7959       7958       8068       8069       8080       8079  
      7948       7949       7960       7959       8069       8070       8081       8080  
      7949       7950       7961       7960       8070       8071       8082       8081  
      7950       7951       7962       7961       8071       8072       8083       8082  
      7951       7952       7963       7962       8072       8073       8084       8083  
      7952       7953       7964       7963       8073       8074       8085       8084  
      7954       7955       7966       7965       8075       8076       8087       8086  
      7955       7956       7967       7966       8076       8077       8088       8087  
      7956       7957       7968       7967       8077       8078       8089       8088  
      7957       7958       7969       7968       8078       8079       8090       8089  
      7958       7959       7970       7969       8079       8080       8091       8090  
      7959       7960       7971       7970       8080       8081       8092       8091  
      7960       7961       7972       7971       8081       8082       8093       8092  
      7961       7962       7973       7972       8082       8083       8094       8093  
      7962       7963       7974       7973       8083       8084       8095       8094  
      7963       7964       7975       7974       8084       8085       8096       8095  
      7965       7966       7977       7976       8086       8087       8098       8097  
      7966       7967       7978       7977       8087       8088       8099       8098  
      7967       7968       7979       7978       8088       8089       8100       8099  
      7968       7969       7980       7979       8089       8090       8101       8100  
      7969       7970       7981       7980       8090       8091       8102       8101  
      7970       7971       7982       7981       8091       8092       8103       8102  
      7971       7972       7983       7982       8092       8093       8104       8103  
      7972       7973       7984       7983       8093       8094       8105       8104  
      7973       7974       7985       7984       8094       8095       8106       8105  
      7974       7975       7986       7985       8095       8096       8107       8106  
      7987       7988       7999       7998       8108       8109       8120       8119  
      7988       7989       8000       7999       8109       8110       8121       8120  
      7989       7990       8001       8000       8110       8111       8122       8121  
      7990       7991       8002       8001       8111       8112       8123       8122  
      7991       7992       8003       8002       8112       8113       8124       8123  
      7992       7993       8004       8003       8113       8114       8125       8124  
      7993       7994       8005       8004       8114       8115       8126       8125  
      7994       7995       8006       8005       8115       8116       8127       8126  
      7995       7996       8007       8006       8116       8117       8128       8127  
      7996       7997       8008       8007       8117       8118       8129       8128  
      7998       7999       8010       8009       8119       8120       8131       8130  
      7999       8000       8011       8010       8120       8121       8132       8131  
      8000       8001       8012       8011       8121       8122       8133       8132  
      8001       8002       8013       8012       8122       8123       8134       8133  
      8002       8003       8014       8013       8123       8124       8135       8134  
      8003       8004       8015       8014       8124       8125       8136       8135  
      8004       8005       8016       8015       8125       8126       8137       8136  
      8005       8006       8017       8016       8126       8127       8138       8137  
      8006       8007       8018       8017       8127       8128       8139       8138  
      8007       8008       8019       8018       8128       8129       8140       8139  
      8009       8010       8021       8020       8130       8131       8142       8141  
      8010       8011       8022       8021       8131       8132       8143       8142  
      8011       8012       8023       8022       8132       8133       8144       8143  
      8012       8013       8024       8023       8133       8134       8145       8144  
      8013       8014       8025       8024       8134       8135       8146       8145  
      8014       8015       8026       8025       8135       8136       8147       8146  
      8015       8016       8027       8026       8136       8137       8148       8147  
      8016       8017       8028       8027       8137       8138       8149       8148  
      8017       8018       8029       8028       8138       8139       8150       8149  
      8018       8019       8030       8029       8139       8140       8151       8150  
      8020       8021       8032       8031       8141       8142       8153       8152  
      8021       8022       8033       8032       8142       8143       8154       8153  
      8022       8023       8034       8033       8143       8144       8155       8154  
      8023       8024       8035       8034       8144       8145       8156       8155  
      8024       8025       8036       8035       8145       8146       8157       8156  
      8025       8026       8037       8036       8146       8147       8158       8157  
      8026       8027       8038       8037       8147       8148       8159       8158  
      8027       8028       8039       8038       8148       8149       8160       8159  
      8028       8029       8040       8039       8149       8150       8161       8160  
      8029       8030       8041       8040       8150       8151       8162       8161  
      8031       8032       8043       8042       8152       8153       8164       8163  
      8032       8033       8044       8043       8153       8154       8165       8164  
      8033       8034       8045       8044       8154       8155       8166       8165  
      8034       8035       8046       8045       8155       8156       8167       8166  
      8035       8036       8047       8046       8156       8157       8168       8167  
      8036       8037       8048       8047       8157       8158       8169       8168  
      8037       8038       8049       8048       8158       8159       8170       8169  
      8038       8039       8050       8049       8159       8160       8171       8170  
      8039       8040       8051       8050       8160       8161       8172       8171  
      8040       8041       8052       8051       8161       8162       8173       8172  
      8042       8043       8054       8053       8163       8164       8175       8174  
      8043       8044       8055       8054       8164       8165       8176       8175  
      8044       8045       8056       8055       8165       8166       8177       8176  
      8045       8046       8057       8056       8166       8167       8178       8177  
      8046       8047       8058       8057       8167       8168       8179       8178  
      8047       8048       8059       8058       8168       8169       8180       8179  
      8048       8049       8060       8059       8169       8170       8181       8180  
      8049       8050       8061       8060       8170       8171       8182       8181  
      8050       8051       8062       8061       8171       8172       8183       8182  
      8051       8052       8063       8062       8172       8173       8184       8183  
      8053       8054       8065       8064       8174       8175       8186       8185  
      8054       8055       8066       8065       8175       8176       8187       8186  
      8055       8056       8067       8066       8176       8177       8188       8187  
      8056       8057       8068       8067       8177       8178       8189       8188  
      8057       8058       8069       8068       8178       8179       8190       8189  
      8058       8059       8070       8069       8179       8180       8191       8190  
      8059       8060       8071       8070       8180       8181       8192       8191  
      8060       8061       8072       8071       8181       8182       8193       8192  
      8061       8062       8073       8072       8182       8183       8194       8193  
      8062       8063       8074       8073       8183       8184       8195       8194  
      8064       8065       8076       8075       8185       8186       8197       8196  
      8065       8066       8077       8076       8186       8187       8198       8197  
      8066       8067       8078       8077       8187       8188       8199       8198  
      8067       8068       8079       8078       8188       8189       8200       8199  
      8068       8069       8080       8079       8189       8190       8201       8200  
      8069       8070       8081       8080       8190       8191       8202       8201  
      8070       8071       8082       8081       8191       8192       8203       8202  
      8071       8072       8083       8082       8192       8193       8204       8203  
      8072       8073       8084       8083       8193       8194       8205       8204  
      8073       8074       8085       8084       8194       8195       8206       8205  
      8075       8076       8087       8086       8196       8197       8208       8207  
      8076       8077       8088       8087       8197       8198       8209       8208  
      8077       8078       8089       8088       8198       8199       8210       8209  
      8078       8079       8090       8089       8199       8200       8211       8210  
      8079       8080       8091       8090       8200       8201       8212       8211  
      8080       8081       8092       8091       8201       8202       8213       8212  
      8081       8082       8093       8092       8202       8203       8214       8213  
      8082       8083       8094       8093       8203       8204       8215       8214  
      8083       8084       8095       8094       8204       8205       8216       8215  
      8084       8085       8096       8095       8205       8206       8217       8216  
      8086       8087       8098       8097       8207       8208       8219       8218  
      8087       8088       8099       8098       8208       8209       8220       8219  
      8088       8089       8100       8099       8209       8210       8221       8220  
      8089       8090       8101       8100       8210       8211       8222       8221  
      8090       8091       8102       8101       8211       8212       8223       8222  
      8091       8092       8103       8102       8212       8213       8224       8223  
      8092       8093       8104       8103       8213       8214       8225       8224  
      8093       8094       8105       8104       8214       8215       8226       8225  
      8094       8095       8106       8105       8215       8216       8227       8226  
      8095       8096       8107       8106       8216       8217       8228       8227  
      8108       8109       8120       8119       8229       8230       8241       8240  
      8109       8110       8121       8120       8230       8231       8242       8241  
      8110       8111       8122       8121       8231       8232       8243       8242  
      8111       8112       8123       8122       8232       8233       8244       8243  
      8112       8113       8124       8123       8233       8234       8245       8244  
      8113       8114       8125       8124       8234       8235       8246       8245  
      8114       8115       8126       8125       8235       8236       8247       8246  
      8115       8116       8127       8126       8236       8237       8248       8247  
      8116       8117       8128       8127       8237       8238       8249       8248  
      8117       8118       8129       8128       8238       8239       8250       8249  
      8119       8120       8131       8130       8240       8241       8252       8251  
      8120       8121       8132       8131       8241       8242       8253       8252  
      8121       8122       8133       8132       8242       8243       8254       8253  
      8122       8123       8134       8133       8243       8244       8255       8254  
      8123       8124       8135       8134       8244       8245       8256       8255  
      8124       8125       8136       8135       8245       8246       8257       8256  
      8125       8126       8137       8136       8246       8247       8258       8257  
      8126       8127       8138       8137       8247       8248       8259       8258  
      8127       8128       8139       8138       8248       8249       8260       8259  
      8128       8129       8140       8139       8249       8250       8261       8260  
      8130       8131       8142       8141       8251       8252       8263       8262  
      8131       8132       8143       8142       8252       8253       8264       8263  
      8132       8133       8144       8143       8253       8254       8265       8264  
      8133       8134       8145       8144       8254       8255       8266       8265  
      8134       8135       8146       8145       8255       8256       8267       8266  
      8135       8136       8147       8146       8256       8257       8268       8267  
      8136       8137       8148       8147       8257       8258       8269       8268  
      8137       8138       8149       8148       8258       8259       8270       8269  
      8138       8139       8150       8149       8259       8260       8271       8270  
      8139       8140       8151       8150       8260       8261       8272       8271  
      8141       8142       8153       8152       8262       8263       8274       8273  
      8142       8143       8154       8153       8263       8264       8275       8274  
      8143       8144       8155       8154       8264       8265       8276       8275  
      8144       8145       8156       8155       8265       8266       8277       8276  
      8145       8146       8157       8156       8266       8267       8278       8277  
      8146       8147       8158       8157       8267       8268       8279       8278  
      8147       8148       8159       8158       8268       8269       8280       8279  
      8148       8149       8160       8159       8269       8270       8281       8280  
      8149       8150       8161       8160       8270       8271       8282       8281  
      8150       8151       8162       8161       8271       8272       8283       8282  
      8152       8153       8164       8163       8273       8274       8285       8284  
      8153       8154       8165       8164       8274       8275       8286       8285  
      8154       8155       8166       8165       8275       8276       8287       8286  
      8155       8156       8167       8166       8276       8277       8288       8287  
      8156       8157       8168       8167       8277       8278       8289       8288  
      8157       8158       8169       8168       8278       8279       8290       8289  
      8158       8159       8170       8169       8279       8280       8291       8290  
      8159       8160       8171       8170       8280       8281       8292       8291  
      8160       8161       8172       8171       8281       8282       8293       8292  
      8161       8162       8173       8172       8282       8283       8294       8293  
      8163       8164       8175       8174       8284       8285       8296       8295  
      8164       8165       8176       8175       8285       8286       8297       8296  
      8165       8166       8177       8176       8286       8287       8298       8297  
      8166       8167       8178       8177       8287       8288       8299       8298  
      8167       8168       8179       8178       8288       8289       8300       8299  
      8168       8169       8180       8179       8289       8290       8301       8300  
      8169       8170       8181       8180       8290       8291       8302       8301  
      8170       8171       8182       8181       8291       8292       8303       8302  
      8171       8172       8183       8182       8292       8293       8304       8303  
      8172       8173       8184       8183       8293       8294       8305       8304  
      8174       8175       8186       8185       8295       8296       8307       8306  
      8175       8176       8187       8186       8296       8297       8308       8307  
      8176       8177       8188       8187       8297       8298       8309       8308  
      8177       8178       8189       8188       8298       8299       8310       8309  
      8178       8179       8190       8189       8299       8300       8311       8310  
      8179       8180       8191       8190       8300       8301       8312       8311  
      8180       8181       8192       8191       8301       8302       8313       8312  
      8181       8182       8193       8192       8302       8303       8314       8313  
      8182       8183       8194       8193       8303       8304       8315       8314  
      8183       8184       8195       8194       8304       8305       8316       8315  
      8185       8186       8197       8196       8306       8307       8318       8317  
      8186       8187       8198       8197       8307       8308       8319       8318  
      8187       8188       8199       8198       8308       8309       8320       8319  
      8188       8189       8200       8199       8309       8310       8321       8320  
      8189       8190       8201       8200       8310       8311       8322       8321  
      8190       8191       8202       8201       8311       8312       8323       8322  
      8191       8192       8203       8202       8312       8313       8324       8323  
      8192       8193       8204       8203       8313       8314       8325       8324  
      8193       8194       8205       8204       8314       8315       8326       8325  
      8194       8195       8206       8205       8315       8316       8327       8326  
      8196       8197       8208       8207       8317       8318       8329       8328  
      8197       8198       8209       8208       8318       8319       8330       8329  
      8198       8199       8210       8209       8319       8320       8331       8330  
      8199       8200       8211       8210       8320       8321       8332       8331  
      8200       8201       8212       8211       8321       8322       8333       8332  
      8201       8202       8213       8212       8322       8323       8334       8333  
      8202       8203       8214       8213       8323       8324       8335       8334  
      8203       8204       8215       8214       8324       8325       8336       8335  
      8204       8205       8216       8215       8325       8326       8337       8336  
      8205       8206       8217       8216       8326       8327       8338       8337  
      8207       8208       8219       8218       8328       8329       8340       8339  
      8208       8209       8220       8219       8329       8330       8341       8340  
      8209       8210       8221       8220       8330       8331       8342       8341  
      8210       8211       8222       8221       8331       8332       8343       8342  
      8211       8212       8223       8222       8332       8333       8344       8343  
      8212       8213       8224       8223       8333       8334       8345       8344  
      8213       8214       8225       8224       8334       8335       8346       8345  
      8214       8215       8226       8225       8335       8336       8347       8346  
      8215       8216       8227       8226       8336       8337       8348       8347  
      8216       8217       8228       8227       8337       8338       8349       8348  
      8229       8230       8241       8240       8350       8351       8362       8361  
      8230       8231       8242       8241       8351       8352       8363       8362  
      8231       8232       8243       8242       8352       8353       8364       8363  
      8232       8233       8244       8243       8353       8354       8365       8364  
      8233       8234       8245       8244       8354       8355       8366       8365  
      8234       8235       8246       8245       8355       8356       8367       8366  
      8235       8236       8247       8246       8356       8357       8368       8367  
      8236       8237       8248       8247       8357       8358       8369       8368  
      8237       8238       8249       8248       8358       8359       8370       8369  
      8238       8239       8250       8249       8359       8360       8371       8370  
      8240       8241       8252       8251       8361       8362       8373       8372  
      8241       8242       8253       8252       8362       8363       8374       8373  
      8242       8243       8254       8253       8363       8364       8375       8374  
      8243       8244       8255       8254       8364       8365       8376       8375  
      8244       8245       8256       8255       8365       8366       8377       8376  
      8245       8246       8257       8256       8366       8367       8378       8377  
      8246       8247       8258       8257       8367       8368       8379       8378  
      8247       8248       8259       8258       8368       8369       8380       8379  
      8248       8249       8260       8259       8369       8370       8381       8380  
      8249       8250       8261       8260       8370       8371       8382       8381  
      8251       8252       8263       8262       8372       8373       8384       8383  
      8252       8253       8264       8263       8373       8374       8385       8384  
      8253       8254       8265       8264       8374       8375       8386       8385  
      8254       8255       8266       8265       8375       8376       8387       8386  
      8255       8256       8267       8266       8376       8377       8388       8387  
      8256       8257       8268       8267       8377       8378       8389       8388  
      8257       8258       8269       8268       8378       8379       8390       8389  
      8258       8259       8270       8269       8379       8380       8391       8390  
      8259       8260       8271       8270       8380       8381       8392       8391  
      8260       8261       8272       8271       8381       8382       8393       8392  
      8262       8263       8274       8273       8383       8384       8395       8394  
      8263       8264       8275       8274       8384       8385       8396       8395  
      8264       8265       8276       8275       8385       8386       8397       8396  
      8265       8266       8277       8276       8386       8387       8398       8397  
      8266       8267       8278       8277       8387       8388       8399       8398  
      8267       8268       8279       8278       8388       8389       8400       8399  
      8268       8269       8280       8279       8389       8390       8401       8400  
      8269       8270       8281       8280       8390       8391       8402       8401  
      8270       8271       8282       8281       8391       8392       8403       8402  
      8271       8272       8283       8282       8392       8393       8404       8403  
      8273       8274       8285       8284       8394       8395       8406       8405  
      8274       8275       8286       8285       8395       8396       8407       8406  
      8275       8276       8287       8286       8396       8397       8408       8407  
      8276       8277       8288       8287       8397       8398       8409       8408  
      8277       8278       8289       8288       8398       8399       8410       8409  
      8278       8279       8290       8289       8399       8400       8411       8410  
      8279       8280       8291       8290       8400       8401       8412       8411  
      8280       8281       8292       8291       8401       8402       8413       8412  
      8281       8282       8293       8292       8402       8403       8414       8413  
      8282       8283       8294       8293       8403       8404       8415       8414  
      8284       8285       8296       8295       8405       8406       8417       8416  
      8285       8286       8297       8296       8406       8407       8418       8417  
      8286       8287       8298       8297       8407       8408       8419       8418  
      8287       8288       8299       8298       8408       8409       8420       8419  
      8288       8289       8300       8299       8409       8410       8421       8420  
      8289       8290       8301       8300       8410       8411       8422       8421  
      8290       8291       8302       8301       8411       8412       8423       8422  
      8291       8292       8303       8302       8412       8413       8424       8423  
      8292       8293       8304       8303       8413       8414       8425       8424  
      8293       8294       8305       8304       8414       8415       8426       8425  
      8295       8296       8307       8306       8416       8417       8428       8427  
      8296       8297       8308       8307       8417       8418       8429       8428  
      8297       8298       8309       8308       8418       8419       8430       8429  
      8298       8299       8310       8309       8419       8420       8431       8430  
      8299       8300       8311       8310       8420       8421       8432       8431  
      8300       8301       8312       8311       8421       8422       8433       8432  
      8301       8302       8313       8312       8422       8423       8434       8433  
      8302       8303       8314       8313       8423       8424       8435       8434  
      8303       8304       8315       8314       8424       8425       8436       8435  
      8304       8305       8316       8315       8425       8426       8437       8436  
      8306       8307       8318       8317       8427       8428       8439       8438  
      8307       8308       8319       8318       8428       8429       8440       8439  
      8308       8309       8320       8319       8429       8430       8441       8440  
      8309       8310       8321       8320       8430       8431       8442       8441  
      8310       8311       8322       8321       8431       8432       8443       8442  
      8311       8312       8323       8322       8432       8433       8444       8443  
      8312       8313       8324       8323       8433       8434       8445       8444  
      8313       8314       8325       8324       8434       8435       8446       8445  
      8314       8315       8326       8325       8435       8436       8447       8446  
      8315       8316       8327       8326       8436       8437       8448       8447  
      8317       8318       8329       8328       8438       8439       8450       8449  
      8318       8319       8330       8329       8439       8440       8451       8450  
      8319       8320       8331       8330       8440       8441       8452       8451  
      8320       8321       8332       8331       8441       8442       8453       8452  
      8321       8322       8333       8332       8442       8443       8454       8453  
      8322       8323       8334       8333       8443       8444       8455       8454  
      8323       8324       8335       8334       8444       8445       8456       8455  
      8324       8325       8336       8335       8445       8446       8457       8456  
      8325       8326       8337       8336       8446       8447       8458       8457  
      8326       8327       8338       8337       8447       8448       8459       8458  
      8328       8329       8340       8339       8449       8450       8461       8460  
      8329       8330       8341       8340       8450       8451       8462       8461  
      8330       8331       8342       8341       8451       8452       8463       8462  
      8331       8332       8343       8342       8452       8453       8464       8463  
      8332       8333       8344       8343       8453       8454       8465       8464  
      8333       8334       8345       8344       8454       8455       8466       8465  
      8334       8335       8346       8345       8455       8456       8467       8466  
      8335       8336       8347       8346       8456       8457       8468       8467  
      8336       8337       8348       8347       8457       8458       8469       8468  
      8337       8338       8349       8348       8458       8459       8470       8469  
      8350       8351       8362       8361       8471       8472       8483       8482  
      8351       8352       8363       8362       8472       8473       8484       8483  
      8352       8353       8364       8363       8473       8474       8485       8484  
      8353       8354       8365       8364       8474       8475       8486       8485  
      8354       8355       8366       8365       8475       8476       8487       8486  
      8355       8356       8367       8366       8476       8477       8488       8487  
      8356       8357       8368       8367       8477       8478       8489       8488  
      8357       8358       8369       8368       8478       8479       8490       8489  
      8358       8359       8370       8369       8479       8480       8491       8490  
      8359       8360       8371       8370       8480       8481       8492       8491  
      8361       8362       8373       8372       8482       8483       8494       8493  
      8362       8363       8374       8373       8483       8484       8495       8494  
      8363       8364       8375       8374       8484       8485       8496       8495  
      8364       8365       8376       8375       8485       8486       8497       8496  
      8365       8366       8377       8376       8486       8487       8498       8497  
      8366       8367       8378       8377       8487       8488       8499       8498  
      8367       8368       8379       8378       8488       8489       8500       8499  
      8368       8369       8380       8379       8489       8490       8501       8500  
      8369       8370       8381       8380       8490       8491       8502       8501  
      8370       8371       8382       8381       8491       8492       8503       8502  
      8372       8373       8384       8383       8493       8494       8505       8504  
      8373       8374       8385       8384       8494       8495       8506       8505  
      8374       8375       8386       8385       8495       8496       8507       8506  
      8375       8376       8387       8386       8496       8497       8508       8507  
      8376       8377       8388       8387       8497       8498       8509       8508  
      8377       8378       8389       8388       8498       8499       8510       8509  
      8378       8379       8390       8389       8499       8500       8511       8510  
      8379       8380       8391       8390       8500       8501       8512       8511  
      8380       8381       8392       8391       8501       8502       8513       8512  
      8381       8382       8393       8392       8502       8503       8514       8513  
      8383       8384       8395       8394       8504       8505       8516       8515  
      8384       8385       8396       8395       8505       8506       8517       8516  
      8385       8386       8397       8396       8506       8507       8518       8517  
      8386       8387       8398       8397       8507       8508       8519       8518  
      8387       8388       8399       8398       8508       8509       8520       8519  
      8388       8389       8400       8399       8509       8510       8521       8520  
      8389       8390       8401       8400       8510       8511       8522       8521  
      8390       8391       8402       8401       8511       8512       8523       8522  
      8391       8392       8403       8402       8512       8513       8524       8523  
      8392       8393       8404       8403       8513       8514       8525       8524  
      8394       8395       8406       8405       8515       8516       8527       8526  
      8395       8396       8407       8406       8516       8517       8528       8527  
      8396       8397       8408       8407       8517       8518       8529       8528  
      8397       8398       8409       8408       8518       8519       8530       8529  
      8398       8399       8410       8409       8519       8520       8531       8530  
      8399       8400       8411       8410       8520       8521       8532       8531  
      8400       8401       8412       8411       8521       8522       8533       8532  
      8401       8402       8413       8412       8522       8523       8534       8533  
      8402       8403       8414       8413       8523       8524       8535       8534  
      8403       8404       8415       8414       8524       8525       8536       8535  
      8405       8406       8417       8416       8526       8527       8538       8537  
      8406       8407       8418       8417       8527       8528       8539       8538  
      8407       8408       8419       8418       8528       8529       8540       8539  
      8408       8409       8420       8419       8529       8530       8541       8540  
      8409       8410       8421       8420       8530       8531       8542       8541  
      8410       8411       8422       8421       8531       8532       8543       8542  
      8411       8412       8423       8422       8532       8533       8544       8543  
      8412       8413       8424       8423       8533       8534       8545       8544  
      8413       8414       8425       8424       8534       8535       8546       8545  
      8414       8415       8426       8425       8535       8536       8547       8546  
      8416       8417       8428       8427       8537       8538       8549       8548  
      8417       8418       8429       8428       8538       8539       8550       8549  
      8418       8419       8430       8429       8539       8540       8551       8550  
      8419       8420       8431       8430       8540       8541       8552       8551  
      8420       8421       8432       8431       8541       8542       8553       8552  
      8421       8422       8433       8432       8542       8543       8554       8553  
      8422       8423       8434       8433       8543       8544       8555       8554  
      8423       8424       8435       8434       8544       8545       8556       8555  
      8424       8425       8436       8435       8545       8546       8557       8556  
      8425       8426       8437       8436       8546       8547       8558       8557  
      8427       8428       8439       8438       8548       8549       8560       8559  
      8428       8429       8440       8439       8549       8550       8561       8560  
      8429       8430       8441       8440       8550       8551       8562       8561  
      8430       8431       8442       8441       8551       8552       8563       8562  
      8431       8432       8443       8442       8552       8553       8564       8563  
      8432       8433       8444       8443       8553       8554       8565       8564  
      8433       8434       8445       8444       8554       8555       8566       8565  
      8434       8435       8446       8445       8555       8556       8567       8566  
      8435       8436       8447       8446       8556       8557       8568       8567  
      8436       8437       8448       8447       8557       8558       8569       8568  
      8438       8439       8450       8449       8559       8560       8571       8570  
      8439       8440       8451       8450       8560       8561       8572       8571  
      8440       8441       8452       8451       8561       8562       8573       8572  
      8441       8442       8453       8452       8562       8563       8574       8573  
      8442       8443       8454       8453       8563       8564       8575       8574  
      8443       8444       8455       8454       8564       8565       8576       8575  
      8444       8445       8456       8455       8565       8566       8577       8576  
      8445       8446       8457       8456       8566       8567       8578       8577  
      8446       8447       8458       8457       8567       8568       8579       8578  
      8447       8448       8459       8458       8568       8569       8580       8579  
      8449       8450       8461       8460       8570       8571       8582       8581  
      8450       8451       8462       8461       8571       8572       8583       8582  
      8451       8452       8463       8462       8572       8573       8584       8583  
      8452       8453       8464       8463       8573       8574       8585       8584  
      8453       8454       8465       8464       8574       8575       8586       8585  
      8454       8455       8466       8465       8575       8576       8587       8586  
      8455       8456       8467       8466       8576       8577       8588       8587  
      8456       8457       8468       8467       8577       8578       8589       8588  
      8457       8458       8469       8468       8578       8579       8590       8589  
      8458       8459       8470       8469       8579       8580       8591       8590  
      8471       8472       8483       8482       8592       8593       8604       8603  
      8472       8473       8484       8483       8593       8594       8605       8604  
      8473       8474       8485       8484       8594       8595       8606       8605  
      8474       8475       8486       8485       8595       8596       8607       8606  
      8475       8476       8487       8486       8596       8597       8608       8607  
      8476       8477       8488       8487       8597       8598       8609       8608  
      8477       8478       8489       8488       8598       8599       8610       8609  
      8478       8479       8490       8489       8599       8600       8611       8610  
      8479       8480       8491       8490       8600       8601       8612       8611  
      8480       8481       8492       8491       8601       8602       8613       8612  
      8482       8483       8494       8493       8603       8604       8615       8614  
      8483       8484       8495       8494       8604       8605       8616       8615  
      8484       8485       8496       8495       8605       8606       8617       8616  
      8485       8486       8497       8496       8606       8607       8618       8617  
      8486       8487       8498       8497       8607       8608       8619       8618  
      8487       8488       8499       8498       8608       8609       8620       8619  
      8488       8489       8500       8499       8609       8610       8621       8620  
      8489       8490       8501       8500       8610       8611       8622       8621  
      8490       8491       8502       8501       8611       8612       8623       8622  
      8491       8492       8503       8502       8612       8613       8624       8623  
      8493       8494       8505       8504       8614       8615       8626       8625  
      8494       8495       8506       8505       8615       8616       8627       8626  
      8495       8496       8507       8506       8616       8617       8628       8627  
      8496       8497       8508       8507       8617       8618       8629       8628  
      8497       8498       8509       8508       8618       8619       8630       8629  
      8498       8499       8510       8509       8619       8620       8631       8630  
      8499       8500       8511       8510       8620       8621       8632       8631  
      8500       8501       8512       8511       8621       8622       8633       8632  
      8501       8502       8513       8512       8622       8623       8634       8633  
      8502       8503       8514       8513       8623       8624       8635       8634  
      8504       8505       8516       8515       8625       8626       8637       8636  
      8505       8506       8517       8516       8626       8627       8638       8637  
      8506       8507       8518       8517       8627       8628       8639       8638  
      8507       8508       8519       8518       8628       8629       8640       8639  
      8508       8509       8520       8519       8629       8630       8641       8640  
      8509       8510       8521       8520       8630       8631       8642       8641  
      8510       8511       8522       8521       8631       8632       8643       8642  
      8511       8512       8523       8522       8632       8633       8644       8643  
      8512       8513       8524       8523       8633       8634       8645       8644  
      8513       8514       8525       8524       8634       8635       8646       8645  
      8515       8516       8527       8526       8636       8637       8648       8647  
      8516       8517       8528       8527       8637       8638       8649       8648  
      8517       8518       8529       8528       8638       8639       8650       8649  
      8518       8519       8530       8529       8639       8640       8651       8650  
      8519       8520       8531       8530       8640       8641       8652       8651  
      8520       8521       8532       8531       8641       8642       8653       8652  
      8521       8522       8533       8532       8642       8643       8654       8653  
      8522       8523       8534       8533       8643       8644       8655       8654  
      8523       8524       8535       8534       8644       8645       8656       8655  
      8524       8525       8536       8535       8645       8646       8657       8656  
      8526       8527       8538       8537       8647       8648       8659       8658  
      8527       8528       8539       8538       8648       8649       8660       8659  
      8528       8529       8540       8539       8649       8650       8661       8660  
      8529       8530       8541       8540       8650       8651       8662       8661  
      8530       8531       8542       8541       8651       8652       8663       8662  
      8531       8532       8543       8542       8652       8653       8664       8663  
      8532       8533       8544       8543       8653       8654       8665       8664  
      8533       8534       8545       8544       8654       8655       8666       8665  
      8534       8535       8546       8545       8655       8656       8667       8666  
      8535       8536       8547       8546       8656       8657       8668       8667  
      8537       8538       8549       8548       8658       8659       8670       8669  
      8538       8539       8550       8549       8659       8660       8671       8670  
      8539       8540       8551       8550       8660       8661       8672       8671  
      8540       8541       8552       8551       8661       8662       8673       8672  
      8541       8542       8553       8552       8662       8663       8674       8673  
      8542       8543       8554       8553       8663       8664       8675       8674  
      8543       8544       8555       8554       8664       8665       8676       8675  
      8544       8545       8556       8555       8665       8666       8677       8676  
      8545       8546       8557       8556       8666       8667       8678       8677  
      8546       8547       8558       8557       8667       8668       8679       8678  
      8548       8549       8560       8559       8669       8670       8681       8680  
      8549       8550       8561       8560       8670       8671       8682       8681  
      8550       8551       8562       8561       8671       8672       8683       8682  
      8551       8552       8563       8562       8672       8673       8684       8683  
      8552       8553       8564       8563       8673       8674       8685       8684  
      8553       8554       8565       8564       8674       8675       8686       8685  
      8554       8555       8566       8565       8675       8676       8687       8686  
      8555       8556       8567       8566       8676       8677       8688       8687  
      8556       8557       8568       8567       8677       8678       8689       8688  
      8557       8558       8569       8568       8678       8679       8690       8689  
      8559       8560       8571       8570       8680       8681       8692       8691  
      8560       8561       8572       8571       8681       8682       8693       8692  
      8561       8562       8573       8572       8682       8683       8694       8693  
      8562       8563       8574       8573       8683       8684       8695       8694  
      8563       8564       8575       8574       8684       8685       8696       8695  
      8564       8565       8576       8575       8685       8686       8697       8696  
      8565       8566       8577       8576       8686       8687       8698       8697  
      8566       8567       8578       8577       8687       8688       8699       8698  
      8567       8568       8579       8578       8688       8689       8700       8699  
      8568       8569       8580       8579       8689       8690       8701       8700  
      8570       8571       8582       8581       8691       8692       8703       8702  
      8571       8572       8583       8582       8692       8693       8704       8703  
      8572       8573       8584       8583       8693       8694       8705       8704  
      8573       8574       8585       8584       8694       8695       8706       8705  
      8574       8575       8586       8585       8695       8696       8707       8706  
      8575       8576       8587       8586       8696       8697       8708       8707  
      8576       8577       8588       8587       8697       8698       8709       8708  
      8577       8578       8589       8588       8698       8699       8710       8709  
      8578       8579       8590       8589       8699       8700       8711       8710  
      8579       8580       8591       8590       8700       8701       8712       8711  
      8592       8593       8604       8603       8713       8714       8725       8724  
      8593       8594       8605       8604       8714       8715       8726       8725  
      8594       8595       8606       8605       8715       8716       8727       8726  
      8595       8596       8607       8606       8716       8717       8728       8727  
      8596       8597       8608       8607       8717       8718       8729       8728  
      8597       8598       8609       8608       8718       8719       8730       8729  
      8598       8599       8610       8609       8719       8720       8731       8730  
      8599       8600       8611       8610       8720       8721       8732       8731  
      8600       8601       8612       8611       8721       8722       8733       8732  
      8601       8602       8613       8612       8722       8723       8734       8733  
      8603       8604       8615       8614       8724       8725       8736       8735  
      8604       8605       8616       8615       8725       8726       8737       8736  
      8605       8606       8617       8616       8726       8727       8738       8737  
      8606       8607       8618       8617       8727       8728       8739       8738  
      8607       8608       8619       8618       8728       8729       8740       8739  
      8608       8609       8620       8619       8729       8730       8741       8740  
      8609       8610       8621       8620       8730       8731       8742       8741  
      8610       8611       8622       8621       8731       8732       8743       8742  
      8611       8612       8623       8622       8732       8733       8744       8743  
      8612       8613       8624       8623       8733       8734       8745       8744  
      8614       8615       8626       8625       8735       8736       8747       8746  
      8615       8616       8627       8626       8736       8737       8748       8747  
      8616       8617       8628       8627       8737       8738       8749       8748  
      8617       8618       8629       8628       8738       8739       8750       8749  
      8618       8619       8630       8629       8739       8740       8751       8750  
      8619       8620       8631       8630       8740       8741       8752       8751  
      8620       8621       8632       8631       8741       8742       8753       8752  
      8621       8622       8633       8632       8742       8743       8754       8753  
      8622       8623       8634       8633       8743       8744       8755       8754  
      8623       8624       8635       8634       8744       8745       8756       8755  
      8625       8626       8637       8636       8746       8747       8758       8757  
      8626       8627       8638       8637       8747       8748       8759       8758  
      8627       8628       8639       8638       8748       8749       8760       8759  
      8628       8629       8640       8639       8749       8750       8761       8760  
      8629       8630       8641       8640       8750       8751       8762       8761  
      8630       8631       8642       8641       8751       8752       8763       8762  
      8631       8632       8643       8642       8752       8753       8764       8763  
      8632       8633       8644       8643       8753       8754       8765       8764  
      8633       8634       8645       8644       8754       8755       8766       8765  
      8634       8635       8646       8645       8755       8756       8767       8766  
      8636       8637       8648       8647       8757       8758       8769       8768  
      8637       8638       8649       8648       8758       8759       8770       8769  
      8638       8639       8650       8649       8759       8760       8771       8770  
      8639       8640       8651       8650       8760       8761       8772       8771  
      8640       8641       8652       8651       8761       8762       8773       8772  
      8641       8642       8653       8652       8762       8763       8774       8773  
      8642       8643       8654       8653       8763       8764       8775       8774  
      8643       8644       8655       8654       8764       8765       8776       8775  
      8644       8645       8656       8655       8765       8766       8777       8776  
      8645       8646       8657       8656       8766       8767       8778       8777  
      8647       8648       8659       8658       8768       8769       8780       8779  
      8648       8649       8660       8659       8769       8770       8781       8780  
      8649       8650       8661       8660       8770       8771       8782       8781  
      8650       8651       8662       8661       8771       8772       8783       8782  
      8651       8652       8663       8662       8772       8773       8784       8783  
      8652       8653       8664       8663       8773       8774       8785       8784  
      8653       8654       8665       8664       8774       8775       8786       8785  
      8654       8655       8666       8665       8775       8776       8787       8786  
      8655       8656       8667       8666       8776       8777       8788       8787  
      8656       8657       8668       8667       8777       8778       8789       8788  
      8658       8659       8670       8669       8779       8780       8791       8790  
      8659       8660       8671       8670       8780       8781       8792       8791  
      8660       8661       8672       8671       8781       8782       8793       8792  
      8661       8662       8673       8672       8782       8783       8794       8793  
      8662       8663       8674       8673       8783       8784       8795       8794  
      8663       8664       8675       8674       8784       8785       8796       8795  
      8664       8665       8676       8675       8785       8786       8797       8796  
      8665       8666       8677       8676       8786       8787       8798       8797  
      8666       8667       8678       8677       8787       8788       8799       8798  
      8667       8668       8679       8678       8788       8789       8800       8799  
      8669       8670       8681       8680       8790       8791       8802       8801  
      8670       8671       8682       8681       8791       8792       8803       8802  
      8671       8672       8683       8682       8792       8793       8804       8803  
      8672       8673       8684       8683       8793       8794       8805       8804  
      8673       8674       8685       8684       8794       8795       8806       8805  
      8674       8675       8686       8685       8795       8796       8807       8806  
      8675       8676       8687       8686       8796       8797       8808       8807  
      8676       8677       8688       8687       8797       8798       8809       8808  
      8677       8678       8689       8688       8798       8799       8810       8809  
      8678       8679       8690       8689       8799       8800       8811       8810  
      8680       8681       8692       8691       8801       8802       8813       8812  
      8681       8682       8693       8692       8802       8803       8814       8813  
      8682       8683       8694       8693       8803       8804       8815       8814  
      8683       8684       8695       8694       8804       8805       8816       8815  
      8684       8685       8696       8695       8805       8806       8817       8816  
      8685       8686       8697       8696       8806       8807       8818       8817  
      8686       8687       8698       8697       8807       8808       8819       8818  
      8687       8688       8699       8698       8808       8809       8820       8819  
      8688       8689       8700       8699       8809       8810       8821       8820  
      8689       8690       8701       8700       8810       8811       8822       8821  
      8691       8692       8703       8702       8812       8813       8824       8823  
      8692       8693       8704       8703       8813       8814       8825       8824  
      8693       8694       8705       8704       8814       8815       8826       8825  
      8694       8695       8706       8705       8815       8816       8827       8826  
      8695       8696       8707       8706       8816       8817       8828       8827  
      8696       8697       8708       8707       8817       8818       8829       8828  
      8697       8698       8709       8708       8818       8819       8830       8829  
      8698       8699       8710       8709       8819       8820       8831       8830  
      8699       8700       8711       8710       8820       8821       8832       8831  
      8700       8701       8712       8711       8821       8822       8833       8832  
      8713       8714       8725       8724       8834       8835       8846       8845  
      8714       8715       8726       8725       8835       8836       8847       8846  
      8715       8716       8727       8726       8836       8837       8848       8847  
      8716       8717       8728       8727       8837       8838       8849       8848  
      8717       8718       8729       8728       8838       8839       8850       8849  
      8718       8719       8730       8729       8839       8840       8851       8850  
      8719       8720       8731       8730       8840       8841       8852       8851  
      8720       8721       8732       8731       8841       8842       8853       8852  
      8721       8722       8733       8732       8842       8843       8854       8853  
      8722       8723       8734       8733       8843       8844       8855       8854  
      8724       8725       8736       8735       8845       8846       8857       8856  
      8725       8726       8737       8736       8846       8847       8858       8857  
      8726       8727       8738       8737       8847       8848       8859       8858  
      8727       8728       8739       8738       8848       8849       8860       8859  
      8728       8729       8740       8739       8849       8850       8861       8860  
      8729       8730       8741       8740       8850       8851       8862       8861  
      8730       8731       8742       8741       8851       8852       8863       8862  
      8731       8732       8743       8742       8852       8853       8864       8863  
      8732       8733       8744       8743       8853       8854       8865       8864  
      8733       8734       8745       8744       8854       8855       8866       8865  
      8735       8736       8747       8746       8856       8857       8868       8867  
      8736       8737       8748       8747       8857       8858       8869       8868  
      8737       8738       8749       8748       8858       8859       8870       8869  
      8738       8739       8750       8749       8859       8860       8871       8870  
      8739       8740       8751       8750       8860       8861       8872       8871  
      8740       8741       8752       8751       8861       8862       8873       8872  
      8741       8742       8753       8752       8862       8863       8874       8873  
      8742       8743       8754       8753       8863       8864       8875       8874  
      8743       8744       8755       8754       8864       8865       8876       8875  
      8744       8745       8756       8755       8865       8866       8877       8876  
      8746       8747       8758       8757       8867       8868       8879       8878  
      8747       8748       8759       8758       8868       8869       8880       8879  
      8748       8749       8760       8759       8869       8870       8881       8880  
      8749       8750       8761       8760       8870       8871       8882       8881  
      8750       8751       8762       8761       8871       8872       8883       8882  
      8751       8752       8763       8762       8872       8873       8884       8883  
      8752       8753       8764       8763       8873       8874       8885       8884  
      8753       8754       8765       8764       8874       8875       8886       8885  
      8754       8755       8766       8765       8875       8876       8887       8886  
      8755       8756       8767       8766       8876       8877       8888       8887  
      8757       8758       8769       8768       8878       8879       8890       8889  
      8758       8759       8770       8769       8879       8880       8891       8890  
      8759       8760       8771       8770       8880       8881       8892       8891  
      8760       8761       8772       8771       8881       8882       8893       8892  
      8761       8762       8773       8772       8882       8883       8894       8893  
      8762       8763       8774       8773       8883       8884       8895       8894  
      8763       8764       8775       8774       8884       8885       8896       8895  
      8764       8765       8776       8775       8885       8886       8897       8896  
      8765       8766       8777       8776       8886       8887       8898       8897  
      8766       8767       8778       8777       8887       8888       8899       8898  
      8768       8769       8780       8779       8889       8890       8901       8900  
      8769       8770       8781       8780       8890       8891       8902       8901  
      8770       8771       8782       8781       8891       8892       8903       8902  
      8771       8772       8783       8782       8892       8893       8904       8903  
      8772       8773       8784       8783       8893       8894       8905       8904  
      8773       8774       8785       8784       8894       8895       8906       8905  
      8774       8775       8786       8785       8895       8896       8907       8906  
      8775       8776       8787       8786       8896       8897       8908       8907  
      8776       8777       8788       8787       8897       8898       8909       8908  
      8777       8778       8789       8788       8898       8899       8910       8909  
      8779       8780       8791       8790       8900       8901       8912       8911  
      8780       8781       8792       8791       8901       8902       8913       8912  
      8781       8782       8793       8792       8902       8903       8914       8913  
      8782       8783       8794       8793       8903       8904       8915       8914  
      8783       8784       8795       8794       8904       8905       8916       8915  
      8784       8785       8796       8795       8905       8906       8917       8916  
      8785       8786       8797       8796       8906       8907       8918       8917  
      8786       8787       8798       8797       8907       8908       8919       8918  
      8787       8788       8799       8798       8908       8909       8920       8919  
      8788       8789       8800       8799       8909       8910       8921       8920  
      8790       8791       8802       8801       8911       8912       8923       8922  
      8791       8792       8803       8802       8912       8913       8924       8923  
      8792       8793       8804       8803       8913       8914       8925       8924  
      8793       8794       8805       8804       8914       8915       8926       8925  
      8794       8795       8806       8805       8915       8916       8927       8926  
      8795       8796       8807       8806       8916       8917       8928       8927  
      8796       8797       8808       8807       8917       8918       8929       8928  
      8797       8798       8809       8808       8918       8919       8930       8929  
      8798       8799       8810       8809       8919       8920       8931       8930  
      8799       8800       8811       8810       8920       8921       8932       8931  
      8801       8802       8813       8812       8922       8923       8934       8933  
      8802       8803       8814       8813       8923       8924       8935       8934  
      8803       8804       8815       8814       8924       8925       8936       8935  
      8804       8805       8816       8815       8925       8926       8937       8936  
      8805       8806       8817       8816       8926       8927       8938       8937  
      8806       8807       8818       8817       8927       8928       8939       8938  
      8807       8808       8819       8818       8928       8929       8940       8939  
      8808       8809       8820       8819       8929       8930       8941       8940  
      8809       8810       8821       8820       8930       8931       8942       8941  
      8810       8811       8822       8821       8931       8932       8943       8942  
      8812       8813       8824       8823       8933       8934       8945       8944  
      8813       8814       8825       8824       8934       8935       8946       8945  
      8814       8815       8826       8825       8935       8936       8947       8946  
      8815       8816       8827       8826       8936       8937       8948       8947  
      8816       8817       8828       8827       8937       8938       8949       8948  
      8817       8818       8829       8828       8938       8939       8950       8949  
      8818       8819       8830       8829       8939       8940       8951       8950  
      8819       8820       8831       8830       8940       8941       8952       8951  
      8820       8821       8832       8831       8941       8942       8953       8952  
      8821       8822       8833       8832       8942       8943       8954       8953  
      8834       8835       8846       8845       8955       8956       8967       8966  
      8835       8836       8847       8846       8956       8957       8968       8967  
      8836       8837       8848       8847       8957       8958       8969       8968  
      8837       8838       8849       8848       8958       8959       8970       8969  
      8838       8839       8850       8849       8959       8960       8971       8970  
      8839       8840       8851       8850       8960       8961       8972       8971  
      8840       8841       8852       8851       8961       8962       8973       8972  
      8841       8842       8853       8852       8962       8963       8974       8973  
      8842       8843       8854       8853       8963       8964       8975       8974  
      8843       8844       8855       8854       8964       8965       8976       8975  
      8845       8846       8857       8856       8966       8967       8978       8977  
      8846       8847       8858       8857       8967       8968       8979       8978  
      8847       8848       8859       8858       8968       8969       8980       8979  
      8848       8849       8860       8859       8969       8970       8981       8980  
      8849       8850       8861       8860       8970       8971       8982       8981  
      8850       8851       8862       8861       8971       8972       8983       8982  
      8851       8852       8863       8862       8972       8973       8984       8983  
      8852       8853       8864       8863       8973       8974       8985       8984  
      8853       8854       8865       8864       8974       8975       8986       8985  
      8854       8855       8866       8865       8975       8976       8987       8986  
      8856       8857       8868       8867       8977       8978       8989       8988  
      8857       8858       8869       8868       8978       8979       8990       8989  
      8858       8859       8870       8869       8979       8980       8991       8990  
      8859       8860       8871       8870       8980       8981       8992       8991  
      8860       8861       8872       8871       8981       8982       8993       8992  
      8861       8862       8873       8872       8982       8983       8994       8993  
      8862       8863       8874       8873       8983       8984       8995       8994  
      8863       8864       8875       8874       8984       8985       8996       8995  
      8864       8865       8876       8875       8985       8986       8997       8996  
      8865       8866       8877       8876       8986       8987       8998       8997  
      8867       8868       8879       8878       8988       8989       9000       8999  
      8868       8869       8880       8879       8989       8990       9001       9000  
      8869       8870       8881       8880       8990       8991       9002       9001  
      8870       8871       8882       8881       8991       8992       9003       9002  
      8871       8872       8883       8882       8992       8993       9004       9003  
      8872       8873       8884       8883       8993       8994       9005       9004  
      8873       8874       8885       8884       8994       8995       9006       9005  
      8874       8875       8886       8885       8995       8996       9007       9006  
      8875       8876       8887       8886       8996       8997       9008       9007  
      8876       8877       8888       8887       8997       8998       9009       9008  
      8878       8879       8890       8889       8999       9000       9011       9010  
      8879       8880       8891       8890       9000       9001       9012       9011  
      8880       8881       8892       8891       9001       9002       9013       9012  
      8881       8882       8893       8892       9002       9003       9014       9013  
      8882       8883       8894       8893       9003       9004       9015       9014  
      8883       8884       8895       8894       9004       9005       9016       9015  
      8884       8885       8896       8895       9005       9006       9017       9016  
      8885       8886       8897       8896       9006       9007       9018       9017  
      8886       8887       8898       8897       9007       9008       9019       9018  
      8887       8888       8899       8898       9008       9009       9020       9019  
      8889       8890       8901       8900       9010       9011       9022       9021  
      8890       8891       8902       8901       9011       9012       9023       9022  
      8891       8892       8903       8902       9012       9013       9024       9023  
      8892       8893       8904       8903       9013       9014       9025       9024  
      8893       8894       8905       8904       9014       9015       9026       9025  
      8894       8895       8906       8905       9015       9016       9027       9026  
      8895       8896       8907       8906       9016       9017       9028       9027  
      8896       8897       8908       8907       9017       9018       9029       9028  
      8897       8898       8909       8908       9018       9019       9030       9029  
      8898       8899       8910       8909       9019       9020       9031       9030  
      8900       8901       8912       8911       9021       9022       9033       9032  
      8901       8902       8913       8912       9022       9023       9034       9033  
      8902       8903       8914       8913       9023       9024       9035       9034  
      8903       8904       8915       8914       9024       9025       9036       9035  
      8904       8905       8916       8915       9025       9026       9037       9036  
      8905       8906       8917       8916       9026       9027       9038       9037  
      8906       8907       8918       8917       9027       9028       9039       9038  
      8907       8908       8919       8918       9028       9029       9040       9039  
      8908       8909       8920       8919       9029       9030       9041       9040  
      8909       8910       8921       8920       9030       9031       9042       9041  
      8911       8912       8923       8922       9032       9033       9044       9043  
      8912       8913       8924       8923       9033       9034       9045       9044  
      8913       8914       8925       8924       9034       9035       9046       9045  
      8914       8915       8926       8925       9035       9036       9047       9046  
      8915       8916       8927       8926       9036       9037       9048       9047  
      8916       8917       8928       8927       9037       9038       9049       9048  
      8917       8918       8929       8928       9038       9039       9050       9049  
      8918       8919       8930       8929       9039       9040       9051       9050  
      8919       8920       8931       8930       9040       9041       9052       9051  
      8920       8921       8932       8931       9041       9042       9053       9052  
      8922       8923       8934       8933       9043       9044       9055       9054  
      8923       8924       8935       8934       9044       9045       9056       9055  
      8924       8925       8936       8935       9045       9046       9057       9056  
      8925       8926       8937       8936       9046       9047       9058       9057  
      8926       8927       8938       8937       9047       9048       9059       9058  
      8927       8928       8939       8938       9048       9049       9060       9059  
      8928       8929       8940       8939       9049       9050       9061       9060  
      8929       8930       8941       8940       9050       9051       9062       9061  
      8930       8931       8942       8941       9051       9052       9063       9062  
      8931       8932       8943       8942       9052       9053       9064       9063  
      8933       8934       8945       8944       9054       9055       9066       9065  
      8934       8935       8946       8945       9055       9056       9067       9066  
      8935       8936       8947       8946       9056       9057       9068       9067  
      8936       8937       8948       8947       9057       9058       9069       9068  
      8937       8938       8949       8948       9058       9059       9070       9069  
      8938       8939       8950       8949       9059       9060       9071       9070  
      8939       8940       8951       8950       9060       9061       9072       9071  
      8940       8941       8952       8951       9061       9062       9073       9072  
      8941       8942       8953       8952       9062       9063       9074       9073  
      8942       8943       8954       8953       9063       9064       9075       9074  
      8955       8956       8967       8966       9076       9077       9088       9087  
      8956       8957       8968       8967       9077       9078       9089       9088  
      8957       8958       8969       8968       9078       9079       9090       9089  
      8958       8959       8970       8969       9079       9080       9091       9090  
      8959       8960       8971       8970       9080       9081       9092       9091  
      8960       8961       8972       8971       9081       9082       9093       9092  
      8961       8962       8973       8972       9082       9083       9094       9093  
      8962       8963       8974       8973       9083       9084       9095       9094  
      8963       8964       8975       8974       9084       9085       9096       9095  
      8964       8965       8976       8975       9085       9086       9097       9096  
      8966       8967       8978       8977       9087       9088       9099       9098  
      8967       8968       8979       8978       9088       9089       9100       9099  
      8968       8969       8980       8979       9089       9090       9101       9100  
      8969       8970       8981       8980       9090       9091       9102       9101  
      8970       8971       8982       8981       9091       9092       9103       9102  
      8971       8972       8983       8982       9092       9093       9104       9103  
      8972       8973       8984       8983       9093       9094       9105       9104  
      8973       8974       8985       8984       9094       9095       9106       9105  
      8974       8975       8986       8985       9095       9096       9107       9106  
      8975       8976       8987       8986       9096       9097       9108       9107  
      8977       8978       8989       8988       9098       9099       9110       9109  
      8978       8979       8990       8989       9099       9100       9111       9110  
      8979       8980       8991       8990       9100       9101       9112       9111  
      8980       8981       8992       8991       9101       9102       9113       9112  
      8981       8982       8993       8992       9102       9103       9114       9113  
      8982       8983       8994       8993       9103       9104       9115       9114  
      8983       8984       8995       8994       9104       9105       9116       9115  
      8984       8985       8996       8995       9105       9106       9117       9116  
      8985       8986       8997       8996       9106       9107       9118       9117  
      8986       8987       8998       8997       9107       9108       9119       9118  
      8988       8989       9000       8999       9109       9110       9121       9120  
      8989       8990       9001       9000       9110       9111       9122       9121  
      8990       8991       9002       9001       9111       9112       9123       9122  
      8991       8992       9003       9002       9112       9113       9124       9123  
      8992       8993       9004       9003       9113       9114       9125       9124  
      8993       8994       9005       9004       9114       9115       9126       9125  
      8994       8995       9006       9005       9115       9116       9127       9126  
      8995       8996       9007       9006       9116       9117       9128       9127  
      8996       8997       9008       9007       9117       9118       9129       9128  
      8997       8998       9009       9008       9118       9119       9130       9129  
      8999       9000       9011       9010       9120       9121       9132       9131  
      9000       9001       9012       9011       9121       9122       9133       9132  
      9001       9002       9013       9012       9122       9123       9134       9133  
      9002       9003       9014       9013       9123       9124       9135       9134  
      9003       9004       9015       9014       9124       9125       9136       9135  
      9004       9005       9016       9015       9125       9126       9137       9136  
      9005       9006       9017       9016       9126       9127       9138       9137  
      9006       9007       9018       9017       9127       9128       9139       9138  
      9007       9008       9019       9018       9128       9129       9140       9139  
      9008       9009       9020       9019       9129       9130       9141       9140  
      9010       9011       9022       9021       9131       9132       9143       9142  
      9011       9012       9023       9022       9132       9133       9144       9143  
      9012       9013       9024       9023       9133       9134       9145       9144  
      9013       9014       9025       9024       9134       9135       9146       9145  
      9014       9015       9026       9025       9135       9136       9147       9146  
      9015       9016       9027       9026       9136       9137       9148       9147  
      9016       9017       9028       9027       9137       9138       9149       9148  
      9017       9018       9029       9028       9138       9139       9150       9149  
      9018       9019       9030       9029       9139       9140       9151       9150  
      9019       9020       9031       9030       9140       9141       9152       9151  
      9021       9022       9033       9032       9142       9143       9154       9153  
      9022       9023       9034       9033       9143       9144       9155       9154  
      9023       9024       9035       9034       9144       9145       9156       9155  
      9024       9025       9036       9035       9145       9146       9157       9156  
      9025       9026       9037       9036       9146       9147       9158       9157  
      9026       9027       9038       9037       9147       9148       9159       9158  
      9027       9028       9039       9038       9148       9149       9160       9159  
      9028       9029       9040       9039       9149       9150       9161       9160  
      9029       9030       9041       9040       9150       9151       9162       9161  
      9030       9031       9042       9041       9151       9152       9163       9162  
      9032       9033       9044       9043       9153       9154       9165       9164  
      9033       9034       9045       9044       9154       9155       9166       9165  
      9034       9035       9046       9045       9155       9156       9167       9166  
      9035       9036       9047       9046       9156       9157       9168       9167  
      9036       9037       9048       9047       9157       9158       9169       9168  
      9037       9038       9049       9048       9158       9159       9170       9169  
      9038       9039       9050       9049       9159       9160       9171       9170  
      9039       9040       9051       9050       9160       9161       9172       9171  
      9040       9041       9052       9051       9161       9162       9173       9172  
      9041       9042       9053       9052       9162       9163       9174       9173  
      9043       9044       9055       9054       9164       9165       9176       9175  
      9044       9045       9056       9055       9165       9166       9177       9176  
      9045       9046       9057       9056       9166       9167       9178       9177  
      9046       9047       9058       9057       9167       9168       9179       9178  
      9047       9048       9059       9058       9168       9169       9180       9179  
      9048       9049       9060       9059       9169       9170       9181       9180  
      9049       9050       9061       9060       9170       9171       9182       9181  
      9050       9051       9062       9061       9171       9172       9183       9182  
      9051       9052       9063       9062       9172       9173       9184       9183  
      9052       9053       9064       9063       9173       9174       9185       9184  
      9054       9055       9066       9065       9175       9176       9187       9186  
      9055       9056       9067       9066       9176       9177       9188       9187  
      9056       9057       9068       9067       9177       9178       9189       9188  
      9057       9058       9069       9068       9178       9179       9190       9189  
      9058       9059       9070       9069       9179       9180       9191       9190  
      9059       9060       9071       9070       9180       9181       9192       9191  
      9060       9061       9072       9071       9181       9182       9193       9192  
      9061       9062       9073       9072       9182       9183       9194       9193  
      9062       9063       9074       9073       9183       9184       9195       9194  
      9063       9064       9075       9074       9184       9185       9196       9195  
      9076       9077       9088       9087       9197       9198       9209       9208  
      9077       9078       9089       9088       9198       9199       9210       9209  
      9078       9079       9090       9089       9199       9200       9211       9210  
      9079       9080       9091       9090       9200       9201       9212       9211  
      9080       9081       9092       9091       9201       9202       9213       9212  
      9081       9082       9093       9092       9202       9203       9214       9213  
      9082       9083       9094       9093       9203       9204       9215       9214  
      9083       9084       9095       9094       9204       9205       9216       9215  
      9084       9085       9096       9095       9205       9206       9217       9216  
      9085       9086       9097       9096       9206       9207       9218       9217  
      9087       9088       9099       9098       9208       9209       9220       9219  
      9088       9089       9100       9099       9209       9210       9221       9220  
      9089       9090       9101       9100       9210       9211       9222       9221  
      9090       9091       9102       9101       9211       9212       9223       9222  
      9091       9092       9103       9102       9212       9213       9224       9223  
      9092       9093       9104       9103       9213       9214       9225       9224  
      9093       9094       9105       9104       9214       9215       9226       9225  
      9094       9095       9106       9105       9215       9216       9227       9226  
      9095       9096       9107       9106       9216       9217       9228       9227  
      9096       9097       9108       9107       9217       9218       9229       9228  
      9098       9099       9110       9109       9219       9220       9231       9230  
      9099       9100       9111       9110       9220       9221       9232       9231  
      9100       9101       9112       9111       9221       9222       9233       9232  
      9101       9102       9113       9112       9222       9223       9234       9233  
      9102       9103       9114       9113       9223       9224       9235       9234  
      9103       9104       9115       9114       9224       9225       9236       9235  
      9104       9105       9116       9115       9225       9226       9237       9236  
      9105       9106       9117       9116       9226       9227       9238       9237  
      9106       9107       9118       9117       9227       9228       9239       9238  
      9107       9108       9119       9118       9228       9229       9240       9239  
      9109       9110       9121       9120       9230       9231       9242       9241  
      9110       9111       9122       9121       9231       9232       9243       9242  
      9111       9112       9123       9122       9232       9233       9244       9243  
      9112       9113       9124       9123       9233       9234       9245       9244  
      9113       9114       9125       9124       9234       9235       9246       9245  
      9114       9115       9126       9125       9235       9236       9247       9246  
      9115       9116       9127       9126       9236       9237       9248       9247  
      9116       9117       9128       9127       9237       9238       9249       9248  
      9117       9118       9129       9128       9238       9239       9250       9249  
      9118       9119       9130       9129       9239       9240       9251       9250  
      9120       9121       9132       9131       9241       9242       9253       9252  
      9121       9122       9133       9132       9242       9243       9254       9253  
      9122       9123       9134       9133       9243       9244       9255       9254  
      9123       9124       9135       9134       9244       9245       9256       9255  
      9124       9125       9136       9135       9245       9246       9257       9256  
      9125       9126       9137       9136       9246       9247       9258       9257  
      9126       9127       9138       9137       9247       9248       9259       9258  
      9127       9128       9139       9138       9248       9249       9260       9259  
      9128       9129       9140       9139       9249       9250       9261       9260  
      9129       9130       9141       9140       9250       9251       9262       9261  
      9131       9132       9143       9142       9252       9253       9264       9263  
      9132       9133       9144       9143       9253       9254       9265       9264  
      9133       9134       9145       9144       9254       9255       9266       9265  
      9134       9135       9146       9145       9255       9256       9267       9266  
      9135       9136       9147       9146       9256       9257       9268       9267  
      9136       9137       9148       9147       9257       9258       9269       9268  
      9137       9138       9149       9148       9258       9259       9270       9269  
      9138       9139       9150       9149       9259       9260       9271       9270  
      9139       9140       9151       9150       9260       9261       9272       9271  
      9140       9141       9152       9151       9261       9262       9273       9272  
      9142       9143       9154       9153       9263       9264       9275       9274  
      9143       9144       9155       9154       9264       9265       9276       9275  
      9144       9145       9156       9155       9265       9266       9277       9276  
      9145       9146       9157       9156       9266       9267       9278       9277  
      9146       9147       9158       9157       9267       9268       9279       9278  
      9147       9148       9159       9158       9268       9269       9280       9279  
      9148       9149       9160       9159       9269       9270       9281       9280  
      9149       9150       9161       9160       9270       9271       9282       9281  
      9150       9151       9162       9161       9271       9272       9283       9282  
      9151       9152       9163       9162       9272       9273       9284       9283  
      9153       9154       9165       9164       9274       9275       9286       9285  
      9154       9155       9166       9165       9275       9276       9287       9286  
      9155       9156       9167       9166       9276       9277       9288       9287  
      9156       9157       9168       9167       9277       9278       9289       9288  
      9157       9158       9169       9168       9278       9279       9290       9289  
      9158       9159       9170       9169       9279       9280       9291       9290  
      9159       9160       9171       9170       9280       9281       9292       9291  
      9160       9161       9172       9171       9281       9282       9293       9292  
      9161       9162       9173       9172       9282       9283       9294       9293  
      9162       9163       9174       9173       9283       9284       9295       9294  
      9164       9165       9176       9175       9285       9286       9297       9296  
      9165       9166       9177       9176       9286       9287       9298       9297  
      9166       9167       9178       9177       9287       9288       9299       9298  
      9167       9168       9179       9178       9288       9289       9300       9299  
      9168       9169       9180       9179       9289       9290       9301       9300  
      9169       9170       9181       9180       9290       9291       9302       9301  
      9170       9171       9182       9181       9291       9292       9303       9302  
      9171       9172       9183       9182       9292       9293       9304       9303  
      9172       9173       9184       9183       9293       9294       9305       9304  
      9173       9174       9185       9184       9294       9295       9306       9305  
      9175       9176       9187       9186       9296       9297       9308       9307  
      9176       9177       9188       9187       9297       9298       9309       9308  
      9177       9178       9189       9188       9298       9299       9310       9309  
      9178       9179       9190       9189       9299       9300       9311       9310  
      9179       9180       9191       9190       9300       9301       9312       9311  
      9180       9181       9192       9191       9301       9302       9313       9312  
      9181       9182       9193       9192       9302       9303       9314       9313  
      9182       9183       9194       9193       9303       9304       9315       9314  
      9183       9184       9195       9194       9304       9305       9316       9315  
      9184       9185       9196       9195       9305       9306       9317       9316  
      9197       9198       9209       9208       9318       9319       9330       9329  
      9198       9199       9210       9209       9319       9320       9331       9330  
      9199       9200       9211       9210       9320       9321       9332       9331  
      9200       9201       9212       9211       9321       9322       9333       9332  
      9201       9202       9213       9212       9322       9323       9334       9333  
      9202       9203       9214       9213       9323       9324       9335       9334  
      9203       9204       9215       9214       9324       9325       9336       9335  
      9204       9205       9216       9215       9325       9326       9337       9336  
      9205       9206       9217       9216       9326       9327       9338       9337  
      9206       9207       9218       9217       9327       9328       9339       9338  
      9208       9209       9220       9219       9329       9330       9341       9340  
      9209       9210       9221       9220       9330       9331       9342       9341  
      9210       9211       9222       9221       9331       9332       9343       9342  
      9211       9212       9223       9222       9332       9333       9344       9343  
      9212       9213       9224       9223       9333       9334       9345       9344  
      9213       9214       9225       9224       9334       9335       9346       9345  
      9214       9215       9226       9225       9335       9336       9347       9346  
      9215       9216       9227       9226       9336       9337       9348       9347  
      9216       9217       9228       9227       9337       9338       9349       9348  
      9217       9218       9229       9228       9338       9339       9350       9349  
      9219       9220       9231       9230       9340       9341       9352       9351  
      9220       9221       9232       9231       9341       9342       9353       9352  
      9221       9222       9233       9232       9342       9343       9354       9353  
      9222       9223       9234       9233       9343       9344       9355       9354  
      9223       9224       9235       9234       9344       9345       9356       9355  
      9224       9225       9236       9235       9345       9346       9357       9356  
      9225       9226       9237       9236       9346       9347       9358       9357  
      9226       9227       9238       9237       9347       9348       9359       9358  
      9227       9228       9239       9238       9348       9349       9360       9359  
      9228       9229       9240       9239       9349       9350       9361       9360  
      9230       9231       9242       9241       9351       9352       9363       9362  
      9231       9232       9243       9242       9352       9353       9364       9363  
      9232       9233       9244       9243       9353       9354       9365       9364  
      9233       9234       9245       9244       9354       9355       9366       9365  
      9234       9235       9246       9245       9355       9356       9367       9366  
      9235       9236       9247       9246       9356       9357       9368       9367  
      9236       9237       9248       9247       9357       9358       9369       9368  
      9237       9238       9249       9248       9358       9359       9370       9369  
      9238       9239       9250       9249       9359       9360       9371       9370  
      9239       9240       9251       9250       9360       9361       9372       9371  
      9241       9242       9253       9252       9362       9363       9374       9373  
      9242       9243       9254       9253       9363       9364       9375       9374  
      9243       9244       9255       9254       9364       9365       9376       9375  
      9244       9245       9256       9255       9365       9366       9377       9376  
      9245       9246       9257       9256       9366       9367       9378       9377  
      9246       9247       9258       9257       9367       9368       9379       9378  
      9247       9248       9259       9258       9368       9369       9380       9379  
      9248       9249       9260       9259       9369       9370       9381       9380  
      9249       9250       9261       9260       9370       9371       9382       9381  
      9250       9251       9262       9261       9371       9372       9383       9382  
      9252       9253       9264       9263       9373       9374       9385       9384  
      9253       9254       9265       9264       9374       9375       9386       9385  
      9254       9255       9266       9265       9375       9376       9387       9386  
      9255       9256       9267       9266       9376       9377       9388       9387  
      9256       9257       9268       9267       9377       9378       9389       9388  
      9257       9258       9269       9268       9378       9379       9390       9389  
      9258       9259       9270       9269       9379       9380       9391       9390  
      9259       9260       9271       9270       9380       9381       9392       9391  
      9260       9261       9272       9271       9381       9382       9393       9392  
      9261       9262       9273       9272       9382       9383       9394       9393  
      9263       9264       9275       9274       9384       9385       9396       9395  
      9264       9265       9276       9275       9385       9386       9397       9396  
      9265       9266       9277       9276       9386       9387       9398       9397  
      9266       9267       9278       9277       9387       9388       9399       9398  
      9267       9268       9279       9278       9388       9389       9400       9399  
      9268       9269       9280       9279       9389       9390       9401       9400  
      9269       9270       9281       9280       9390       9391       9402       9401  
      9270       9271       9282       9281       9391       9392       9403       9402  
      9271       9272       9283       9282       9392       9393       9404       9403  
      9272       9273       9284       9283       9393       9394       9405       9404  
      9274       9275       9286       9285       9395       9396       9407       9406  
      9275       9276       9287       9286       9396       9397       9408       9407  
      9276       9277       9288       9287       9397       9398       9409       9408  
      9277       9278       9289       9288       9398       9399       9410       9409  
      9278       9279       9290       9289       9399       9400       9411       9410  
      9279       9280       9291       9290       9400       9401       9412       9411  
      9280       9281       9292       9291       9401       9402       9413       9412  
      9281       9282       9293       9292       9402       9403       9414       9413  
      9282       9283       9294       9293       9403       9404       9415       9414  
      9283       9284       9295       9294       9404       9405       9416       9415  
      9285       9286       9297       9296       9406       9407       9418       9417  
      9286       9287       9298       9297       9407       9408       9419       9418  
      9287       9288       9299       9298       9408       9409       9420       9419  
      9288       9289       9300       9299       9409       9410       9421       9420  
      9289       9290       9301       9300       9410       9411       9422       9421  
      9290       9291       9302       9301       9411       9412       9423       9422  
      9291       9292       9303       9302       9412       9413       9424       9423  
      9292       9293       9304       9303       9413       9414       9425       9424  
      9293       9294       9305       9304       9414       9415       9426       9425  
      9294       9295       9306       9305       9415       9416       9427       9426  
      9296       9297       9308       9307       9417       9418       9429       9428  
      9297       9298       9309       9308       9418       9419       9430       9429  
      9298       9299       9310       9309       9419       9420       9431       9430  
      9299       9300       9311       9310       9420       9421       9432       9431  
      9300       9301       9312       9311       9421       9422       9433       9432  
      9301       9302       9313       9312       9422       9423       9434       9433  
      9302       9303       9314       9313       9423       9424       9435       9434  
      9303       9304       9315       9314       9424       9425       9436       9435  
      9304       9305       9316       9315       9425       9426       9437       9436  
      9305       9306       9317       9316       9426       9427       9438       9437  
      9318       9319       9330       9329       9439       9440       9451       9450  
      9319       9320       9331       9330       9440       9441       9452       9451  
      9320       9321       9332       9331       9441       9442       9453       9452  
      9321       9322       9333       9332       9442       9443       9454       9453  
      9322       9323       9334       9333       9443       9444       9455       9454  
      9323       9324       9335       9334       9444       9445       9456       9455  
      9324       9325       9336       9335       9445       9446       9457       9456  
      9325       9326       9337       9336       9446       9447       9458       9457  
      9326       9327       9338       9337       9447       9448       9459       9458  
      9327       9328       9339       9338       9448       9449       9460       9459  
      9329       9330       9341       9340       9450       9451       9462       9461  
      9330       9331       9342       9341       9451       9452       9463       9462  
      9331       9332       9343       9342       9452       9453       9464       9463  
      9332       9333       9344       9343       9453       9454       9465       9464  
      9333       9334       9345       9344       9454       9455       9466       9465  
      9334       9335       9346       9345       9455       9456       9467       9466  
      9335       9336       9347       9346       9456       9457       9468       9467  
      9336       9337       9348       9347       9457       9458       9469       9468  
      9337       9338       9349       9348       9458       9459       9470       9469  
      9338       9339       9350       9349       9459       9460       9471       9470  
      9340       9341       9352       9351       9461       9462       9473       9472  
      9341       9342       9353       9352       9462       9463       9474       9473  
      9342       9343       9354       9353       9463       9464       9475       9474  
      9343       9344       9355       9354       9464       9465       9476       9475  
      9344       9345       9356       9355       9465       9466       9477       9476  
      9345       9346       9357       9356       9466       9467       9478       9477  
      9346       9347       9358       9357       9467       9468       9479       9478  
      9347       9348       9359       9358       9468       9469       9480       9479  
      9348       9349       9360       9359       9469       9470       9481       9480  
      9349       9350       9361       9360       9470       9471       9482       9481  
      9351       9352       9363       9362       9472       9473       9484       9483  
      9352       9353       9364       9363       9473       9474       9485       9484  
      9353       9354       9365       9364       9474       9475       9486       9485  
      9354       9355       9366       9365       9475       9476       9487       9486  
      9355       9356       9367       9366       9476       9477       9488       9487  
      9356       9357       9368       9367       9477       9478       9489       9488  
      9357       9358       9369       9368       9478       9479       9490       9489  
      9358       9359       9370       9369       9479       9480       9491       9490  
      9359       9360       9371       9370       9480       9481       9492       9491  
      9360       9361       9372       9371       9481       9482       9493       9492  
      9362       9363       9374       9373       9483       9484       9495       9494  
      9363       9364       9375       9374       9484       9485       9496       9495  
      9364       9365       9376       9375       9485       9486       9497       9496  
      9365       9366       9377       9376       9486       9487       9498       9497  
      9366       9367       9378       9377       9487       9488       9499       9498  
      9367       9368       9379       9378       9488       9489       9500       9499  
      9368       9369       9380       9379       9489       9490       9501       9500  
      9369       9370       9381       9380       9490       9491       9502       9501  
      9370       9371       9382       9381       9491       9492       9503       9502  
      9371       9372       9383       9382       9492       9493       9504       9503  
      9373       9374       9385       9384       9494       9495       9506       9505  
      9374       9375       9386       9385       9495       9496       9507       9506  
      9375       9376       9387       9386       9496       9497       9508       9507  
      9376       9377       9388       9387       9497       9498       9509       9508  
      9377       9378       9389       9388       9498       9499       9510       9509  
      9378       9379       9390       9389       9499       9500       9511       9510  
      9379       9380       9391       9390       9500       9501       9512       9511  
      9380       9381       9392       9391       9501       9502       9513       9512  
      9381       9382       9393       9392       9502       9503       9514       9513  
      9382       9383       9394       9393       9503       9504       9515       9514  
      9384       9385       9396       9395       9505       9506       9517       9516  
      9385       9386       9397       9396       9506       9507       9518       9517  
      9386       9387       9398       9397       9507       9508       9519       9518  
      9387       9388       9399       9398       9508       9509       9520       9519  
      9388       9389       9400       9399       9509       9510       9521       9520  
      9389       9390       9401       9400       9510       9511       9522       9521  
      9390       9391       9402       9401       9511       9512       9523       9522  
      9391       9392       9403       9402       9512       9513       9524       9523  
      9392       9393       9404       9403       9513       9514       9525       9524  
      9393       9394       9405       9404       9514       9515       9526       9525  
      9395       9396       9407       9406       9516       9517       9528       9527  
      9396       9397       9408       9407       9517       9518       9529       9528  
      9397       9398       9409       9408       9518       9519       9530       9529  
      9398       9399       9410       9409       9519       9520       9531       9530  
      9399       9400       9411       9410       9520       9521       9532       9531  
      9400       9401       9412       9411       9521       9522       9533       9532  
      9401       9402       9413       9412       9522       9523       9534       9533  
      9402       9403       9414       9413       9523       9524       9535       9534  
      9403       9404       9415       9414       9524       9525       9536       9535  
      9404       9405       9416       9415       9525       9526       9537       9536  
      9406       9407       9418       9417       9527       9528       9539       9538  
      9407       9408       9419       9418       9528       9529       9540       9539  
      9408       9409       9420       9419       9529       9530       9541       9540  
      9409       9410       9421       9420       9530       9531       9542       9541  
      9410       9411       9422       9421       9531       9532       9543       9542  
      9411       9412       9423       9422       9532       9533       9544       9543  
      9412       9413       9424       9423       9533       9534       9545       9544  
      9413       9414       9425       9424       9534       9535       9546       9545  
      9414       9415       9426       9425       9535       9536       9547       9546  
      9415       9416       9427       9426       9536       9537       9548       9547  
      9417       9418       9429       9428       9538       9539       9550       9549  
      9418       9419       9430       9429       9539       9540       9551       9550  
      9419       9420       9431       9430       9540       9541       9552       9551  
      9420       9421       9432       9431       9541       9542       9553       9552  
      9421       9422       9433       9432       9542       9543       9554       9553  
      9422       9423       9434       9433       9543       9544       9555       9554  
      9423       9424       9435       9434       9544       9545       9556       9555  
      9424       9425       9436       9435       9545       9546       9557       9556  
      9425       9426       9437       9436       9546       9547       9558       9557  
      9426       9427       9438       9437       9547       9548       9559       9558  
      9439       9440       9451       9450       9560       9561       9572       9571  
      9440       9441       9452       9451       9561       9562       9573       9572  
      9441       9442       9453       9452       9562       9563       9574       9573  
      9442       9443       9454       9453       9563       9564       9575       9574  
      9443       9444       9455       9454       9564       9565       9576       9575  
      9444       9445       9456       9455       9565       9566       9577       9576  
      9445       9446       9457       9456       9566       9567       9578       9577  
      9446       9447       9458       9457       9567       9568       9579       9578  
      9447       9448       9459       9458       9568       9569       9580       9579  
      9448       9449       9460       9459       9569       9570       9581       9580  
      9450       9451       9462       9461       9571       9572       9583       9582  
      9451       9452       9463       9462       9572       9573       9584       9583  
      9452       9453       9464       9463       9573       9574       9585       9584  
      9453       9454       9465       9464       9574       9575       9586       9585  
      9454       9455       9466       9465       9575       9576       9587       9586  
      9455       9456       9467       9466       9576       9577       9588       9587  
      9456       9457       9468       9467       9577       9578       9589       9588  
      9457       9458       9469       9468       9578       9579       9590       9589  
      9458       9459       9470       9469       9579       9580       9591       9590  
      9459       9460       9471       9470       9580       9581       9592       9591  
      9461       9462       9473       9472       9582       9583       9594       9593  
      9462       9463       9474       9473       9583       9584       9595       9594  
      9463       9464       9475       9474       9584       9585       9596       9595  
      9464       9465       9476       9475       9585       9586       9597       9596  
      9465       9466       9477       9476       9586       9587       9598       9597  
      9466       9467       9478       9477       9587       9588       9599       9598  
      9467       9468       9479       9478       9588       9589       9600       9599  
      9468       9469       9480       9479       9589       9590       9601       9600  
      9469       9470       9481       9480       9590       9591       9602       9601  
      9470       9471       9482       9481       9591       9592       9603       9602  
      9472       9473       9484       9483       9593       9594       9605       9604  
      9473       9474       9485       9484       9594       9595       9606       9605  
      9474       9475       9486       9485       9595       9596       9607       9606  
      9475       9476       9487       9486       9596       9597       9608       9607  
      9476       9477       9488       9487       9597       9598       9609       9608  
      9477       9478       9489       9488       9598       9599       9610       9609  
      9478       9479       9490       9489       9599       9600       9611       9610  
      9479       9480       9491       9490       9600       9601       9612       9611  
      9480       9481       9492       9491       9601       9602       9613       9612  
      9481       9482       9493       9492       9602       9603       9614       9613  
      9483       9484       9495       9494       9604       9605       9616       9615  
      9484       9485       9496       9495       9605       9606       9617       9616  
      9485       9486       9497       9496       9606       9607       9618       9617  
      9486       9487       9498       9497       9607       9608       9619       9618  
      9487       9488       9499       9498       9608       9609       9620       9619  
      9488       9489       9500       9499       9609       9610       9621       9620  
      9489       9490       9501       9500       9610       9611       9622       9621  
      9490       9491       9502       9501       9611       9612       9623       9622  
      9491       9492       9503       9502       9612       9613       9624       9623  
      9492       9493       9504       9503       9613       9614       9625       9624  
      9494       9495       9506       9505       9615       9616       9627       9626  
      9495       9496       9507       9506       9616       9617       9628       9627  
      9496       9497       9508       9507       9617       9618       9629       9628  
      9497       9498       9509       9508       9618       9619       9630       9629  
      9498       9499       9510       9509       9619       9620       9631       9630  
      9499       9500       9511       9510       9620       9621       9632       9631  
      9500       9501       9512       9511       9621       9622       9633       9632  
      9501       9502       9513       9512       9622       9623       9634       9633  
      9502       9503       9514       9513       9623       9624       9635       9634  
      9503       9504       9515       9514       9624       9625       9636       9635  
      9505       9506       9517       9516       9626       9627       9638       9637  
      9506       9507       9518       9517       9627       9628       9639       9638  
      9507       9508       9519       9518       9628       9629       9640       9639  
      9508       9509       9520       9519       9629       9630       9641       9640  
      9509       9510       9521       9520       9630       9631       9642       9641  
      9510       9511       9522       9521       9631       9632       9643       9642  
      9511       9512       9523       9522       9632       9633       9644       9643  
      9512       9513       9524       9523       9633       9634       9645       9644  
      9513       9514       9525       9524       9634       9635       9646       9645  
      9514       9515       9526       9525       9635       9636       9647       9646  
      9516       9517       9528       9527       9637       9638       9649       9648  
      9517       9518       9529       9528       9638       9639       9650       9649  
      9518       9519       9530       9529       9639       9640       9651       9650  
      9519       9520       9531       9530       9640       9641       9652       9651  
      9520       9521       9532       9531       9641       9642       9653       9652  
      9521       9522       9533       9532       9642       9643       9654       9653  
      9522       9523       9534       9533       9643       9644       9655       9654  
      9523       9524       9535       9534       9644       9645       9656       9655  
      9524       9525       9536       9535       9645       9646       9657       9656  
      9525       9526       9537       9536       9646       9647       9658       9657  
      9527       9528       9539       9538       9648       9649       9660       9659  
      9528       9529       9540       9539       9649       9650       9661       9660  
      9529       9530       9541       9540       9650       9651       9662       9661  
      9530       9531       9542       9541       9651       9652       9663       9662  
      9531       9532       9543       9542       9652       9653       9664       9663  
      9532       9533       9544       9543       9653       9654       9665       9664  
      9533       9534       9545       9544       9654       9655       9666       9665  
      9534       9535       9546       9545       9655       9656       9667       9666  
      9535       9536       9547       9546       9656       9657       9668       9667  
      9536       9537       9548       9547       9657       9658       9669       9668  
      9538       9539       9550       9549       9659       9660       9671       9670  
      9539       9540       9551       9550       9660       9661       9672       9671  
      9540       9541       9552       9551       9661       9662       9673       9672  
      9541       9542       9553       9552       9662       9663       9674       9673  
      9542       9543       9554       9553       9663       9664       9675       9674  
      9543       9544       9555       9554       9664       9665       9676       9675  
      9544       9545       9556       9555       9665       9666       9677       9676  
      9545       9546       9557       9556       9666       9667       9678       9677  
      9546       9547       9558       9557       9667       9668       9679       9678  
      9547       9548       9559       9558       9668       9669       9680       9679  
      9560       9561       9572       9571       9681       9682       9693       9692  
      9561       9562       9573       9572       9682       9683       9694       9693  
      9562       9563       9574       9573       9683       9684       9695       9694  
      9563       9564       9575       9574       9684       9685       9696       9695  
      9564       9565       9576       9575       9685       9686       9697       9696  
      9565       9566       9577       9576       9686       9687       9698       9697  
      9566       9567       9578       9577       9687       9688       9699       9698  
      9567       9568       9579       9578       9688       9689       9700       9699  
      9568       9569       9580       9579       9689       9690       9701       9700  
      9569       9570       9581       9580       9690       9691       9702       9701  
      9571       9572       9583       9582       9692       9693       9704       9703  
      9572       9573       9584       9583       9693       9694       9705       9704  
      9573       9574       9585       9584       9694       9695       9706       9705  
      9574       9575       9586       9585       9695       9696       9707       9706  
      9575       9576       9587       9586       9696       9697       9708       9707  
      9576       9577       9588       9587       9697       9698       9709       9708  
      9577       9578       9589       9588       9698       9699       9710       9709  
      9578       9579       9590       9589       9699       9700       9711       9710  
      9579       9580       9591       9590       9700       9701       9712       9711  
      9580       9581       9592       9591       9701       9702       9713       9712  
      9582       9583       9594       9593       9703       9704       9715       9714  
      9583       9584       9595       9594       9704       9705       9716       9715  
      9584       9585       9596       9595       9705       9706       9717       9716  
      9585       9586       9597       9596       9706       9707       9718       9717  
      9586       9587       9598       9597       9707       9708       9719       9718  
      9587       9588       9599       9598       9708       9709       9720       9719  
      9588       9589       9600       9599       9709       9710       9721       9720  
      9589       9590       9601       9600       9710       9711       9722       9721  
      9590       9591       9602       9601       9711       9712       9723       9722  
      9591       9592       9603       9602       9712       9713       9724       9723  
      9593       9594       9605       9604       9714       9715       9726       9725  
      9594       9595       9606       9605       9715       9716       9727       9726  
      9595       9596       9607       9606       9716       9717       9728       9727  
      9596       9597       9608       9607       9717       9718       9729       9728  
      9597       9598       9609       9608       9718       9719       9730       9729  
      9598       9599       9610       9609       9719       9720       9731       9730  
      9599       9600       9611       9610       9720       9721       9732       9731  
      9600       9601       9612       9611       9721       9722       9733       9732  
      9601       9602       9613       9612       9722       9723       9734       9733  
      9602       9603       9614       9613       9723       9724       9735       9734  
      9604       9605       9616       9615       9725       9726       9737       9736  
      9605       9606       9617       9616       9726       9727       9738       9737  
      9606       9607       9618       9617       9727       9728       9739       9738  
      9607       9608       9619       9618       9728       9729       9740       9739  
      9608       9609       9620       9619       9729       9730       9741       9740  
      9609       9610       9621       9620       9730       9731       9742       9741  
      9610       9611       9622       9621       9731       9732       9743       9742  
      9611       9612       9623       9622       9732       9733       9744       9743  
      9612       9613       9624       9623       9733       9734       9745       9744  
      9613       9614       9625       9624       9734       9735       9746       9745  
      9615       9616       9627       9626       9736       9737       9748       9747  
      9616       9617       9628       9627       9737       9738       9749       9748  
      9617       9618       9629       9628       9738       9739       9750       9749  
      9618       9619       9630       9629       9739       9740       9751       9750  
      9619       9620       9631       9630       9740       9741       9752       9751  
      9620       9621       9632       9631       9741       9742       9753       9752  
      9621       9622       9633       9632       9742       9743       9754       9753  
      9622       9623       9634       9633       9743       9744       9755       9754  
      9623       9624       9635       9634       9744       9745       9756       9755  
      9624       9625       9636       9635       9745       9746       9757       9756  
      9626       9627       9638       9637       9747       9748       9759       9758  
      9627       9628       9639       9638       9748       9749       9760       9759  
      9628       9629       9640       9639       9749       9750       9761       9760  
      9629       9630       9641       9640       9750       9751       9762       9761  
      9630       9631       9642       9641       9751       9752       9763       9762  
      9631       9632       9643       9642       9752       9753       9764       9763  
      9632       9633       9644       9643       9753       9754       9765       9764  
      9633       9634       9645       9644       9754       9755       9766       9765  
      9634       9635       9646       9645       9755       9756       9767       9766  
      9635       9636       9647       9646       9756       9757       9768       9767  
      9637       9638       9649       9648       9758       9759       9770       9769  
      9638       9639       9650       9649       9759       9760       9771       9770  
      9639       9640       9651       9650       9760       9761       9772       9771  
      9640       9641       9652       9651       9761       9762       9773       9772  
      9641       9642       9653       9652       9762       9763       9774       9773  
      9642       9643       9654       9653       9763       9764       9775       9774  
      9643       9644       9655       9654       9764       9765       9776       9775  
      9644       9645       9656       9655       9765       9766       9777       9776  
      9645       9646       9657       9656       9766       9767       9778       9777  
      9646       9647       9658       9657       9767       9768       9779       9778  
      9648       9649       9660       9659       9769       9770       9781       9780  
      9649       9650       9661       9660       9770       9771       9782       9781  
      9650       9651       9662       9661       9771       9772       9783       9782  
      9651       9652       9663       9662       9772       9773       9784       9783  
      9652       9653       9664       9663       9773       9774       9785       9784  
      9653       9654       9665       9664       9774       9775       9786       9785  
      9654       9655       9666       9665       9775       9776       9787       9786  
      9655       9656       9667       9666       9776       9777       9788       9787  
      9656       9657       9668       9667       9777       9778       9789       9788  
      9657       9658       9669       9668       9778       9779       9790       9789  
      9659       9660       9671       9670       9780       9781       9792       9791  
      9660       9661       9672       9671       9781       9782       9793       9792  
      9661       9662       9673       9672       9782       9783       9794       9793  
      9662       9663       9674       9673       9783       9784       9795       9794  
      9663       9664       9675       9674       9784       9785       9796       9795  
      9664       9665       9676       9675       9785       9786       9797       9796  
      9665       9666       9677       9676       9786       9787       9798       9797  
      9666       9667       9678       9677       9787       9788       9799       9798  
      9667       9668       9679       9678       9788       9789       9800       9799  
      9668       9669       9680       9679       9789       9790       9801       9800  
      9681       9682       9693       9692       9802       9803       9814       9813  
      9682       9683       9694       9693       9803       9804       9815       9814  
      9683       9684       9695       9694       9804       9805       9816       9815  
      9684       9685       9696       9695       9805       9806       9817       9816  
      9685       9686       9697       9696       9806       9807       9818       9817  
      9686       9687       9698       9697       9807       9808       9819       9818  
      9687       9688       9699       9698       9808       9809       9820       9819  
      9688       9689       9700       9699       9809       9810       9821       9820  
      9689       9690       9701       9700       9810       9811       9822       9821  
      9690       9691       9702       9701       9811       9812       9823       9822  
      9692       9693       9704       9703       9813       9814       9825       9824  
      9693       9694       9705       9704       9814       9815       9826       9825  
      9694       9695       9706       9705       9815       9816       9827       9826  
      9695       9696       9707       9706       9816       9817       9828       9827  
      9696       9697       9708       9707       9817       9818       9829       9828  
      9697       9698       9709       9708       9818       9819       9830       9829  
      9698       9699       9710       9709       9819       9820       9831       9830  
      9699       9700       9711       9710       9820       9821       9832       9831  
      9700       9701       9712       9711       9821       9822       9833       9832  
      9701       9702       9713       9712       9822       9823       9834       9833  
      9703       9704       9715       9714       9824       9825       9836       9835  
      9704       9705       9716       9715       9825       9826       9837       9836  
      9705       9706       9717       9716       9826       9827       9838       9837  
      9706       9707       9718       9717       9827       9828       9839       9838  
      9707       9708       9719       9718       9828       9829       9840       9839  
      9708       9709       9720       9719       9829       9830       9841       9840  
      9709       9710       9721       9720       9830       9831       9842       9841  
      9710       9711       9722       9721       9831       9832       9843       9842  
      9711       9712       9723       9722       9832       9833       9844       9843  
      9712       9713       9724       9723       9833       9834       9845       9844  
      9714       9715       9726       9725       9835       9836       9847       9846  
      9715       9716       9727       9726       9836       9837       9848       9847  
      9716       9717       9728       9727       9837       9838       9849       9848  
      9717       9718       9729       9728       9838       9839       9850       9849  
      9718       9719       9730       9729       9839       9840       9851       9850  
      9719       9720       9731       9730       9840       9841       9852       9851  
      9720       9721       9732       9731       9841       9842       9853       9852  
      9721       9722       9733       9732       9842       9843       9854       9853  
      9722       9723       9734       9733       9843       9844       9855       9854  
      9723       9724       9735       9734       9844       9845       9856       9855  
      9725       9726       9737       9736       9846       9847       9858       9857  
      9726       9727       9738       9737       9847       9848       9859       9858  
      9727       9728       9739       9738       9848       9849       9860       9859  
      9728       9729       9740       9739       9849       9850       9861       9860  
      9729       9730       9741       9740       9850       9851       9862       9861  
      9730       9731       9742       9741       9851       9852       9863       9862  
      9731       9732       9743       9742       9852       9853       9864       9863  
      9732       9733       9744       9743       9853       9854       9865       9864  
      9733       9734       9745       9744       9854       9855       9866       9865  
      9734       9735       9746       9745       9855       9856       9867       9866  
      9736       9737       9748       9747       9857       9858       9869       9868  
      9737       9738       9749       9748       9858       9859       9870       9869  
      9738       9739       9750       9749       9859       9860       9871       9870  
      9739       9740       9751       9750       9860       9861       9872       9871  
      9740       9741       9752       9751       9861       9862       9873       9872  
      9741       9742       9753       9752       9862       9863       9874       9873  
      9742       9743       9754       9753       9863       9864       9875       9874  
      9743       9744       9755       9754       9864       9865       9876       9875  
      9744       9745       9756       9755       9865       9866       9877       9876  
      9745       9746       9757       9756       9866       9867       9878       9877  
      9747       9748       9759       9758       9868       9869       9880       9879  
      9748       9749       9760       9759       9869       9870       9881       9880  
      9749       9750       9761       9760       9870       9871       9882       9881  
      9750       9751       9762       9761       9871       9872       9883       9882  
      9751       9752       9763       9762       9872       9873       9884       9883  
      9752       9753       9764       9763       9873       9874       9885       9884  
      9753       9754       9765       9764       9874       9875       9886       9885  
      9754       9755       9766       9765       9875       9876       9887       9886  
      9755       9756       9767       9766       9876       9877       9888       9887  
      9756       9757       9768       9767       9877       9878       9889       9888  
      9758       9759       9770       9769       9879       9880       9891       9890  
      9759       9760       9771       9770       9880       9881       9892       9891  
      9760       9761       9772       9771       9881       9882       9893       9892  
      9761       9762       9773       9772       9882       9883       9894       9893  
      9762       9763       9774       9773       9883       9884       9895       9894  
      9763       9764       9775       9774       9884       9885       9896       9895  
      9764       9765       9776       9775       9885       9886       9897       9896  
      9765       9766       9777       9776       9886       9887       9898       9897  
      9766       9767       9778       9777       9887       9888       9899       9898  
      9767       9768       9779       9778       9888       9889       9900       9899  
      9769       9770       9781       9780       9890       9891       9902       9901  
      9770       9771       9782       9781       9891       9892       9903       9902  
      9771       9772       9783       9782       9892       9893       9904       9903  
      9772       9773       9784       9783       9893       9894       9905       9904  
      9773       9774       9785       9784       9894       9895       9906       9905  
      9774       9775       9786       9785       9895       9896       9907       9906  
      9775       9776       9787       9786       9896       9897       9908       9907  
      9776       9777       9788       9787       9897       9898       9909       9908  
      9777       9778       9789       9788       9898       9899       9910       9909  
      9778       9779       9790       9789       9899       9900       9911       9910  
      9780       9781       9792       9791       9901       9902       9913       9912  
      9781       9782       9793       9792       9902       9903       9914       9913  
      9782       9783       9794       9793       9903       9904       9915       9914  
      9783       9784       9795       9794       9904       9905       9916       9915  
      9784       9785       9796       9795       9905       9906       9917       9916  
      9785       9786       9797       9796       9906       9907       9918       9917  
      9786       9787       9798       9797       9907       9908       9919       9918  
      9787       9788       9799       9798       9908       9909       9920       9919  
      9788       9789       9800       9799       9909       9910       9921       9920  
      9789       9790       9801       9800       9910       9911       9922       9921  
      9802       9803       9814       9813       9923       9924       9935       9934  
      9803       9804       9815       9814       9924       9925       9936       9935  
      9804       9805       9816       9815       9925       9926       9937       9936  
      9805       9806       9817       9816       9926       9927       9938       9937  
      9806       9807       9818       9817       9927       9928       9939       9938  
      9807       9808       9819       9818       9928       9929       9940       9939  
      9808       9809       9820       9819       9929       9930       9941       9940  
      9809       9810       9821       9820       9930       9931       9942       9941  
      9810       9811       9822       9821       9931       9932       9943       9942  
      9811       9812       9823       9822       9932       9933       9944       9943  
      9813       9814       9825       9824       9934       9935       9946       9945  
      9814       9815       9826       9825       9935       9936       9947       9946  
      9815       9816       9827       9826       9936       9937       9948       9947  
      9816       9817       9828       9827       9937       9938       9949       9948  
      9817       9818       9829       9828       9938       9939       9950       9949  
      9818       9819       9830       9829       9939       9940       9951       9950  
      9819       9820       9831       9830       9940       9941       9952       9951  
      9820       9821       9832       9831       9941       9942       9953       9952  
      9821       9822       9833       9832       9942       9943       9954       9953  
      9822       9823       9834       9833       9943       9944       9955       9954  
      9824       9825       9836       9835       9945       9946       9957       9956  
      9825       9826       9837       9836       9946       9947       9958       9957  
      9826       9827       9838       9837       9947       9948       9959       9958  
      9827       9828       9839       9838       9948       9949       9960       9959  
      9828       9829       9840       9839       9949       9950       9961       9960  
      9829       9830       9841       9840       9950       9951       9962       9961  
      9830       9831       9842       9841       9951       9952       9963       9962  
      9831       9832       9843       9842       9952       9953       9964       9963  
      9832       9833       9844       9843       9953       9954       9965       9964  
      9833       9834       9845       9844       9954       9955       9966       9965  
      9835       9836       9847       9846       9956       9957       9968       9967  
      9836       9837       9848       9847       9957       9958       9969       9968  
      9837       9838       9849       9848       9958       9959       9970       9969  
      9838       9839       9850       9849       9959       9960       9971       9970  
      9839       9840       9851       9850       9960       9961       9972       9971  
      9840       9841       9852       9851       9961       9962       9973       9972  
      9841       9842       9853       9852       9962       9963       9974       9973  
      9842       9843       9854       9853       9963       9964       9975       9974  
      9843       9844       9855       9854       9964       9965       9976       9975  
      9844       9845       9856       9855       9965       9966       9977       9976  
      9846       9847       9858       9857       9967       9968       9979       9978  
      9847       9848       9859       9858       9968       9969       9980       9979  
      9848       9849       9860       9859       9969       9970       9981       9980  
      9849       9850       9861       9860       9970       9971       9982       9981  
      9850       9851       9862       9861       9971       9972       9983       9982  
      9851       9852       9863       9862       9972       9973       9984       9983  
      9852       9853       9864       9863       9973       9974       9985       9984  
      9853       9854       9865       9864       9974       9975       9986       9985  
      9854       9855       9866       9865       9975       9976       9987       9986  
      9855       9856       9867       9866       9976       9977       9988       9987  
      9857       9858       9869       9868       9978       9979       9990       9989  
      9858       9859       9870       9869       9979       9980       9991       9990  
      9859       9860       9871       9870       9980       9981       9992       9991  
      9860       9861       9872       9871       9981       9982       9993       9992  
      9861       9862       9873       9872       9982       9983       9994       9993  
      9862       9863       9874       9873       9983       9984       9995       9994  
      9863       9864       9875       9874       9984       9985       9996       9995  
      9864       9865       9876       9875       9985       9986       9997       9996  
      9865       9866       9877       9876       9986       9987       9998       9997  
      9866       9867       9878       9877       9987       9988       9999       9998  
      9868       9869       9880       9879       9989       9990      10001      10000  
      9869       9870       9881       9880       9990       9991      10002      10001  
      9870       9871       9882       9881       9991       9992      10003      10002  
      9871       9872       9883       9882       9992       9993      10004      10003  
      9872       9873       9884       9883       9993       9994      10005      10004  
      9873       9874       9885       9884       9994       9995      10006      10005  
      9874       9875       9886       9885       9995       9996      10007      10006  
      9875       9876       9887       9886       9996       9997      10008      10007  
      9876       9877       9888       9887       9997       9998      10009      10008  
      9877       9878       9889       9888       9998       9999      10010      10009  
      9879       9880       9891       9890      10000      10001      10012      10011  
      9880       9881       9892       9891      10001      10002      10013      10012  
      9881       9882       9893       9892      10002      10003      10014      10013  
      9882       9883       9894       9893      10003      10004      10015      10014  
      9883       9884       9895       9894      10004      10005      10016      10015  
      9884       9885       9896       9895      10005      10006      10017      10016  
      9885       9886       9897       9896      10006      10007      10018      10017  
      9886       9887       9898       9897      10007      10008      10019      10018  
      9887       9888       9899       9898      10008      10009      10020      10019  
      9888       9889       9900       9899      10009      10010      10021      10020  
      9890       9891       9902       9901      10011      10012      10023      10022  
      9891       9892       9903       9902      10012      10013      10024      10023  
      9892       9893       9904       9903      10013      10014      10025      10024  
      9893       9894       9905       9904      10014      10015      10026      10025  
      9894       9895       9906       9905      10015      10016      10027      10026  
      9895       9896       9907       9906      10016      10017      10028      10027  
      9896       9897       9908       9907      10017      10018      10029      10028  
      9897       9898       9909       9908      10018      10019      10030      10029  
      9898       9899       9910       9909      10019      10020      10031      10030  
      9899       9900       9911       9910      10020      10021      10032      10031  
      9901       9902       9913       9912      10022      10023      10034      10033  
      9902       9903       9914       9913      10023      10024      10035      10034  
      9903       9904       9915       9914      10024      10025      10036      10035  
      9904       9905       9916       9915      10025      10026      10037      10036  
      9905       9906       9917       9916      10026      10027      10038      10037  
      9906       9907       9918       9917      10027      10028      10039      10038  
      9907       9908       9919       9918      10028      10029      10040      10039  
      9908       9909       9920       9919      10029      10030      10041      10040  
      9909       9910       9921       9920      10030      10031      10042      10041  
      9910       9911       9922       9921      10031      10032      10043      10042  
      9923       9924       9935       9934      10044      10045      10056      10055  
      9924       9925       9936       9935      10045      10046      10057      10056  
      9925       9926       9937       9936      10046      10047      10058      10057  
      9926       9927       9938       9937      10047      10048      10059      10058  
      9927       9928       9939       9938      10048      10049      10060      10059  
      9928       9929       9940       9939      10049      10050      10061      10060  
      9929       9930       9941       9940      10050      10051      10062      10061  
      9930       9931       9942       9941      10051      10052      10063      10062  
      9931       9932       9943       9942      10052      10053      10064      10063  
      9932       9933       9944       9943      10053      10054      10065      10064  
      9934       9935       9946       9945      10055      10056      10067      10066  
      9935       9936       9947       9946      10056      10057      10068      10067  
      9936       9937       9948       9947      10057      10058      10069      10068  
      9937       9938       9949       9948      10058      10059      10070      10069  
      9938       9939       9950       9949      10059      10060      10071      10070  
      9939       9940       9951       9950      10060      10061      10072      10071  
      9940       9941       9952       9951      10061      10062      10073      10072  
      9941       9942       9953       9952      10062      10063      10074      10073  
      9942       9943       9954       9953      10063      10064      10075      10074  
      9943       9944       9955       9954      10064      10065      10076      10075  
      9945       9946       9957       9956      10066      10067      10078      10077  
      9946       9947       9958       9957      10067      10068      10079      10078  
      9947       9948       9959       9958      10068      10069      10080      10079  
      9948       9949       9960       9959      10069      10070      10081      10080  
      9949       9950       9961       9960      10070      10071      10082      10081  
      9950       9951       9962       9961      10071      10072      10083      10082  
      9951       9952       9963       9962      10072      10073      10084      10083  
      9952       9953       9964       9963      10073      10074      10085      10084  
      9953       9954       9965       9964      10074      10075      10086      10085  
      9954       9955       9966       9965      10075      10076      10087      10086  
      9956       9957       9968       9967      10077      10078      10089      10088  
      9957       9958       9969       9968      10078      10079      10090      10089  
      9958       9959       9970       9969      10079      10080      10091      10090  
      9959       9960       9971       9970      10080      10081      10092      10091  
      9960       9961       9972       9971      10081      10082      10093      10092  
      9961       9962       9973       9972      10082      10083      10094      10093  
      9962       9963       9974       9973      10083      10084      10095      10094  
      9963       9964       9975       9974      10084      10085      10096      10095  
      9964       9965       9976       9975      10085      10086      10097      10096  
      9965       9966       9977       9976      10086      10087      10098      10097  
      9967       9968       9979       9978      10088      10089      10100      10099  
      9968       9969       9980       9979      10089      10090      10101      10100  
      9969       9970       9981       9980      10090      10091      10102      10101  
      9970       9971       9982       9981      10091      10092      10103      10102  
      9971       9972       9983       9982      10092      10093      10104      10103  
      9972       9973       9984       9983      10093      10094      10105      10104  
      9973       9974       9985       9984      10094      10095      10106      10105  
      9974       9975       9986       9985      10095      10096      10107      10106  
      9975       9976       9987       9986      10096      10097      10108      10107  
      9976       9977       9988       9987      10097      10098      10109      10108  
      9978       9979       9990       9989      10099      10100      10111      10110  
      9979       9980       9991       9990      10100      10101      10112      10111  
      9980       9981       9992       9991      10101      10102      10113      10112  
      9981       9982       9993       9992      10102      10103      10114      10113  
      9982       9983       9994       9993      10103      10104      10115      10114  
      9983       9984       9995       9994      10104      10105      10116      10115  
      9984       9985       9996       9995      10105      10106      10117      10116  
      9985       9986       9997       9996      10106      10107      10118      10117  
      9986       9987       9998       9997      10107      10108      10119      10118  
      9987       9988       9999       9998      10108      10109      10120      10119  
      9989       9990      10001      10000      10110      10111      10122      10121  
      9990       9991      10002      10001      10111      10112      10123      10122  
      9991       9992      10003      10002      10112      10113      10124      10123  
      9992       9993      10004      10003      10113      10114      10125      10124  
      9993       9994      10005      10004      10114      10115      10126      10125  
      9994       9995      10006      10005      10115      10116      10127      10126  
      9995       9996      10007      10006      10116      10117      10128      10127  
      9996       9997      10008      10007      10117      10118      10129      10128  
      9997       9998      10009      10008      10118      10119      10130      10129  
      9998       9999      10010      10009      10119      10120      10131      10130  
     10000      10001      10012      10011      10121      10122      10133      10132  
     10001      10002      10013      10012      10122      10123      10134      10133  
     10002      10003      10014      10013      10123      10124      10135      10134  
     10003      10004      10015      10014      10124      10125      10136      10135  
     10004      10005      10016      10015      10125      10126      10137      10136  
     10005      10006      10017      10016      10126      10127      10138      10137  
     10006      10007      10018      10017      10127      10128      10139      10138  
     10007      10008      10019      10018      10128      10129      10140      10139  
     10008      10009      10020      10019      10129      10130      10141      10140  
     10009      10010      10021      10020      10130      10131      10142      10141  
     10011      10012      10023      10022      10132      10133      10144      10143  
     10012      10013      10024      10023      10133      10134      10145      10144  
     10013      10014      10025      10024      10134      10135      10146      10145  
     10014      10015      10026      10025      10135      10136      10147      10146  
     10015      10016      10027      10026      10136      10137      10148      10147  
     10016      10017      10028      10027      10137      10138      10149      10148  
     10017      10018      10029      10028      10138      10139      10150      10149  
     10018      10019      10030      10029      10139      10140      10151      10150  
     10019      10020      10031      10030      10140      10141      10152      10151  
     10020      10021      10032      10031      10141      10142      10153      10152  
     10022      10023      10034      10033      10143      10144      10155      10154  
     10023      10024      10035      10034      10144      10145      10156      10155  
     10024      10025      10036      10035      10145      10146      10157      10156  
     10025      10026      10037      10036      10146      10147      10158      10157  
     10026      10027      10038      10037      10147      10148      10159      10158  
     10027      10028      10039      10038      10148      10149      10160      10159  
     10028      10029      10040      10039      10149      10150      10161      10160  
     10029      10030      10041      10040      10150      10151      10162      10161  
     10030      10031      10042      10041      10151      10152      10163      10162  
     10031      10032      10043      10042      10152      10153      10164      10163  
     10044      10045      10056      10055      10165      10166      10177      10176  
     10045      10046      10057      10056      10166      10167      10178      10177  
     10046      10047      10058      10057      10167      10168      10179      10178  
     10047      10048      10059      10058      10168      10169      10180      10179  
     10048      10049      10060      10059      10169      10170      10181      10180  
     10049      10050      10061      10060      10170      10171      10182      10181  
     10050      10051      10062      10061      10171      10172      10183      10182  
     10051      10052      10063      10062      10172      10173      10184      10183  
     10052      10053      10064      10063      10173      10174      10185      10184  
     10053      10054      10065      10064      10174      10175      10186      10185  
     10055      10056      10067      10066      10176      10177      10188      10187  
     10056      10057      10068      10067      10177      10178      10189      10188  
     10057      10058      10069      10068      10178      10179      10190      10189  
     10058      10059      10070      10069      10179      10180      10191      10190  
     10059      10060      10071      10070      10180      10181      10192      10191  
     10060      10061      10072      10071      10181      10182      10193      10192  
     10061      10062      10073      10072      10182      10183      10194      10193  
     10062      10063      10074      10073      10183      10184      10195      10194  
     10063      10064      10075      10074      10184      10185      10196      10195  
     10064      10065      10076      10075      10185      10186      10197      10196  
     10066      10067      10078      10077      10187      10188      10199      10198  
     10067      10068      10079      10078      10188      10189      10200      10199  
     10068      10069      10080      10079      10189      10190      10201      10200  
     10069      10070      10081      10080      10190      10191      10202      10201  
     10070      10071      10082      10081      10191      10192      10203      10202  
     10071      10072      10083      10082      10192      10193      10204      10203  
     10072      10073      10084      10083      10193      10194      10205      10204  
     10073      10074      10085      10084      10194      10195      10206      10205  
     10074      10075      10086      10085      10195      10196      10207      10206  
     10075      10076      10087      10086      10196      10197      10208      10207  
     10077      10078      10089      10088      10198      10199      10210      10209  
     10078      10079      10090      10089      10199      10200      10211      10210  
     10079      10080      10091      10090      10200      10201      10212      10211  
     10080      10081      10092      10091      10201      10202      10213      10212  
     10081      10082      10093      10092      10202      10203      10214      10213  
     10082      10083      10094      10093      10203      10204      10215      10214  
     10083      10084      10095      10094      10204      10205      10216      10215  
     10084      10085      10096      10095      10205      10206      10217      10216  
     10085      10086      10097      10096      10206      10207      10218      10217  
     10086      10087      10098      10097      10207      10208      10219      10218  
     10088      10089      10100      10099      10209      10210      10221      10220  
     10089      10090      10101      10100      10210      10211      10222      10221  
     10090      10091      10102      10101      10211      10212      10223      10222  
     10091      10092      10103      10102      10212      10213      10224      10223  
     10092      10093      10104      10103      10213      10214      10225      10224  
     10093      10094      10105      10104      10214      10215      10226      10225  
     10094      10095      10106      10105      10215      10216      10227      10226  
     10095      10096      10107      10106      10216      10217      10228      10227  
     10096      10097      10108      10107      10217      10218      10229      10228  
     10097      10098      10109      10108      10218      10219      10230      10229  
     10099      10100      10111      10110      10220      10221      10232      10231  
     10100      10101      10112      10111      10221      10222      10233      10232  
     10101      10102      10113      10112      10222      10223      10234      10233  
     10102      10103      10114      10113      10223      10224      10235      10234  
     10103      10104      10115      10114      10224      10225      10236      10235  
     10104      10105      10116      10115      10225      10226      10237      10236  
     10105      10106      10117      10116      10226      10227      10238      10237  
     10106      10107      10118      10117      10227      10228      10239      10238  
     10107      10108      10119      10118      10228      10229      10240      10239  
     10108      10109      10120      10119      10229      10230      10241      10240  
     10110      10111      10122      10121      10231      10232      10243      10242  
     10111      10112      10123      10122      10232      10233      10244      10243  
     10112      10113      10124      10123      10233      10234      10245      10244  
     10113      10114      10125      10124      10234      10235      10246      10245  
     10114      10115      10126      10125      10235      10236      10247      10246  
     10115      10116      10127      10126      10236      10237      10248      10247  
     10116      10117      10128      10127      10237      10238      10249      10248  
     10117      10118      10129      10128      10238      10239      10250      10249  
     10118      10119      10130      10129      10239      10240      10251      10250  
     10119      10120      10131      10130      10240      10241      10252      10251  
     10121      10122      10133      10132      10242      10243      10254      10253  
     10122      10123      10134      10133      10243      10244      10255      10254  
     10123      10124      10135      10134      10244      10245      10256      10255  
     10124      10125      10136      10135      10245      10246      10257      10256  
     10125      10126      10137      10136      10246      10247      10258      10257  
     10126      10127      10138      10137      10247      10248      10259      10258  
     10127      10128      10139      10138      10248      10249      10260      10259  
     10128      10129      10140      10139      10249      10250      10261      10260  
     10129      10130      10141      10140      10250      10251      10262      10261  
     10130      10131      10142      10141      10251      10252      10263      10262  
     10132      10133      10144      10143      10253      10254      10265      10264  
     10133      10134      10145      10144      10254      10255      10266      10265  
     10134      10135      10146      10145      10255      10256      10267      10266  
     10135      10136      10147      10146      10256      10257      10268      10267  
     10136      10137      10148      10147      10257      10258      10269      10268  
     10137      10138      10149      10148      10258      10259      10270      10269  
     10138      10139      10150      10149      10259      10260      10271      10270  
     10139      10140      10151      10150      10260      10261      10272      10271  
     10140      10141      10152      10151      10261      10262      10273      10272  
     10141      10142      10153      10152      10262      10263      10274      10273  
     10143      10144      10155      10154      10264      10265      10276      10275  
     10144      10145      10156      10155      10265      10266      10277      10276  
     10145      10146      10157      10156      10266      10267      10278      10277  
     10146      10147      10158      10157      10267      10268      10279      10278  
     10147      10148      10159      10158      10268      10269      10280      10279  
     10148      10149      10160      10159      10269      10270      10281      10280  
     10149      10150      10161      10160      10270      10271      10282      10281  
     10150      10151      10162      10161      10271      10272      10283      10282  
     10151      10152      10163      10162      10272      10273      10284      10283  
     10152      10153      10164      10163      10273      10274      10285      10284  
     10165      10166      10177      10176      10286      10287      10298      10297  
     10166      10167      10178      10177      10287      10288      10299      10298  
     10167      10168      10179      10178      10288      10289      10300      10299  
     10168      10169      10180      10179      10289      10290      10301      10300  
     10169      10170      10181      10180      10290      10291      10302      10301  
     10170      10171      10182      10181      10291      10292      10303      10302  
     10171      10172      10183      10182      10292      10293      10304      10303  
     10172      10173      10184      10183      10293      10294      10305      10304  
     10173      10174      10185      10184      10294      10295      10306      10305  
     10174      10175      10186      10185      10295      10296      10307      10306  
     10176      10177      10188      10187      10297      10298      10309      10308  
     10177      10178      10189      10188      10298      10299      10310      10309  
     10178      10179      10190      10189      10299      10300      10311      10310  
     10179      10180      10191      10190      10300      10301      10312      10311  
     10180      10181      10192      10191      10301      10302      10313      10312  
     10181      10182      10193      10192      10302      10303      10314      10313  
     10182      10183      10194      10193      10303      10304      10315      10314  
     10183      10184      10195      10194      10304      10305      10316      10315  
     10184      10185      10196      10195      10305      10306      10317      10316  
     10185      10186      10197      10196      10306      10307      10318      10317  
     10187      10188      10199      10198      10308      10309      10320      10319  
     10188      10189      10200      10199      10309      10310      10321      10320  
     10189      10190      10201      10200      10310      10311      10322      10321  
     10190      10191      10202      10201      10311      10312      10323      10322  
     10191      10192      10203      10202      10312      10313      10324      10323  
     10192      10193      10204      10203      10313      10314      10325      10324  
     10193      10194      10205      10204      10314      10315      10326      10325  
     10194      10195      10206      10205      10315      10316      10327      10326  
     10195      10196      10207      10206      10316      10317      10328      10327  
     10196      10197      10208      10207      10317      10318      10329      10328  
     10198      10199      10210      10209      10319      10320      10331      10330  
     10199      10200      10211      10210      10320      10321      10332      10331  
     10200      10201      10212      10211      10321      10322      10333      10332  
     10201      10202      10213      10212      10322      10323      10334      10333  
     10202      10203      10214      10213      10323      10324      10335      10334  
     10203      10204      10215      10214      10324      10325      10336      10335  
     10204      10205      10216      10215      10325      10326      10337      10336  
     10205      10206      10217      10216      10326      10327      10338      10337  
     10206      10207      10218      10217      10327      10328      10339      10338  
     10207      10208      10219      10218      10328      10329      10340      10339  
     10209      10210      10221      10220      10330      10331      10342      10341  
     10210      10211      10222      10221      10331      10332      10343      10342  
     10211      10212      10223      10222      10332      10333      10344      10343  
     10212      10213      10224      10223      10333      10334      10345      10344  
     10213      10214      10225      10224      10334      10335      10346      10345  
     10214      10215      10226      10225      10335      10336      10347      10346  
     10215      10216      10227      10226      10336      10337      10348      10347  
     10216      10217      10228      10227      10337      10338      10349      10348  
     10217      10218      10229      10228      10338      10339      10350      10349  
     10218      10219      10230      10229      10339      10340      10351      10350  
     10220      10221      10232      10231      10341      10342      10353      10352  
     10221      10222      10233      10232      10342      10343      10354      10353  
     10222      10223      10234      10233      10343      10344      10355      10354  
     10223      10224      10235      10234      10344      10345      10356      10355  
     10224      10225      10236      10235      10345      10346      10357      10356  
     10225      10226      10237      10236      10346      10347      10358      10357  
     10226      10227      10238      10237      10347      10348      10359      10358  
     10227      10228      10239      10238      10348      10349      10360      10359  
     10228      10229      10240      10239      10349      10350      10361      10360  
     10229      10230      10241      10240      10350      10351      10362      10361  
     10231      10232      10243      10242      10352      10353      10364      10363  
     10232      10233      10244      10243      10353      10354      10365      10364  
     10233      10234      10245      10244      10354      10355      10366      10365  
     10234      10235      10246      10245      10355      10356      10367      10366  
     10235      10236      10247      10246      10356      10357      10368      10367  
     10236      10237      10248      10247      10357      10358      10369      10368  
     10237      10238      10249      10248      10358      10359      10370      10369  
     10238      10239      10250      10249      10359      10360      10371      10370  
     10239      10240      10251      10250      10360      10361      10372      10371  
     10240      10241      10252      10251      10361      10362      10373      10372  
     10242      10243      10254      10253      10363      10364      10375      10374  
     10243      10244      10255      10254      10364      10365      10376      10375  
     10244      10245      10256      10255      10365      10366      10377      10376  
     10245      10246      10257      10256      10366      10367      10378      10377  
     10246      10247      10258      10257      10367      10368      10379      10378  
     10247      10248      10259      10258      10368      10369      10380      10379  
     10248      10249      10260      10259      10369      10370      10381      10380  
     10249      10250      10261      10260      10370      10371      10382      10381  
     10250      10251      10262      10261      10371      10372      10383      10382  
     10251      10252      10263      10262      10372      10373      10384      10383  
     10253      10254      10265      10264      10374      10375      10386      10385  
     10254      10255      10266      10265      10375      10376      10387      10386  
     10255      10256      10267      10266      10376      10377      10388      10387  
     10256      10257      10268      10267      10377      10378      10389      10388  
     10257      10258      10269      10268      10378      10379      10390      10389  
     10258      10259      10270      10269      10379      10380      10391      10390  
     10259      10260      10271      10270      10380      10381      10392      10391  
     10260      10261      10272      10271      10381      10382      10393      10392  
     10261      10262      10273      10272      10382      10383      10394      10393  
     10262      10263      10274      10273      10383      10384      10395      10394  
     10264      10265      10276      10275      10385      10386      10397      10396  
     10265      10266      10277      10276      10386      10387      10398      10397  
     10266      10267      10278      10277      10387      10388      10399      10398  
     10267      10268      10279      10278      10388      10389      10400      10399  
     10268      10269      10280      10279      10389      10390      10401      10400  
     10269      10270      10281      10280      10390      10391      10402      10401  
     10270      10271      10282      10281      10391      10392      10403      10402  
     10271      10272      10283      10282      10392      10393      10404      10403  
     10272      10273      10284      10283      10393      10394      10405      10404  
     10273      10274      10285      10284      10394      10395      10406      10405  
     10286      10287      10298      10297      10407      10408      10419      10418  
     10287      10288      10299      10298      10408      10409      10420      10419  
     10288      10289      10300      10299      10409      10410      10421      10420  
     10289      10290      10301      10300      10410      10411      10422      10421  
     10290      10291      10302      10301      10411      10412      10423      10422  
     10291      10292      10303      10302      10412      10413      10424      10423  
     10292      10293      10304      10303      10413      10414      10425      10424  
     10293      10294      10305      10304      10414      10415      10426      10425  
     10294      10295      10306      10305      10415      10416      10427      10426  
     10295      10296      10307      10306      10416      10417      10428      10427  
     10297      10298      10309      10308      10418      10419      10430      10429  
     10298      10299      10310      10309      10419      10420      10431      10430  
     10299      10300      10311      10310      10420      10421      10432      10431  
     10300      10301      10312      10311      10421      10422      10433      10432  
     10301      10302      10313      10312      10422      10423      10434      10433  
     10302      10303      10314      10313      10423      10424      10435      10434  
     10303      10304      10315      10314      10424      10425      10436      10435  
     10304      10305      10316      10315      10425      10426      10437      10436  
     10305      10306      10317      10316      10426      10427      10438      10437  
     10306      10307      10318      10317      10427      10428      10439      10438  
     10308      10309      10320      10319      10429      10430      10441      10440  
     10309      10310      10321      10320      10430      10431      10442      10441  
     10310      10311      10322      10321      10431      10432      10443      10442  
     10311      10312      10323      10322      10432      10433      10444      10443  
     10312      10313      10324      10323      10433      10434      10445      10444  
     10313      10314      10325      10324      10434      10435      10446      10445  
     10314      10315      10326      10325      10435      10436      10447      10446  
     10315      10316      10327      10326      10436      10437      10448      10447  
     10316      10317      10328      10327      10437      10438      10449      10448  
     10317      10318      10329      10328      10438      10439      10450      10449  
     10319      10320      10331      10330      10440      10441      10452      10451  
     10320      10321      10332      10331      10441      10442      10453      10452  
     10321      10322      10333      10332      10442      10443      10454      10453  
     10322      10323      10334      10333      10443      10444      10455      10454  
     10323      10324      10335      10334      10444      10445      10456      10455  
     10324      10325      10336      10335      10445      10446      10457      10456  
     10325      10326      10337      10336      10446      10447      10458      10457  
     10326      10327      10338      10337      10447      10448      10459      10458  
     10327      10328      10339      10338      10448      10449      10460      10459  
     10328      10329      10340      10339      10449      10450      10461      10460  
     10330      10331      10342      10341      10451      10452      10463      10462  
     10331      10332      10343      10342      10452      10453      10464      10463  
     10332      10333      10344      10343      10453      10454      10465      10464  
     10333      10334      10345      10344      10454      10455      10466      10465  
     10334      10335      10346      10345      10455      10456      10467      10466  
     10335      10336      10347      10346      10456      10457      10468      10467  
     10336      10337      10348      10347      10457      10458      10469      10468  
     10337      10338      10349      10348      10458      10459      10470      10469  
     10338      10339      10350      10349      10459      10460      10471      10470  
     10339      10340      10351      10350      10460      10461      10472      10471  
     10341      10342      10353      10352      10462      10463      10474      10473  
     10342      10343      10354      10353      10463      10464      10475      10474  
     10343      10344      10355      10354      10464      10465      10476      10475  
     10344      10345      10356      10355      10465      10466      10477      10476  
     10345      10346      10357      10356      10466      10467      10478      10477  
     10346      10347      10358      10357      10467      10468      10479      10478  
     10347      10348      10359      10358      10468      10469      10480      10479  
     10348      10349      10360      10359      10469      10470      10481      10480  
     10349      10350      10361      10360      10470      10471      10482      10481  
     10350      10351      10362      10361      10471      10472      10483      10482  
     10352      10353      10364      10363      10473      10474      10485      10484  
     10353      10354      10365      10364      10474      10475      10486      10485  
     10354      10355      10366      10365      10475      10476      10487      10486  
     10355      10356      10367      10366      10476      10477      10488      10487  
     10356      10357      10368      10367      10477      10478      10489      10488  
     10357      10358      10369      10368      10478      10479      10490      10489  
     10358      10359      10370      10369      10479      10480      10491      10490  
     10359      10360      10371      10370      10480      10481      10492      10491  
     10360      10361      10372      10371      10481      10482      10493      10492  
     10361      10362      10373      10372      10482      10483      10494      10493  
     10363      10364      10375      10374      10484      10485      10496      10495  
     10364      10365      10376      10375      10485      10486      10497      10496  
     10365      10366      10377      10376      10486      10487      10498      10497  
     10366      10367      10378      10377      10487      10488      10499      10498  
     10367      10368      10379      10378      10488      10489      10500      10499  
     10368      10369      10380      10379      10489      10490      10501      10500  
     10369      10370      10381      10380      10490      10491      10502      10501  
     10370      10371      10382      10381      10491      10492      10503      10502  
     10371      10372      10383      10382      10492      10493      10504      10503  
     10372      10373      10384      10383      10493      10494      10505      10504  
     10374      10375      10386      10385      10495      10496      10507      10506  
     10375      10376      10387      10386      10496      10497      10508      10507  
     10376      10377      10388      10387      10497      10498      10509      10508  
     10377      10378      10389      10388      10498      10499      10510      10509  
     10378      10379      10390      10389      10499      10500      10511      10510  
     10379      10380      10391      10390      10500      10501      10512      10511  
     10380      10381      10392      10391      10501      10502      10513      10512  
     10381      10382      10393      10392      10502      10503      10514      10513  
     10382      10383      10394      10393      10503      10504      10515      10514  
     10383      10384      10395      10394      10504      10505      10516      10515  
     10385      10386      10397      10396      10506      10507      10518      10517  
     10386      10387      10398      10397      10507      10508      10519      10518  
     10387      10388      10399      10398      10508      10509      10520      10519  
     10388      10389      10400      10399      10509      10510      10521      10520  
     10389      10390      10401      10400      10510      10511      10522      10521  
     10390      10391      10402      10401      10511      10512      10523      10522  
     10391      10392      10403      10402      10512      10513      10524      10523  
     10392      10393      10404      10403      10513      10514      10525      10524  
     10393      10394      10405      10404      10514      10515      10526      10525  
     10394      10395      10406      10405      10515      10516      10527      10526  
     10407      10408      10419      10418      10528      10529      10540      10539  
     10408      10409      10420      10419      10529      10530      10541      10540  
     10409      10410      10421      10420      10530      10531      10542      10541  
     10410      10411      10422      10421      10531      10532      10543      10542  
     10411      10412      10423      10422      10532      10533      10544      10543  
     10412      10413      10424      10423      10533      10534      10545      10544  
     10413      10414      10425      10424      10534      10535      10546      10545  
     10414      10415      10426      10425      10535      10536      10547      10546  
     10415      10416      10427      10426      10536      10537      10548      10547  
     10416      10417      10428      10427      10537      10538      10549      10548  
     10418      10419      10430      10429      10539      10540      10551      10550  
     10419      10420      10431      10430      10540      10541      10552      10551  
     10420      10421      10432      10431      10541      10542      10553      10552  
     10421      10422      10433      10432      10542      10543      10554      10553  
     10422      10423      10434      10433      10543      10544      10555      10554  
     10423      10424      10435      10434      10544      10545      10556      10555  
     10424      10425      10436      10435      10545      10546      10557      10556  
     10425      10426      10437      10436      10546      10547      10558      10557  
     10426      10427      10438      10437      10547      10548      10559      10558  
     10427      10428      10439      10438      10548      10549      10560      10559  
     10429      10430      10441      10440      10550      10551      10562      10561  
     10430      10431      10442      10441      10551      10552      10563      10562  
     10431      10432      10443      10442      10552      10553      10564      10563  
     10432      10433      10444      10443      10553      10554      10565      10564  
     10433      10434      10445      10444      10554      10555      10566      10565  
     10434      10435      10446      10445      10555      10556      10567      10566  
     10435      10436      10447      10446      10556      10557      10568      10567  
     10436      10437      10448      10447      10557      10558      10569      10568  
     10437      10438      10449      10448      10558      10559      10570      10569  
     10438      10439      10450      10449      10559      10560      10571      10570  
     10440      10441      10452      10451      10561      10562      10573      10572  
     10441      10442      10453      10452      10562      10563      10574      10573  
     10442      10443      10454      10453      10563      10564      10575      10574  
     10443      10444      10455      10454      10564      10565      10576      10575  
     10444      10445      10456      10455      10565      10566      10577      10576  
     10445      10446      10457      10456      10566      10567      10578      10577  
     10446      10447      10458      10457      10567      10568      10579      10578  
     10447      10448      10459      10458      10568      10569      10580      10579  
     10448      10449      10460      10459      10569      10570      10581      10580  
     10449      10450      10461      10460      10570      10571      10582      10581  
     10451      10452      10463      10462      10572      10573      10584      10583  
     10452      10453      10464      10463      10573      10574      10585      10584  
     10453      10454      10465      10464      10574      10575      10586      10585  
     10454      10455      10466      10465      10575      10576      10587      10586  
     10455      10456      10467      10466      10576      10577      10588      10587  
     10456      10457      10468      10467      10577      10578      10589      10588  
     10457      10458      10469      10468      10578      10579      10590      10589  
     10458      10459      10470      10469      10579      10580      10591      10590  
     10459      10460      10471      10470      10580      10581      10592      10591  
     10460      10461      10472      10471      10581      10582      10593      10592  
     10462      10463      10474      10473      10583      10584      10595      10594  
     10463      10464      10475      10474      10584      10585      10596      10595  
     10464      10465      10476      10475      10585      10586      10597      10596  
     10465      10466      10477      10476      10586      10587      10598      10597  
     10466      10467      10478      10477      10587      10588      10599      10598  
     10467      10468      10479      10478      10588      10589      10600      10599  
     10468      10469      10480      10479      10589      10590      10601      10600  
     10469      10470      10481      10480      10590      10591      10602      10601  
     10470      10471      10482      10481      10591      10592      10603      10602  
     10471      10472      10483      10482      10592      10593      10604      10603  
     10473      10474      10485      10484      10594      10595      10606      10605  
     10474      10475      10486      10485      10595      10596      10607      10606  
     10475      10476      10487      10486      10596      10597      10608      10607  
     10476      10477      10488      10487      10597      10598      10609      10608  
     10477      10478      10489      10488      10598      10599      10610      10609  
     10478      10479      10490      10489      10599      10600      10611      10610  
     10479      10480      10491      10490      10600      10601      10612      10611  
     10480      10481      10492      10491      10601      10602      10613      10612  
     10481      10482      10493      10492      10602      10603      10614      10613  
     10482      10483      10494      10493      10603      10604      10615      10614  
     10484      10485      10496      10495      10605      10606      10617      10616  
     10485      10486      10497      10496      10606      10607      10618      10617  
     10486      10487      10498      10497      10607      10608      10619      10618  
     10487      10488      10499      10498      10608      10609      10620      10619  
     10488      10489      10500      10499      10609      10610      10621      10620  
     10489      10490      10501      10500      10610      10611      10622      10621  
     10490      10491      10502      10501      10611      10612      10623      10622  
     10491      10492      10503      10502      10612      10613      10624      10623  
     10492      10493      10504      10503      10613      10614      10625      10624  
     10493      10494      10505      10504      10614      10615      10626      10625  
     10495      10496      10507      10506      10616      10617      10628      10627  
     10496      10497      10508      10507      10617      10618      10629      10628  
     10497      10498      10509      10508      10618      10619      10630      10629  
     10498      10499      10510      10509      10619      10620      10631      10630  
     10499      10500      10511      10510      10620      10621      10632      10631  
     10500      10501      10512      10511      10621      10622      10633      10632  
     10501      10502      10513      10512      10622      10623      10634      10633  
     10502      10503      10514      10513      10623      10624      10635      10634  
     10503      10504      10515      10514      10624      10625      10636      10635  
     10504      10505      10516      10515      10625      10626      10637      10636  
     10506      10507      10518      10517      10627      10628      10639      10638  
     10507      10508      10519      10518      10628      10629      10640      10639  
     10508      10509      10520      10519      10629      10630      10641      10640  
     10509      10510      10521      10520      10630      10631      10642      10641  
     10510      10511      10522      10521      10631      10632      10643      10642  
     10511      10512      10523      10522      10632      10633      10644      10643  
     10512      10513      10524      10523      10633      10634      10645      10644  
     10513      10514      10525      10524      10634      10635      10646      10645  
     10514      10515      10526      10525      10635      10636      10647      10646  
     10515      10516      10527      10526      10636      10637      10648      10647  
     10528      10529      10540      10539      10649      10650      10661      10660  
     10529      10530      10541      10540      10650      10651      10662      10661  
     10530      10531      10542      10541      10651      10652      10663      10662  
     10531      10532      10543      10542      10652      10653      10664      10663  
     10532      10533      10544      10543      10653      10654      10665      10664  
     10533      10534      10545      10544      10654      10655      10666      10665  
     10534      10535      10546      10545      10655      10656      10667      10666  
     10535      10536      10547      10546      10656      10657      10668      10667  
     10536      10537      10548      10547      10657      10658      10669      10668  
     10537      10538      10549      10548      10658      10659      10670      10669  
     10539      10540      10551      10550      10660      10661      10672      10671  
     10540      10541      10552      10551      10661      10662      10673      10672  
     10541      10542      10553      10552      10662      10663      10674      10673  
     10542      10543      10554      10553      10663      10664      10675      10674  
     10543      10544      10555      10554      10664      10665      10676      10675  
     10544      10545      10556      10555      10665      10666      10677      10676  
     10545      10546      10557      10556      10666      10667      10678      10677  
     10546      10547      10558      10557      10667      10668      10679      10678  
     10547      10548      10559      10558      10668      10669      10680      10679  
     10548      10549      10560      10559      10669      10670      10681      10680  
     10550      10551      10562      10561      10671      10672      10683      10682  
     10551      10552      10563      10562      10672      10673      10684      10683  
     10552      10553      10564      10563      10673      10674      10685      10684  
     10553      10554      10565      10564      10674      10675      10686      10685  
     10554      10555      10566      10565      10675      10676      10687      10686  
     10555      10556      10567      10566      10676      10677      10688      10687  
     10556      10557      10568      10567      10677      10678      10689      10688  
     10557      10558      10569      10568      10678      10679      10690      10689  
     10558      10559      10570      10569      10679      10680      10691      10690  
     10559      10560      10571      10570      10680      10681      10692      10691  
     10561      10562      10573      10572      10682      10683      10694      10693  
     10562      10563      10574      10573      10683      10684      10695      10694  
     10563      10564      10575      10574      10684      10685      10696      10695  
     10564      10565      10576      10575      10685      10686      10697      10696  
     10565      10566      10577      10576      10686      10687      10698      10697  
     10566      10567      10578      10577      10687      10688      10699      10698  
     10567      10568      10579      10578      10688      10689      10700      10699  
     10568      10569      10580      10579      10689      10690      10701      10700  
     10569      10570      10581      10580      10690      10691      10702      10701  
     10570      10571      10582      10581      10691      10692      10703      10702  
     10572      10573      10584      10583      10693      10694      10705      10704  
     10573      10574      10585      10584      10694      10695      10706      10705  
     10574      10575      10586      10585      10695      10696      10707      10706  
     10575      10576      10587      10586      10696      10697      10708      10707  
     10576      10577      10588      10587      10697      10698      10709      10708  
     10577      10578      10589      10588      10698      10699      10710      10709  
     10578      10579      10590      10589      10699      10700      10711      10710  
     10579      10580      10591      10590      10700      10701      10712      10711  
     10580      10581      10592      10591      10701      10702      10713      10712  
     10581      10582      10593      10592      10702      10703      10714      10713  
     10583      10584      10595      10594      10704      10705      10716      10715  
     10584      10585      10596      10595      10705      10706      10717      10716  
     10585      10586      10597      10596      10706      10707      10718      10717  
     10586      10587      10598      10597      10707      10708      10719      10718  
     10587      10588      10599      10598      10708      10709      10720      10719  
     10588      10589      10600      10599      10709      10710      10721      10720  
     10589      10590      10601      10600      10710      10711      10722      10721  
     10590      10591      10602      10601      10711      10712      10723      10722  
     10591      10592      10603      10602      10712      10713      10724      10723  
     10592      10593      10604      10603      10713      10714      10725      10724  
     10594      10595      10606      10605      10715      10716      10727      10726  
     10595      10596      10607      10606      10716      10717      10728      10727  
     10596      10597      10608      10607      10717      10718      10729      10728  
     10597      10598      10609      10608      10718      10719      10730      10729  
     10598      10599      10610      10609      10719      10720      10731      10730  
     10599      10600      10611      10610      10720      10721      10732      10731  
     10600      10601      10612      10611      10721      10722      10733      10732  
     10601      10602      10613      10612      10722      10723      10734      10733  
     10602      10603      10614      10613      10723      10724      10735      10734  
     10603      10604      10615      10614      10724      10725      10736      10735  
     10605      10606      10617      10616      10726      10727      10738      10737  
     10606      10607      10618      10617      10727      10728      10739      10738  
     10607      10608      10619      10618      10728      10729      10740      10739  
     10608      10609      10620      10619      10729      10730      10741      10740  
     10609      10610      10621      10620      10730      10731      10742      10741  
     10610      10611      10622      10621      10731      10732      10743      10742  
     10611      10612      10623      10622      10732      10733      10744      10743  
     10612      10613      10624      10623      10733      10734      10745      10744  
     10613      10614      10625      10624      10734      10735      10746      10745  
     10614      10615      10626      10625      10735      10736      10747      10746  
     10616      10617      10628      10627      10737      10738      10749      10748  
     10617      10618      10629      10628      10738      10739      10750      10749  
     10618      10619      10630      10629      10739      10740      10751      10750  
     10619      10620      10631      10630      10740      10741      10752      10751  
     10620      10621      10632      10631      10741      10742      10753      10752  
     10621      10622      10633      10632      10742      10743      10754      10753  
     10622      10623      10634      10633      10743      10744      10755      10754  
     10623      10624      10635      10634      10744      10745      10756      10755  
     10624      10625      10636      10635      10745      10746      10757      10756  
     10625      10626      10637      10636      10746      10747      10758      10757  
     10627      10628      10639      10638      10748      10749      10760      10759  
     10628      10629      10640      10639      10749      10750      10761      10760  
     10629      10630      10641      10640      10750      10751      10762      10761  
     10630      10631      10642      10641      10751      10752      10763      10762  
     10631      10632      10643      10642      10752      10753      10764      10763  
     10632      10633      10644      10643      10753      10754      10765      10764  
     10633      10634      10645      10644      10754      10755      10766      10765  
     10634      10635      10646      10645      10755      10756      10767      10766  
     10635      10636      10647      10646      10756      10757      10768      10767  
     10636      10637      10648      10647      10757      10758      10769      10768  
     10649      10650      10661      10660      10770      10771      10782      10781  
     10650      10651      10662      10661      10771      10772      10783      10782  
     10651      10652      10663      10662      10772      10773      10784      10783  
     10652      10653      10664      10663      10773      10774      10785      10784  
     10653      10654      10665      10664      10774      10775      10786      10785  
     10654      10655      10666      10665      10775      10776      10787      10786  
     10655      10656      10667      10666      10776      10777      10788      10787  
     10656      10657      10668      10667      10777      10778      10789      10788  
     10657      10658      10669      10668      10778      10779      10790      10789  
     10658      10659      10670      10669      10779      10780      10791      10790  
     10660      10661      10672      10671      10781      10782      10793      10792  
     10661      10662      10673      10672      10782      10783      10794      10793  
     10662      10663      10674      10673      10783      10784      10795      10794  
     10663      10664      10675      10674      10784      10785      10796      10795  
     10664      10665      10676      10675      10785      10786      10797      10796  
     10665      10666      10677      10676      10786      10787      10798      10797  
     10666      10667      10678      10677      10787      10788      10799      10798  
     10667      10668      10679      10678      10788      10789      10800      10799  
     10668      10669      10680      10679      10789      10790      10801      10800  
     10669      10670      10681      10680      10790      10791      10802      10801  
     10671      10672      10683      10682      10792      10793      10804      10803  
     10672      10673      10684      10683      10793      10794      10805      10804  
     10673      10674      10685      10684      10794      10795      10806      10805  
     10674      10675      10686      10685      10795      10796      10807      10806  
     10675      10676      10687      10686      10796      10797      10808      10807  
     10676      10677      10688      10687      10797      10798      10809      10808  
     10677      10678      10689      10688      10798      10799      10810      10809  
     10678      10679      10690      10689      10799      10800      10811      10810  
     10679      10680      10691      10690      10800      10801      10812      10811  
     10680      10681      10692      10691      10801      10802      10813      10812  
     10682      10683      10694      10693      10803      10804      10815      10814  
     10683      10684      10695      10694      10804      10805      10816      10815  
     10684      10685      10696      10695      10805      10806      10817      10816  
     10685      10686      10697      10696      10806      10807      10818      10817  
     10686      10687      10698      10697      10807      10808      10819      10818  
     10687      10688      10699      10698      10808      10809      10820      10819  
     10688      10689      10700      10699      10809      10810      10821      10820  
     10689      10690      10701      10700      10810      10811      10822      10821  
     10690      10691      10702      10701      10811      10812      10823      10822  
     10691      10692      10703      10702      10812      10813      10824      10823  
     10693      10694      10705      10704      10814      10815      10826      10825  
     10694      10695      10706      10705      10815      10816      10827      10826  
     10695      10696      10707      10706      10816      10817      10828      10827  
     10696      10697      10708      10707      10817      10818      10829      10828  
     10697      10698      10709      10708      10818      10819      10830      10829  
     10698      10699      10710      10709      10819      10820      10831      10830  
     10699      10700      10711      10710      10820      10821      10832      10831  
     10700      10701      10712      10711      10821      10822      10833      10832  
     10701      10702      10713      10712      10822      10823      10834      10833  
     10702      10703      10714      10713      10823      10824      10835      10834  
     10704      10705      10716      10715      10825      10826      10837      10836  
     10705      10706      10717      10716      10826      10827      10838      10837  
     10706      10707      10718      10717      10827      10828      10839      10838  
     10707      10708      10719      10718      10828      10829      10840      10839  
     10708      10709      10720      10719      10829      10830      10841      10840  
     10709      10710      10721      10720      10830      10831      10842      10841  
     10710      10711      10722      10721      10831      10832      10843      10842  
     10711      10712      10723      10722      10832      10833      10844      10843  
     10712      10713      10724      10723      10833      10834      10845      10844  
     10713      10714      10725      10724      10834      10835      10846      10845  
     10715      10716      10727      10726      10836      10837      10848      10847  
     10716      10717      10728      10727      10837      10838      10849      10848  
     10717      10718      10729      10728      10838      10839      10850      10849  
     10718      10719      10730      10729      10839      10840      10851      10850  
     10719      10720      10731      10730      10840      10841      10852      10851  
     10720      10721      10732      10731      10841      10842      10853      10852  
     10721      10722      10733      10732      10842      10843      10854      10853  
     10722      10723      10734      10733      10843      10844      10855      10854  
     10723      10724      10735      10734      10844      10845      10856      10855  
     10724      10725      10736      10735      10845      10846      10857      10856  
     10726      10727      10738      10737      10847      10848      10859      10858  
     10727      10728      10739      10738      10848      10849      10860      10859  
     10728      10729      10740      10739      10849      10850      10861      10860  
     10729      10730      10741      10740      10850      10851      10862      10861  
     10730      10731      10742      10741      10851      10852      10863      10862  
     10731      10732      10743      10742      10852      10853      10864      10863  
     10732      10733      10744      10743      10853      10854      10865      10864  
     10733      10734      10745      10744      10854      10855      10866      10865  
     10734      10735      10746      10745      10855      10856      10867      10866  
     10735      10736      10747      10746      10856      10857      10868      10867  
     10737      10738      10749      10748      10858      10859      10870      10869  
     10738      10739      10750      10749      10859      10860      10871      10870  
     10739      10740      10751      10750      10860      10861      10872      10871  
     10740      10741      10752      10751      10861      10862      10873      10872  
     10741      10742      10753      10752      10862      10863      10874      10873  
     10742      10743      10754      10753      10863      10864      10875      10874  
     10743      10744      10755      10754      10864      10865      10876      10875  
     10744      10745      10756      10755      10865      10866      10877      10876  
     10745      10746      10757      10756      10866      10867      10878      10877  
     10746      10747      10758      10757      10867      10868      10879      10878  
     10748      10749      10760      10759      10869      10870      10881      10880  
     10749      10750      10761      10760      10870      10871      10882      10881  
     10750      10751      10762      10761      10871      10872      10883      10882  
     10751      10752      10763      10762      10872      10873      10884      10883  
     10752      10753      10764      10763      10873      10874      10885      10884  
     10753      10754      10765      10764      10874      10875      10886      10885  
     10754      10755      10766      10765      10875      10876      10887      10886  
     10755      10756      10767      10766      10876      10877      10888      10887  
     10756      10757      10768      10767      10877      10878      10889      10888  
     10757      10758      10769      10768      10878      10879      10890      10889  
     10770      10771      10782      10781      10891      10892      10903      10902  
     10771      10772      10783      10782      10892      10893      10904      10903  
     10772      10773      10784      10783      10893      10894      10905      10904  
     10773      10774      10785      10784      10894      10895      10906      10905  
     10774      10775      10786      10785      10895      10896      10907      10906  
     10775      10776      10787      10786      10896      10897      10908      10907  
     10776      10777      10788      10787      10897      10898      10909      10908  
     10777      10778      10789      10788      10898      10899      10910      10909  
     10778      10779      10790      10789      10899      10900      10911      10910  
     10779      10780      10791      10790      10900      10901      10912      10911  
     10781      10782      10793      10792      10902      10903      10914      10913  
     10782      10783      10794      10793      10903      10904      10915      10914  
     10783      10784      10795      10794      10904      10905      10916      10915  
     10784      10785      10796      10795      10905      10906      10917      10916  
     10785      10786      10797      10796      10906      10907      10918      10917  
     10786      10787      10798      10797      10907      10908      10919      10918  
     10787      10788      10799      10798      10908      10909      10920      10919  
     10788      10789      10800      10799      10909      10910      10921      10920  
     10789      10790      10801      10800      10910      10911      10922      10921  
     10790      10791      10802      10801      10911      10912      10923      10922  
     10792      10793      10804      10803      10913      10914      10925      10924  
     10793      10794      10805      10804      10914      10915      10926      10925  
     10794      10795      10806      10805      10915      10916      10927      10926  
     10795      10796      10807      10806      10916      10917      10928      10927  
     10796      10797      10808      10807      10917      10918      10929      10928  
     10797      10798      10809      10808      10918      10919      10930      10929  
     10798      10799      10810      10809      10919      10920      10931      10930  
     10799      10800      10811      10810      10920      10921      10932      10931  
     10800      10801      10812      10811      10921      10922      10933      10932  
     10801      10802      10813      10812      10922      10923      10934      10933  
     10803      10804      10815      10814      10924      10925      10936      10935  
     10804      10805      10816      10815      10925      10926      10937      10936  
     10805      10806      10817      10816      10926      10927      10938      10937  
     10806      10807      10818      10817      10927      10928      10939      10938  
     10807      10808      10819      10818      10928      10929      10940      10939  
     10808      10809      10820      10819      10929      10930      10941      10940  
     10809      10810      10821      10820      10930      10931      10942      10941  
     10810      10811      10822      10821      10931      10932      10943      10942  
     10811      10812      10823      10822      10932      10933      10944      10943  
     10812      10813      10824      10823      10933      10934      10945      10944  
     10814      10815      10826      10825      10935      10936      10947      10946  
     10815      10816      10827      10826      10936      10937      10948      10947  
     10816      10817      10828      10827      10937      10938      10949      10948  
     10817      10818      10829      10828      10938      10939      10950      10949  
     10818      10819      10830      10829      10939      10940      10951      10950  
     10819      10820      10831      10830      10940      10941      10952      10951  
     10820      10821      10832      10831      10941      10942      10953      10952  
     10821      10822      10833      10832      10942      10943      10954      10953  
     10822      10823      10834      10833      10943      10944      10955      10954  
     10823      10824      10835      10834      10944      10945      10956      10955  
     10825      10826      10837      10836      10946      10947      10958      10957  
     10826      10827      10838      10837      10947      10948      10959      10958  
     10827      10828      10839      10838      10948      10949      10960      10959  
     10828      10829      10840      10839      10949      10950      10961      10960  
     10829      10830      10841      10840      10950      10951      10962      10961  
     10830      10831      10842      10841      10951      10952      10963      10962  
     10831      10832      10843      10842      10952      10953      10964      10963  
     10832      10833      10844      10843      10953      10954      10965      10964  
     10833      10834      10845      10844      10954      10955      10966      10965  
     10834      10835      10846      10845      10955      10956      10967      10966  
     10836      10837      10848      10847      10957      10958      10969      10968  
     10837      10838      10849      10848      10958      10959      10970      10969  
     10838      10839      10850      10849      10959      10960      10971      10970  
     10839      10840      10851      10850      10960      10961      10972      10971  
     10840      10841      10852      10851      10961      10962      10973      10972  
     10841      10842      10853      10852      10962      10963      10974      10973  
     10842      10843      10854      10853      10963      10964      10975      10974  
     10843      10844      10855      10854      10964      10965      10976      10975  
     10844      10845      10856      10855      10965      10966      10977      10976  
     10845      10846      10857      10856      10966      10967      10978      10977  
     10847      10848      10859      10858      10968      10969      10980      10979  
     10848      10849      10860      10859      10969      10970      10981      10980  
     10849      10850      10861      10860      10970      10971      10982      10981  
     10850      10851      10862      10861      10971      10972      10983      10982  
     10851      10852      10863      10862      10972      10973      10984      10983  
     10852      10853      10864      10863      10973      10974      10985      10984  
     10853      10854      10865      10864      10974      10975      10986      10985  
     10854      10855      10866      10865      10975      10976      10987      10986  
     10855      10856      10867      10866      10976      10977      10988      10987  
     10856      10857      10868      10867      10977      10978      10989      10988  
     10858      10859      10870      10869      10979      10980      10991      10990  
     10859      10860      10871      10870      10980      10981      10992      10991  
     10860      10861      10872      10871      10981      10982      10993      10992  
     10861      10862      10873      10872      10982      10983      10994      10993  
     10862      10863      10874      10873      10983      10984      10995      10994  
     10863      10864      10875      10874      10984      10985      10996      10995  
     10864      10865      10876      10875      10985      10986      10997      10996  
     10865      10866      10877      10876      10986      10987      10998      10997  
     10866      10867      10878      10877      10987      10988      10999      10998  
     10867      10868      10879      10878      10988      10989      11000      10999  
     10869      10870      10881      10880      10990      10991      11002      11001  
     10870      10871      10882      10881      10991      10992      11003      11002  
     10871      10872      10883      10882      10992      10993      11004      11003  
     10872      10873      10884      10883      10993      10994      11005      11004  
     10873      10874      10885      10884      10994      10995      11006      11005  
     10874      10875      10886      10885      10995      10996      11007      11006  
     10875      10876      10887      10886      10996      10997      11008      11007  
     10876      10877      10888      10887      10997      10998      11009      11008  
     10877      10878      10889      10888      10998      10999      11010      11009  
     10878      10879      10890      10889      10999      11000      11011      11010  
     10891      10892      10903      10902      11012      11013      11024      11023  
     10892      10893      10904      10903      11013      11014      11025      11024  
     10893      10894      10905      10904      11014      11015      11026      11025  
     10894      10895      10906      10905      11015      11016      11027      11026  
     10895      10896      10907      10906      11016      11017      11028      11027  
     10896      10897      10908      10907      11017      11018      11029      11028  
     10897      10898      10909      10908      11018      11019      11030      11029  
     10898      10899      10910      10909      11019      11020      11031      11030  
     10899      10900      10911      10910      11020      11021      11032      11031  
     10900      10901      10912      10911      11021      11022      11033      11032  
     10902      10903      10914      10913      11023      11024      11035      11034  
     10903      10904      10915      10914      11024      11025      11036      11035  
     10904      10905      10916      10915      11025      11026      11037      11036  
     10905      10906      10917      10916      11026      11027      11038      11037  
     10906      10907      10918      10917      11027      11028      11039      11038  
     10907      10908      10919      10918      11028      11029      11040      11039  
     10908      10909      10920      10919      11029      11030      11041      11040  
     10909      10910      10921      10920      11030      11031      11042      11041  
     10910      10911      10922      10921      11031      11032      11043      11042  
     10911      10912      10923      10922      11032      11033      11044      11043  
     10913      10914      10925      10924      11034      11035      11046      11045  
     10914      10915      10926      10925      11035      11036      11047      11046  
     10915      10916      10927      10926      11036      11037      11048      11047  
     10916      10917      10928      10927      11037      11038      11049      11048  
     10917      10918      10929      10928      11038      11039      11050      11049  
     10918      10919      10930      10929      11039      11040      11051      11050  
     10919      10920      10931      10930      11040      11041      11052      11051  
     10920      10921      10932      10931      11041      11042      11053      11052  
     10921      10922      10933      10932      11042      11043      11054      11053  
     10922      10923      10934      10933      11043      11044      11055      11054  
     10924      10925      10936      10935      11045      11046      11057      11056  
     10925      10926      10937      10936      11046      11047      11058      11057  
     10926      10927      10938      10937      11047      11048      11059      11058  
     10927      10928      10939      10938      11048      11049      11060      11059  
     10928      10929      10940      10939      11049      11050      11061      11060  
     10929      10930      10941      10940      11050      11051      11062      11061  
     10930      10931      10942      10941      11051      11052      11063      11062  
     10931      10932      10943      10942      11052      11053      11064      11063  
     10932      10933      10944      10943      11053      11054      11065      11064  
     10933      10934      10945      10944      11054      11055      11066      11065  
     10935      10936      10947      10946      11056      11057      11068      11067  
     10936      10937      10948      10947      11057      11058      11069      11068  
     10937      10938      10949      10948      11058      11059      11070      11069  
     10938      10939      10950      10949      11059      11060      11071      11070  
     10939      10940      10951      10950      11060      11061      11072      11071  
     10940      10941      10952      10951      11061      11062      11073      11072  
     10941      10942      10953      10952      11062      11063      11074      11073  
     10942      10943      10954      10953      11063      11064      11075      11074  
     10943      10944      10955      10954      11064      11065      11076      11075  
     10944      10945      10956      10955      11065      11066      11077      11076  
     10946      10947      10958      10957      11067      11068      11079      11078  
     10947      10948      10959      10958      11068      11069      11080      11079  
     10948      10949      10960      10959      11069      11070      11081      11080  
     10949      10950      10961      10960      11070      11071      11082      11081  
     10950      10951      10962      10961      11071      11072      11083      11082  
     10951      10952      10963      10962      11072      11073      11084      11083  
     10952      10953      10964      10963      11073      11074      11085      11084  
     10953      10954      10965      10964      11074      11075      11086      11085  
     10954      10955      10966      10965      11075      11076      11087      11086  
     10955      10956      10967      10966      11076      11077      11088      11087  
     10957      10958      10969      10968      11078      11079      11090      11089  
     10958      10959      10970      10969      11079      11080      11091      11090  
     10959      10960      10971      10970      11080      11081      11092      11091  
     10960      10961      10972      10971      11081      11082      11093      11092  
     10961      10962      10973      10972      11082      11083      11094      11093  
     10962      10963      10974      10973      11083      11084      11095      11094  
     10963      10964      10975      10974      11084      11085      11096      11095  
     10964      10965      10976      10975      11085      11086      11097      11096  
     10965      10966      10977      10976      11086      11087      11098      11097  
     10966      10967      10978      10977      11087      11088      11099      11098  
     10968      10969      10980      10979      11089      11090      11101      11100  
     10969      10970      10981      10980      11090      11091      11102      11101  
     10970      10971      10982      10981      11091      11092      11103      11102  
     10971      10972      10983      10982      11092      11093      11104      11103  
     10972      10973      10984      10983      11093      11094      11105      11104  
     10973      10974      10985      10984      11094      11095      11106      11105  
     10974      10975      10986      10985      11095      11096      11107      11106  
     10975      10976      10987      10986      11096      11097      11108      11107  
     10976      10977      10988      10987      11097      11098      11109      11108  
     10977      10978      10989      10988      11098      11099      11110      11109  
     10979      10980      10991      10990      11100      11101      11112      11111  
     10980      10981      10992      10991      11101      11102      11113      11112  
     10981      10982      10993      10992      11102      11103      11114      11113  
     10982      10983      10994      10993      11103      11104      11115      11114  
     10983      10984      10995      10994      11104      11105      11116      11115  
     10984      10985      10996      10995      11105      11106      11117      11116  
     10985      10986      10997      10996      11106      11107      11118      11117  
     10986      10987      10998      10997      11107      11108      11119      11118  
     10987      10988      10999      10998      11108      11109      11120      11119  
     10988      10989      11000      10999      11109      11110      11121      11120  
     10990      10991      11002      11001      11111      11112      11123      11122  
     10991      10992      11003      11002      11112      11113      11124      11123  
     10992      10993      11004      11003      11113      11114      11125      11124  
     10993      10994      11005      11004      11114      11115      11126      11125  
     10994      10995      11006      11005      11115      11116      11127      11126  
     10995      10996      11007      11006      11116      11117      11128      11127  
     10996      10997      11008      11007      11117      11118      11129      11128  
     10997      10998      11009      11008      11118      11119      11130      11129  
     10998      10999      11010      11009      11119      11120      11131      11130  
     10999      11000      11011      11010      11120      11121      11132      11131  
     11012      11013      11024      11023      11133      11134      11145      11144  
     11013      11014      11025      11024      11134      11135      11146      11145  
     11014      11015      11026      11025      11135      11136      11147      11146  
     11015      11016      11027      11026      11136      11137      11148      11147  
     11016      11017      11028      11027      11137      11138      11149      11148  
     11017      11018      11029      11028      11138      11139      11150      11149  
     11018      11019      11030      11029      11139      11140      11151      11150  
     11019      11020      11031      11030      11140      11141      11152      11151  
     11020      11021      11032      11031      11141      11142      11153      11152  
     11021      11022      11033      11032      11142      11143      11154      11153  
     11023      11024      11035      11034      11144      11145      11156      11155  
     11024      11025      11036      11035      11145      11146      11157      11156  
     11025      11026      11037      11036      11146      11147      11158      11157  
     11026      11027      11038      11037      11147      11148      11159      11158  
     11027      11028      11039      11038      11148      11149      11160      11159  
     11028      11029      11040      11039      11149      11150      11161      11160  
     11029      11030      11041      11040      11150      11151      11162      11161  
     11030      11031      11042      11041      11151      11152      11163      11162  
     11031      11032      11043      11042      11152      11153      11164      11163  
     11032      11033      11044      11043      11153      11154      11165      11164  
     11034      11035      11046      11045      11155      11156      11167      11166  
     11035      11036      11047      11046      11156      11157      11168      11167  
     11036      11037      11048      11047      11157      11158      11169      11168  
     11037      11038      11049      11048      11158      11159      11170      11169  
     11038      11039      11050      11049      11159      11160      11171      11170  
     11039      11040      11051      11050      11160      11161      11172      11171  
     11040      11041      11052      11051      11161      11162      11173      11172  
     11041      11042      11053      11052      11162      11163      11174      11173  
     11042      11043      11054      11053      11163      11164      11175      11174  
     11043      11044      11055      11054      11164      11165      11176      11175  
     11045      11046      11057      11056      11166      11167      11178      11177  
     11046      11047      11058      11057      11167      11168      11179      11178  
     11047      11048      11059      11058      11168      11169      11180      11179  
     11048      11049      11060      11059      11169      11170      11181      11180  
     11049      11050      11061      11060      11170      11171      11182      11181  
     11050      11051      11062      11061      11171      11172      11183      11182  
     11051      11052      11063      11062      11172      11173      11184      11183  
     11052      11053      11064      11063      11173      11174      11185      11184  
     11053      11054      11065      11064      11174      11175      11186      11185  
     11054      11055      11066      11065      11175      11176      11187      11186  
     11056      11057      11068      11067      11177      11178      11189      11188  
     11057      11058      11069      11068      11178      11179      11190      11189  
     11058      11059      11070      11069      11179      11180      11191      11190  
     11059      11060      11071      11070      11180      11181      11192      11191  
     11060      11061      11072      11071      11181      11182      11193      11192  
     11061      11062      11073      11072      11182      11183      11194      11193  
     11062      11063      11074      11073      11183      11184      11195      11194  
     11063      11064      11075      11074      11184      11185      11196      11195  
     11064      11065      11076      11075      11185      11186      11197      11196  
     11065      11066      11077      11076      11186      11187      11198      11197  
     11067      11068      11079      11078      11188      11189      11200      11199  
     11068      11069      11080      11079      11189      11190      11201      11200  
     11069      11070      11081      11080      11190      11191      11202      11201  
     11070      11071      11082      11081      11191      11192      11203      11202  
     11071      11072      11083      11082      11192      11193      11204      11203  
     11072      11073      11084      11083      11193      11194      11205      11204  
     11073      11074      11085      11084      11194      11195      11206      11205  
     11074      11075      11086      11085      11195      11196      11207      11206  
     11075      11076      11087      11086      11196      11197      11208      11207  
     11076      11077      11088      11087      11197      11198      11209      11208  
     11078      11079      11090      11089      11199      11200      11211      11210  
     11079      11080      11091      11090      11200      11201      11212      11211  
     11080      11081      11092      11091      11201      11202      11213      11212  
     11081      11082      11093      11092      11202      11203      11214      11213  
     11082      11083      11094      11093      11203      11204      11215      11214  
     11083      11084      11095      11094      11204      11205      11216      11215  
     11084      11085      11096      11095      11205      11206      11217      11216  
     11085      11086      11097      11096      11206      11207      11218      11217  
     11086      11087      11098      11097      11207      11208      11219      11218  
     11087      11088      11099      11098      11208      11209      11220      11219  
     11089      11090      11101      11100      11210      11211      11222      11221  
     11090      11091      11102      11101      11211      11212      11223      11222  
     11091      11092      11103      11102      11212      11213      11224      11223  
     11092      11093      11104      11103      11213      11214      11225      11224  
     11093      11094      11105      11104      11214      11215      11226      11225  
     11094      11095      11106      11105      11215      11216      11227      11226  
     11095      11096      11107      11106      11216      11217      11228      11227  
     11096      11097      11108      11107      11217      11218      11229      11228  
     11097      11098      11109      11108      11218      11219      11230      11229  
     11098      11099      11110      11109      11219      11220      11231      11230  
     11100      11101      11112      11111      11221      11222      11233      11232  
     11101      11102      11113      11112      11222      11223      11234      11233  
     11102      11103      11114      11113      11223      11224      11235      11234  
     11103      11104      11115      11114      11224      11225      11236      11235  
     11104      11105      11116      11115      11225      11226      11237      11236  
     11105      11106      11117      11116      11226      11227      11238      11237  
     11106      11107      11118      11117      11227      11228      11239      11238  
     11107      11108      11119      11118      11228      11229      11240      11239  
     11108      11109      11120      11119      11229      11230      11241      11240  
     11109      11110      11121      11120      11230      11231      11242      11241  
     11111      11112      11123      11122      11232      11233      11244      11243  
     11112      11113      11124      11123      11233      11234      11245      11244  
     11113      11114      11125      11124      11234      11235      11246      11245  
     11114      11115      11126      11125      11235      11236      11247      11246  
     11115      11116      11127      11126      11236      11237      11248      11247  
     11116      11117      11128      11127      11237      11238      11249      11248  
     11117      11118      11129      11128      11238      11239      11250      11249  
     11118      11119      11130      11129      11239      11240      11251      11250  
     11119      11120      11131      11130      11240      11241      11252      11251  
     11120      11121      11132      11131      11241      11242      11253      11252  
     11133      11134      11145      11144      11254      11255      11266      11265  
     11134      11135      11146      11145      11255      11256      11267      11266  
     11135      11136      11147      11146      11256      11257      11268      11267  
     11136      11137      11148      11147      11257      11258      11269      11268  
     11137      11138      11149      11148      11258      11259      11270      11269  
     11138      11139      11150      11149      11259      11260      11271      11270  
     11139      11140      11151      11150      11260      11261      11272      11271  
     11140      11141      11152      11151      11261      11262      11273      11272  
     11141      11142      11153      11152      11262      11263      11274      11273  
     11142      11143      11154      11153      11263      11264      11275      11274  
     11144      11145      11156      11155      11265      11266      11277      11276  
     11145      11146      11157      11156      11266      11267      11278      11277  
     11146      11147      11158      11157      11267      11268      11279      11278  
     11147      11148      11159      11158      11268      11269      11280      11279  
     11148      11149      11160      11159      11269      11270      11281      11280  
     11149      11150      11161      11160      11270      11271      11282      11281  
     11150      11151      11162      11161      11271      11272      11283      11282  
     11151      11152      11163      11162      11272      11273      11284      11283  
     11152      11153      11164      11163      11273      11274      11285      11284  
     11153      11154      11165      11164      11274      11275      11286      11285  
     11155      11156      11167      11166      11276      11277      11288      11287  
     11156      11157      11168      11167      11277      11278      11289      11288  
     11157      11158      11169      11168      11278      11279      11290      11289  
     11158      11159      11170      11169      11279      11280      11291      11290  
     11159      11160      11171      11170      11280      11281      11292      11291  
     11160      11161      11172      11171      11281      11282      11293      11292  
     11161      11162      11173      11172      11282      11283      11294      11293  
     11162      11163      11174      11173      11283      11284      11295      11294  
     11163      11164      11175      11174      11284      11285      11296      11295  
     11164      11165      11176      11175      11285      11286      11297      11296  
     11166      11167      11178      11177      11287      11288      11299      11298  
     11167      11168      11179      11178      11288      11289      11300      11299  
     11168      11169      11180      11179      11289      11290      11301      11300  
     11169      11170      11181      11180      11290      11291      11302      11301  
     11170      11171      11182      11181      11291      11292      11303      11302  
     11171      11172      11183      11182      11292      11293      11304      11303  
     11172      11173      11184      11183      11293      11294      11305      11304  
     11173      11174      11185      11184      11294      11295      11306      11305  
     11174      11175      11186      11185      11295      11296      11307      11306  
     11175      11176      11187      11186      11296      11297      11308      11307  
     11177      11178      11189      11188      11298      11299      11310      11309  
     11178      11179      11190      11189      11299      11300      11311      11310  
     11179      11180      11191      11190      11300      11301      11312      11311  
     11180      11181      11192      11191      11301      11302      11313      11312  
     11181      11182      11193      11192      11302      11303      11314      11313  
     11182      11183      11194      11193      11303      11304      11315      11314  
     11183      11184      11195      11194      11304      11305      11316      11315  
     11184      11185      11196      11195      11305      11306      11317      11316  
     11185      11186      11197      11196      11306      11307      11318      11317  
     11186      11187      11198      11197      11307      11308      11319      11318  
     11188      11189      11200      11199      11309      11310      11321      11320  
     11189      11190      11201      11200      11310      11311      11322      11321  
     11190      11191      11202      11201      11311      11312      11323      11322  
     11191      11192      11203      11202      11312      11313      11324      11323  
     11192      11193      11204      11203      11313      11314      11325      11324  
     11193      11194      11205      11204      11314      11315      11326      11325  
     11194      11195      11206      11205      11315      11316      11327      11326  
     11195      11196      11207      11206      11316      11317      11328      11327  
     11196      11197      11208      11207      11317      11318      11329      11328  
     11197      11198      11209      11208      11318      11319      11330      11329  
     11199      11200      11211      11210      11320      11321      11332      11331  
     11200      11201      11212      11211      11321      11322      11333      11332  
     11201      11202      11213      11212      11322      11323      11334      11333  
     11202      11203      11214      11213      11323      11324      11335      11334  
     11203      11204      11215      11214      11324      11325      11336      11335  
     11204      11205      11216      11215      11325      11326      11337      11336  
     11205      11206      11217      11216      11326      11327      11338      11337  
     11206      11207      11218      11217      11327      11328      11339      11338  
     11207      11208      11219      11218      11328      11329      11340      11339  
     11208      11209      11220      11219      11329      11330      11341      11340  
     11210      11211      11222      11221      11331      11332      11343      11342  
     11211      11212      11223      11222      11332      11333      11344      11343  
     11212      11213      11224      11223      11333      11334      11345      11344  
     11213      11214      11225      11224      11334      11335      11346      11345  
     11214      11215      11226      11225      11335      11336      11347      11346  
     11215      11216      11227      11226      11336      11337      11348      11347  
     11216      11217      11228      11227      11337      11338      11349      11348  
     11217      11218      11229      11228      11338      11339      11350      11349  
     11218      11219      11230      11229      11339      11340      11351      11350  
     11219      11220      11231      11230      11340      11341      11352      11351  
     11221      11222      11233      11232      11342      11343      11354      11353  
     11222      11223      11234      11233      11343      11344      11355      11354  
     11223      11224      11235      11234      11344      11345      11356      11355  
     11224      11225      11236      11235      11345      11346      11357      11356  
     11225      11226      11237      11236      11346      11347      11358      11357  
     11226      11227      11238      11237      11347      11348      11359      11358  
     11227      11228      11239      11238      11348      11349      11360      11359  
     11228      11229      11240      11239      11349      11350      11361      11360  
     11229      11230      11241      11240      11350      11351      11362      11361  
     11230      11231      11242      11241      11351      11352      11363      11362  
     11232      11233      11244      11243      11353      11354      11365      11364  
     11233      11234      11245      11244      11354      11355      11366      11365  
     11234      11235      11246      11245      11355      11356      11367      11366  
     11235      11236      11247      11246      11356      11357      11368      11367  
     11236      11237      11248      11247      11357      11358      11369      11368  
     11237      11238      11249      11248      11358      11359      11370      11369  
     11238      11239      11250      11249      11359      11360      11371      11370  
     11239      11240      11251      11250      11360      11361      11372      11371  
     11240      11241      11252      11251      11361      11362      11373      11372  
     11241      11242      11253      11252      11362      11363      11374      11373  
     11254      11255      11266      11265      11375      11376      11387      11386  
     11255      11256      11267      11266      11376      11377      11388      11387  
     11256      11257      11268      11267      11377      11378      11389      11388  
     11257      11258      11269      11268      11378      11379      11390      11389  
     11258      11259      11270      11269      11379      11380      11391      11390  
     11259      11260      11271      11270      11380      11381      11392      11391  
     11260      11261      11272      11271      11381      11382      11393      11392  
     11261      11262      11273      11272      11382      11383      11394      11393  
     11262      11263      11274      11273      11383      11384      11395      11394  
     11263      11264      11275      11274      11384      11385      11396      11395  
     11265      11266      11277      11276      11386      11387      11398      11397  
     11266      11267      11278      11277      11387      11388      11399      11398  
     11267      11268      11279      11278      11388      11389      11400      11399  
     11268      11269      11280      11279      11389      11390      11401      11400  
     11269      11270      11281      11280      11390      11391      11402      11401  
     11270      11271      11282      11281      11391      11392      11403      11402  
     11271      11272      11283      11282      11392      11393      11404      11403  
     11272      11273      11284      11283      11393      11394      11405      11404  
     11273      11274      11285      11284      11394      11395      11406      11405  
     11274      11275      11286      11285      11395      11396      11407      11406  
     11276      11277      11288      11287      11397      11398      11409      11408  
     11277      11278      11289      11288      11398      11399      11410      11409  
     11278      11279      11290      11289      11399      11400      11411      11410  
     11279      11280      11291      11290      11400      11401      11412      11411  
     11280      11281      11292      11291      11401      11402      11413      11412  
     11281      11282      11293      11292      11402      11403      11414      11413  
     11282      11283      11294      11293      11403      11404      11415      11414  
     11283      11284      11295      11294      11404      11405      11416      11415  
     11284      11285      11296      11295      11405      11406      11417      11416  
     11285      11286      11297      11296      11406      11407      11418      11417  
     11287      11288      11299      11298      11408      11409      11420      11419  
     11288      11289      11300      11299      11409      11410      11421      11420  
     11289      11290      11301      11300      11410      11411      11422      11421  
     11290      11291      11302      11301      11411      11412      11423      11422  
     11291      11292      11303      11302      11412      11413      11424      11423  
     11292      11293      11304      11303      11413      11414      11425      11424  
     11293      11294      11305      11304      11414      11415      11426      11425  
     11294      11295      11306      11305      11415      11416      11427      11426  
     11295      11296      11307      11306      11416      11417      11428      11427  
     11296      11297      11308      11307      11417      11418      11429      11428  
     11298      11299      11310      11309      11419      11420      11431      11430  
     11299      11300      11311      11310      11420      11421      11432      11431  
     11300      11301      11312      11311      11421      11422      11433      11432  
     11301      11302      11313      11312      11422      11423      11434      11433  
     11302      11303      11314      11313      11423      11424      11435      11434  
     11303      11304      11315      11314      11424      11425      11436      11435  
     11304      11305      11316      11315      11425      11426      11437      11436  
     11305      11306      11317      11316      11426      11427      11438      11437  
     11306      11307      11318      11317      11427      11428      11439      11438  
     11307      11308      11319      11318      11428      11429      11440      11439  
     11309      11310      11321      11320      11430      11431      11442      11441  
     11310      11311      11322      11321      11431      11432      11443      11442  
     11311      11312      11323      11322      11432      11433      11444      11443  
     11312      11313      11324      11323      11433      11434      11445      11444  
     11313      11314      11325      11324      11434      11435      11446      11445  
     11314      11315      11326      11325      11435      11436      11447      11446  
     11315      11316      11327      11326      11436      11437      11448      11447  
     11316      11317      11328      11327      11437      11438      11449      11448  
     11317      11318      11329      11328      11438      11439      11450      11449  
     11318      11319      11330      11329      11439      11440      11451      11450  
     11320      11321      11332      11331      11441      11442      11453      11452  
     11321      11322      11333      11332      11442      11443      11454      11453  
     11322      11323      11334      11333      11443      11444      11455      11454  
     11323      11324      11335      11334      11444      11445      11456      11455  
     11324      11325      11336      11335      11445      11446      11457      11456  
     11325      11326      11337      11336      11446      11447      11458      11457  
     11326      11327      11338      11337      11447      11448      11459      11458  
     11327      11328      11339      11338      11448      11449      11460      11459  
     11328      11329      11340      11339      11449      11450      11461      11460  
     11329      11330      11341      11340      11450      11451      11462      11461  
     11331      11332      11343      11342      11452      11453      11464      11463  
     11332      11333      11344      11343      11453      11454      11465      11464  
     11333      11334      11345      11344      11454      11455      11466      11465  
     11334      11335      11346      11345      11455      11456      11467      11466  
     11335      11336      11347      11346      11456      11457      11468      11467  
     11336      11337      11348      11347      11457      11458      11469      11468  
     11337      11338      11349      11348      11458      11459      11470      11469  
     11338      11339      11350      11349      11459      11460      11471      11470  
     11339      11340      11351      11350      11460      11461      11472      11471  
     11340      11341      11352      11351      11461      11462      11473      11472  
     11342      11343      11354      11353      11463      11464      11475      11474  
     11343      11344      11355      11354      11464      11465      11476      11475  
     11344      11345      11356      11355      11465      11466      11477      11476  
     11345      11346      11357      11356      11466      11467      11478      11477  
     11346      11347      11358      11357      11467      11468      11479      11478  
     11347      11348      11359      11358      11468      11469      11480      11479  
     11348      11349      11360      11359      11469      11470      11481      11480  
     11349      11350      11361      11360      11470      11471      11482      11481  
     11350      11351      11362      11361      11471      11472      11483      11482  
     11351      11352      11363      11362      11472      11473      11484      11483  
     11353      11354      11365      11364      11474      11475      11486      11485  
     11354      11355      11366      11365      11475      11476      11487      11486  
     11355      11356      11367      11366      11476      11477      11488      11487  
     11356      11357      11368      11367      11477      11478      11489      11488  
     11357      11358      11369      11368      11478      11479      11490      11489  
     11358      11359      11370      11369      11479      11480      11491      11490  
     11359      11360      11371      11370      11480      11481      11492      11491  
     11360      11361      11372      11371      11481      11482      11493      11492  
     11361      11362      11373      11372      11482      11483      11494      11493  
     11362      11363      11374      11373      11483      11484      11495      11494  
     11375      11376      11387      11386      11496      11497      11508      11507  
     11376      11377      11388      11387      11497      11498      11509      11508  
     11377      11378      11389      11388      11498      11499      11510      11509  
     11378      11379      11390      11389      11499      11500      11511      11510  
     11379      11380      11391      11390      11500      11501      11512      11511  
     11380      11381      11392      11391      11501      11502      11513      11512  
     11381      11382      11393      11392      11502      11503      11514      11513  
     11382      11383      11394      11393      11503      11504      11515      11514  
     11383      11384      11395      11394      11504      11505      11516      11515  
     11384      11385      11396      11395      11505      11506      11517      11516  
     11386      11387      11398      11397      11507      11508      11519      11518  
     11387      11388      11399      11398      11508      11509      11520      11519  
     11388      11389      11400      11399      11509      11510      11521      11520  
     11389      11390      11401      11400      11510      11511      11522      11521  
     11390      11391      11402      11401      11511      11512      11523      11522  
     11391      11392      11403      11402      11512      11513      11524      11523  
     11392      11393      11404      11403      11513      11514      11525      11524  
     11393      11394      11405      11404      11514      11515      11526      11525  
     11394      11395      11406      11405      11515      11516      11527      11526  
     11395      11396      11407      11406      11516      11517      11528      11527  
     11397      11398      11409      11408      11518      11519      11530      11529  
     11398      11399      11410      11409      11519      11520      11531      11530  
     11399      11400      11411      11410      11520      11521      11532      11531  
     11400      11401      11412      11411      11521      11522      11533      11532  
     11401      11402      11413      11412      11522      11523      11534      11533  
     11402      11403      11414      11413      11523      11524      11535      11534  
     11403      11404      11415      11414      11524      11525      11536      11535  
     11404      11405      11416      11415      11525      11526      11537      11536  
     11405      11406      11417      11416      11526      11527      11538      11537  
     11406      11407      11418      11417      11527      11528      11539      11538  
     11408      11409      11420      11419      11529      11530      11541      11540  
     11409      11410      11421      11420      11530      11531      11542      11541  
     11410      11411      11422      11421      11531      11532      11543      11542  
     11411      11412      11423      11422      11532      11533      11544      11543  
     11412      11413      11424      11423      11533      11534      11545      11544  
     11413      11414      11425      11424      11534      11535      11546      11545  
     11414      11415      11426      11425      11535      11536      11547      11546  
     11415      11416      11427      11426      11536      11537      11548      11547  
     11416      11417      11428      11427      11537      11538      11549      11548  
     11417      11418      11429      11428      11538      11539      11550      11549  
     11419      11420      11431      11430      11540      11541      11552      11551  
     11420      11421      11432      11431      11541      11542      11553      11552  
     11421      11422      11433      11432      11542      11543      11554      11553  
     11422      11423      11434      11433      11543      11544      11555      11554  
     11423      11424      11435      11434      11544      11545      11556      11555  
     11424      11425      11436      11435      11545      11546      11557      11556  
     11425      11426      11437      11436      11546      11547      11558      11557  
     11426      11427      11438      11437      11547      11548      11559      11558  
     11427      11428      11439      11438      11548      11549      11560      11559  
     11428      11429      11440      11439      11549      11550      11561      11560  
     11430      11431      11442      11441      11551      11552      11563      11562  
     11431      11432      11443      11442      11552      11553      11564      11563  
     11432      11433      11444      11443      11553      11554      11565      11564  
     11433      11434      11445      11444      11554      11555      11566      11565  
     11434      11435      11446      11445      11555      11556      11567      11566  
     11435      11436      11447      11446      11556      11557      11568      11567  
     11436      11437      11448      11447      11557      11558      11569      11568  
     11437      11438      11449      11448      11558      11559      11570      11569  
     11438      11439      11450      11449      11559      11560      11571      11570  
     11439      11440      11451      11450      11560      11561      11572      11571  
     11441      11442      11453      11452      11562      11563      11574      11573  
     11442      11443      11454      11453      11563      11564      11575      11574  
     11443      11444      11455      11454      11564      11565      11576      11575  
     11444      11445      11456      11455      11565      11566      11577      11576  
     11445      11446      11457      11456      11566      11567      11578      11577  
     11446      11447      11458      11457      11567      11568      11579      11578  
     11447      11448      11459      11458      11568      11569      11580      11579  
     11448      11449      11460      11459      11569      11570      11581      11580  
     11449      11450      11461      11460      11570      11571      11582      11581  
     11450      11451      11462      11461      11571      11572      11583      11582  
     11452      11453      11464      11463      11573      11574      11585      11584  
     11453      11454      11465      11464      11574      11575      11586      11585  
     11454      11455      11466      11465      11575      11576      11587      11586  
     11455      11456      11467      11466      11576      11577      11588      11587  
     11456      11457      11468      11467      11577      11578      11589      11588  
     11457      11458      11469      11468      11578      11579      11590      11589  
     11458      11459      11470      11469      11579      11580      11591      11590  
     11459      11460      11471      11470      11580      11581      11592      11591  
     11460      11461      11472      11471      11581      11582      11593      11592  
     11461      11462      11473      11472      11582      11583      11594      11593  
     11463      11464      11475      11474      11584      11585      11596      11595  
     11464      11465      11476      11475      11585      11586      11597      11596  
     11465      11466      11477      11476      11586      11587      11598      11597  
     11466      11467      11478      11477      11587      11588      11599      11598  
     11467      11468      11479      11478      11588      11589      11600      11599  
     11468      11469      11480      11479      11589      11590      11601      11600  
     11469      11470      11481      11480      11590      11591      11602      11601  
     11470      11471      11482      11481      11591      11592      11603      11602  
     11471      11472      11483      11482      11592      11593      11604      11603  
     11472      11473      11484      11483      11593      11594      11605      11604  
     11474      11475      11486      11485      11595      11596      11607      11606  
     11475      11476      11487      11486      11596      11597      11608      11607  
     11476      11477      11488      11487      11597      11598      11609      11608  
     11477      11478      11489      11488      11598      11599      11610      11609  
     11478      11479      11490      11489      11599      11600      11611      11610  
     11479      11480      11491      11490      11600      11601      11612      11611  
     11480      11481      11492      11491      11601      11602      11613      11612  
     11481      11482      11493      11492      11602      11603      11614      11613  
     11482      11483      11494      11493      11603      11604      11615      11614  
     11483      11484      11495      11494      11604      11605      11616      11615  
     11496      11497      11508      11507      11617      11618      11629      11628  
     11497      11498      11509      11508      11618      11619      11630      11629  
     11498      11499      11510      11509      11619      11620      11631      11630  
     11499      11500      11511      11510      11620      11621      11632      11631  
     11500      11501      11512      11511      11621      11622      11633      11632  
     11501      11502      11513      11512      11622      11623      11634      11633  
     11502      11503      11514      11513      11623      11624      11635      11634  
     11503      11504      11515      11514      11624      11625      11636      11635  
     11504      11505      11516      11515      11625      11626      11637      11636  
     11505      11506      11517      11516      11626      11627      11638      11637  
     11507      11508      11519      11518      11628      11629      11640      11639  
     11508      11509      11520      11519      11629      11630      11641      11640  
     11509      11510      11521      11520      11630      11631      11642      11641  
     11510      11511      11522      11521      11631      11632      11643      11642  
     11511      11512      11523      11522      11632      11633      11644      11643  
     11512      11513      11524      11523      11633      11634      11645      11644  
     11513      11514      11525      11524      11634      11635      11646      11645  
     11514      11515      11526      11525      11635      11636      11647      11646  
     11515      11516      11527      11526      11636      11637      11648      11647  
     11516      11517      11528      11527      11637      11638      11649      11648  
     11518      11519      11530      11529      11639      11640      11651      11650  
     11519      11520      11531      11530      11640      11641      11652      11651  
     11520      11521      11532      11531      11641      11642      11653      11652  
     11521      11522      11533      11532      11642      11643      11654      11653  
     11522      11523      11534      11533      11643      11644      11655      11654  
     11523      11524      11535      11534      11644      11645      11656      11655  
     11524      11525      11536      11535      11645      11646      11657      11656  
     11525      11526      11537      11536      11646      11647      11658      11657  
     11526      11527      11538      11537      11647      11648      11659      11658  
     11527      11528      11539      11538      11648      11649      11660      11659  
     11529      11530      11541      11540      11650      11651      11662      11661  
     11530      11531      11542      11541      11651      11652      11663      11662  
     11531      11532      11543      11542      11652      11653      11664      11663  
     11532      11533      11544      11543      11653      11654      11665      11664  
     11533      11534      11545      11544      11654      11655      11666      11665  
     11534      11535      11546      11545      11655      11656      11667      11666  
     11535      11536      11547      11546      11656      11657      11668      11667  
     11536      11537      11548      11547      11657      11658      11669      11668  
     11537      11538      11549      11548      11658      11659      11670      11669  
     11538      11539      11550      11549      11659      11660      11671      11670  
     11540      11541      11552      11551      11661      11662      11673      11672  
     11541      11542      11553      11552      11662      11663      11674      11673  
     11542      11543      11554      11553      11663      11664      11675      11674  
     11543      11544      11555      11554      11664      11665      11676      11675  
     11544      11545      11556      11555      11665      11666      11677      11676  
     11545      11546      11557      11556      11666      11667      11678      11677  
     11546      11547      11558      11557      11667      11668      11679      11678  
     11547      11548      11559      11558      11668      11669      11680      11679  
     11548      11549      11560      11559      11669      11670      11681      11680  
     11549      11550      11561      11560      11670      11671      11682      11681  
     11551      11552      11563      11562      11672      11673      11684      11683  
     11552      11553      11564      11563      11673      11674      11685      11684  
     11553      11554      11565      11564      11674      11675      11686      11685  
     11554      11555      11566      11565      11675      11676      11687      11686  
     11555      11556      11567      11566      11676      11677      11688      11687  
     11556      11557      11568      11567      11677      11678      11689      11688  
     11557      11558      11569      11568      11678      11679      11690      11689  
     11558      11559      11570      11569      11679      11680      11691      11690  
     11559      11560      11571      11570      11680      11681      11692      11691  
     11560      11561      11572      11571      11681      11682      11693      11692  
     11562      11563      11574      11573      11683      11684      11695      11694  
     11563      11564      11575      11574      11684      11685      11696      11695  
     11564      11565      11576      11575      11685      11686      11697      11696  
     11565      11566      11577      11576      11686      11687      11698      11697  
     11566      11567      11578      11577      11687      11688      11699      11698  
     11567      11568      11579      11578      11688      11689      11700      11699  
     11568      11569      11580      11579      11689      11690      11701      11700  
     11569      11570      11581      11580      11690      11691      11702      11701  
     11570      11571      11582      11581      11691      11692      11703      11702  
     11571      11572      11583      11582      11692      11693      11704      11703  
     11573      11574      11585      11584      11694      11695      11706      11705  
     11574      11575      11586      11585      11695      11696      11707      11706  
     11575      11576      11587      11586      11696      11697      11708      11707  
     11576      11577      11588      11587      11697      11698      11709      11708  
     11577      11578      11589      11588      11698      11699      11710      11709  
     11578      11579      11590      11589      11699      11700      11711      11710  
     11579      11580      11591      11590      11700      11701      11712      11711  
     11580      11581      11592      11591      11701      11702      11713      11712  
     11581      11582      11593      11592      11702      11703      11714      11713  
     11582      11583      11594      11593      11703      11704      11715      11714  
     11584      11585      11596      11595      11705      11706      11717      11716  
     11585      11586      11597      11596      11706      11707      11718      11717  
     11586      11587      11598      11597      11707      11708      11719      11718  
     11587      11588      11599      11598      11708      11709      11720      11719  
     11588      11589      11600      11599      11709      11710      11721      11720  
     11589      11590      11601      11600      11710      11711      11722      11721  
     11590      11591      11602      11601      11711      11712      11723      11722  
     11591      11592      11603      11602      11712      11713      11724      11723  
     11592      11593      11604      11603      11713      11714      11725      11724  
     11593      11594      11605      11604      11714      11715      11726      11725  
     11595      11596      11607      11606      11716      11717      11728      11727  
     11596      11597      11608      11607      11717      11718      11729      11728  
     11597      11598      11609      11608      11718      11719      11730      11729  
     11598      11599      11610      11609      11719      11720      11731      11730  
     11599      11600      11611      11610      11720      11721      11732      11731  
     11600      11601      11612      11611      11721      11722      11733      11732  
     11601      11602      11613      11612      11722      11723      11734      11733  
     11602      11603      11614      11613      11723      11724      11735      11734  
     11603      11604      11615      11614      11724      11725      11736      11735  
     11604      11605      11616      11615      11725      11726      11737      11736  
     11617      11618      11629      11628      11738      11739      11750      11749  
     11618      11619      11630      11629      11739      11740      11751      11750  
     11619      11620      11631      11630      11740      11741      11752      11751  
     11620      11621      11632      11631      11741      11742      11753      11752  
     11621      11622      11633      11632      11742      11743      11754      11753  
     11622      11623      11634      11633      11743      11744      11755      11754  
     11623      11624      11635      11634      11744      11745      11756      11755  
     11624      11625      11636      11635      11745      11746      11757      11756  
     11625      11626      11637      11636      11746      11747      11758      11757  
     11626      11627      11638      11637      11747      11748      11759      11758  
     11628      11629      11640      11639      11749      11750      11761      11760  
     11629      11630      11641      11640      11750      11751      11762      11761  
     11630      11631      11642      11641      11751      11752      11763      11762  
     11631      11632      11643      11642      11752      11753      11764      11763  
     11632      11633      11644      11643      11753      11754      11765      11764  
     11633      11634      11645      11644      11754      11755      11766      11765  
     11634      11635      11646      11645      11755      11756      11767      11766  
     11635      11636      11647      11646      11756      11757      11768      11767  
     11636      11637      11648      11647      11757      11758      11769      11768  
     11637      11638      11649      11648      11758      11759      11770      11769  
     11639      11640      11651      11650      11760      11761      11772      11771  
     11640      11641      11652      11651      11761      11762      11773      11772  
     11641      11642      11653      11652      11762      11763      11774      11773  
     11642      11643      11654      11653      11763      11764      11775      11774  
     11643      11644      11655      11654      11764      11765      11776      11775  
     11644      11645      11656      11655      11765      11766      11777      11776  
     11645      11646      11657      11656      11766      11767      11778      11777  
     11646      11647      11658      11657      11767      11768      11779      11778  
     11647      11648      11659      11658      11768      11769      11780      11779  
     11648      11649      11660      11659      11769      11770      11781      11780  
     11650      11651      11662      11661      11771      11772      11783      11782  
     11651      11652      11663      11662      11772      11773      11784      11783  
     11652      11653      11664      11663      11773      11774      11785      11784  
     11653      11654      11665      11664      11774      11775      11786      11785  
     11654      11655      11666      11665      11775      11776      11787      11786  
     11655      11656      11667      11666      11776      11777      11788      11787  
     11656      11657      11668      11667      11777      11778      11789      11788  
     11657      11658      11669      11668      11778      11779      11790      11789  
     11658      11659      11670      11669      11779      11780      11791      11790  
     11659      11660      11671      11670      11780      11781      11792      11791  
     11661      11662      11673      11672      11782      11783      11794      11793  
     11662      11663      11674      11673      11783      11784      11795      11794  
     11663      11664      11675      11674      11784      11785      11796      11795  
     11664      11665      11676      11675      11785      11786      11797      11796  
     11665      11666      11677      11676      11786      11787      11798      11797  
     11666      11667      11678      11677      11787      11788      11799      11798  
     11667      11668      11679      11678      11788      11789      11800      11799  
     11668      11669      11680      11679      11789      11790      11801      11800  
     11669      11670      11681      11680      11790      11791      11802      11801  
     11670      11671      11682      11681      11791      11792      11803      11802  
     11672      11673      11684      11683      11793      11794      11805      11804  
     11673      11674      11685      11684      11794      11795      11806      11805  
     11674      11675      11686      11685      11795      11796      11807      11806  
     11675      11676      11687      11686      11796      11797      11808      11807  
     11676      11677      11688      11687      11797      11798      11809      11808  
     11677      11678      11689      11688      11798      11799      11810      11809  
     11678      11679      11690      11689      11799      11800      11811      11810  
     11679      11680      11691      11690      11800      11801      11812      11811  
     11680      11681      11692      11691      11801      11802      11813      11812  
     11681      11682      11693      11692      11802      11803      11814      11813  
     11683      11684      11695      11694      11804      11805      11816      11815  
     11684      11685      11696      11695      11805      11806      11817      11816  
     11685      11686      11697      11696      11806      11807      11818      11817  
     11686      11687      11698      11697      11807      11808      11819      11818  
     11687      11688      11699      11698      11808      11809      11820      11819  
     11688      11689      11700      11699      11809      11810      11821      11820  
     11689      11690      11701      11700      11810      11811      11822      11821  
     11690      11691      11702      11701      11811      11812      11823      11822  
     11691      11692      11703      11702      11812      11813      11824      11823  
     11692      11693      11704      11703      11813      11814      11825      11824  
     11694      11695      11706      11705      11815      11816      11827      11826  
     11695      11696      11707      11706      11816      11817      11828      11827  
     11696      11697      11708      11707      11817      11818      11829      11828  
     11697      11698      11709      11708      11818      11819      11830      11829  
     11698      11699      11710      11709      11819      11820      11831      11830  
     11699      11700      11711      11710      11820      11821      11832      11831  
     11700      11701      11712      11711      11821      11822      11833      11832  
     11701      11702      11713      11712      11822      11823      11834      11833  
     11702      11703      11714      11713      11823      11824      11835      11834  
     11703      11704      11715      11714      11824      11825      11836      11835  
     11705      11706      11717      11716      11826      11827      11838      11837  
     11706      11707      11718      11717      11827      11828      11839      11838  
     11707      11708      11719      11718      11828      11829      11840      11839  
     11708      11709      11720      11719      11829      11830      11841      11840  
     11709      11710      11721      11720      11830      11831      11842      11841  
     11710      11711      11722      11721      11831      11832      11843      11842  
     11711      11712      11723      11722      11832      11833      11844      11843  
     11712      11713      11724      11723      11833      11834      11845      11844  
     11713      11714      11725      11724      11834      11835      11846      11845  
     11714      11715      11726      11725      11835      11836      11847      11846  
     11716      11717      11728      11727      11837      11838      11849      11848  
     11717      11718      11729      11728      11838      11839      11850      11849  
     11718      11719      11730      11729      11839      11840      11851      11850  
     11719      11720      11731      11730      11840      11841      11852      11851  
     11720      11721      11732      11731      11841      11842      11853      11852  
     11721      11722      11733      11732      11842      11843      11854      11853  
     11722      11723      11734      11733      11843      11844      11855      11854  
     11723      11724      11735      11734      11844      11845      11856      11855  
     11724      11725      11736      11735      11845      11846      11857      11856  
     11725      11726      11737      11736      11846      11847      11858      11857  
     11738      11739      11750      11749      11859      11860      11871      11870  
     11739      11740      11751      11750      11860      11861      11872      11871  
     11740      11741      11752      11751      11861      11862      11873      11872  
     11741      11742      11753      11752      11862      11863      11874      11873  
     11742      11743      11754      11753      11863      11864      11875      11874  
     11743      11744      11755      11754      11864      11865      11876      11875  
     11744      11745      11756      11755      11865      11866      11877      11876  
     11745      11746      11757      11756      11866      11867      11878      11877  
     11746      11747      11758      11757      11867      11868      11879      11878  
     11747      11748      11759      11758      11868      11869      11880      11879  
     11749      11750      11761      11760      11870      11871      11882      11881  
     11750      11751      11762      11761      11871      11872      11883      11882  
     11751      11752      11763      11762      11872      11873      11884      11883  
     11752      11753      11764      11763      11873      11874      11885      11884  
     11753      11754      11765      11764      11874      11875      11886      11885  
     11754      11755      11766      11765      11875      11876      11887      11886  
     11755      11756      11767      11766      11876      11877      11888      11887  
     11756      11757      11768      11767      11877      11878      11889      11888  
     11757      11758      11769      11768      11878      11879      11890      11889  
     11758      11759      11770      11769      11879      11880      11891      11890  
     11760      11761      11772      11771      11881      11882      11893      11892  
     11761      11762      11773      11772      11882      11883      11894      11893  
     11762      11763      11774      11773      11883      11884      11895      11894  
     11763      11764      11775      11774      11884      11885      11896      11895  
     11764      11765      11776      11775      11885      11886      11897      11896  
     11765      11766      11777      11776      11886      11887      11898      11897  
     11766      11767      11778      11777      11887      11888      11899      11898  
     11767      11768      11779      11778      11888      11889      11900      11899  
     11768      11769      11780      11779      11889      11890      11901      11900  
     11769      11770      11781      11780      11890      11891      11902      11901  
     11771      11772      11783      11782      11892      11893      11904      11903  
     11772      11773      11784      11783      11893      11894      11905      11904  
     11773      11774      11785      11784      11894      11895      11906      11905  
     11774      11775      11786      11785      11895      11896      11907      11906  
     11775      11776      11787      11786      11896      11897      11908      11907  
     11776      11777      11788      11787      11897      11898      11909      11908  
     11777      11778      11789      11788      11898      11899      11910      11909  
     11778      11779      11790      11789      11899      11900      11911      11910  
     11779      11780      11791      11790      11900      11901      11912      11911  
     11780      11781      11792      11791      11901      11902      11913      11912  
     11782      11783      11794      11793      11903      11904      11915      11914  
     11783      11784      11795      11794      11904      11905      11916      11915  
     11784      11785      11796      11795      11905      11906      11917      11916  
     11785      11786      11797      11796      11906      11907      11918      11917  
     11786      11787      11798      11797      11907      11908      11919      11918  
     11787      11788      11799      11798      11908      11909      11920      11919  
     11788      11789      11800      11799      11909      11910      11921      11920  
     11789      11790      11801      11800      11910      11911      11922      11921  
     11790      11791      11802      11801      11911      11912      11923      11922  
     11791      11792      11803      11802      11912      11913      11924      11923  
     11793      11794      11805      11804      11914      11915      11926      11925  
     11794      11795      11806      11805      11915      11916      11927      11926  
     11795      11796      11807      11806      11916      11917      11928      11927  
     11796      11797      11808      11807      11917      11918      11929      11928  
     11797      11798      11809      11808      11918      11919      11930      11929  
     11798      11799      11810      11809      11919      11920      11931      11930  
     11799      11800      11811      11810      11920      11921      11932      11931  
     11800      11801      11812      11811      11921      11922      11933      11932  
     11801      11802      11813      11812      11922      11923      11934      11933  
     11802      11803      11814      11813      11923      11924      11935      11934  
     11804      11805      11816      11815      11925      11926      11937      11936  
     11805      11806      11817      11816      11926      11927      11938      11937  
     11806      11807      11818      11817      11927      11928      11939      11938  
     11807      11808      11819      11818      11928      11929      11940      11939  
     11808      11809      11820      11819      11929      11930      11941      11940  
     11809      11810      11821      11820      11930      11931      11942      11941  
     11810      11811      11822      11821      11931      11932      11943      11942  
     11811      11812      11823      11822      11932      11933      11944      11943  
     11812      11813      11824      11823      11933      11934      11945      11944  
     11813      11814      11825      11824      11934      11935      11946      11945  
     11815      11816      11827      11826      11936      11937      11948      11947  
     11816      11817      11828      11827      11937      11938      11949      11948  
     11817      11818      11829      11828      11938      11939      11950      11949  
     11818      11819      11830      11829      11939      11940      11951      11950  
     11819      11820      11831      11830      11940      11941      11952      11951  
     11820      11821      11832      11831      11941      11942      11953      11952  
     11821      11822      11833      11832      11942      11943      11954      11953  
     11822      11823      11834      11833      11943      11944      11955      11954  
     11823      11824      11835      11834      11944      11945      11956      11955  
     11824      11825      11836      11835      11945      11946      11957      11956  
     11826      11827      11838      11837      11947      11948      11959      11958  
     11827      11828      11839      11838      11948      11949      11960      11959  
     11828      11829      11840      11839      11949      11950      11961      11960  
     11829      11830      11841      11840      11950      11951      11962      11961  
     11830      11831      11842      11841      11951      11952      11963      11962  
     11831      11832      11843      11842      11952      11953      11964      11963  
     11832      11833      11844      11843      11953      11954      11965      11964  
     11833      11834      11845      11844      11954      11955      11966      11965  
     11834      11835      11846      11845      11955      11956      11967      11966  
     11835      11836      11847      11846      11956      11957      11968      11967  
     11837      11838      11849      11848      11958      11959      11970      11969  
     11838      11839      11850      11849      11959      11960      11971      11970  
     11839      11840      11851      11850      11960      11961      11972      11971  
     11840      11841      11852      11851      11961      11962      11973      11972  
     11841      11842      11853      11852      11962      11963      11974      11973  
     11842      11843      11854      11853      11963      11964      11975      11974  
     11843      11844      11855      11854      11964      11965      11976      11975  
     11844      11845      11856      11855      11965      11966      11977      11976  
     11845      11846      11857      11856      11966      11967      11978      11977  
     11846      11847      11858      11857      11967      11968      11979      11978  
     11859      11860      11871      11870      11980      11981      11992      11991  
     11860      11861      11872      11871      11981      11982      11993      11992  
     11861      11862      11873      11872      11982      11983      11994      11993  
     11862      11863      11874      11873      11983      11984      11995      11994  
     11863      11864      11875      11874      11984      11985      11996      11995  
     11864      11865      11876      11875      11985      11986      11997      11996  
     11865      11866      11877      11876      11986      11987      11998      11997  
     11866      11867      11878      11877      11987      11988      11999      11998  
     11867      11868      11879      11878      11988      11989      12000      11999  
     11868      11869      11880      11879      11989      11990      12001      12000  
     11870      11871      11882      11881      11991      11992      12003      12002  
     11871      11872      11883      11882      11992      11993      12004      12003  
     11872      11873      11884      11883      11993      11994      12005      12004  
     11873      11874      11885      11884      11994      11995      12006      12005  
     11874      11875      11886      11885      11995      11996      12007      12006  
     11875      11876      11887      11886      11996      11997      12008      12007  
     11876      11877      11888      11887      11997      11998      12009      12008  
     11877      11878      11889      11888      11998      11999      12010      12009  
     11878      11879      11890      11889      11999      12000      12011      12010  
     11879      11880      11891      11890      12000      12001      12012      12011  
     11881      11882      11893      11892      12002      12003      12014      12013  
     11882      11883      11894      11893      12003      12004      12015      12014  
     11883      11884      11895      11894      12004      12005      12016      12015  
     11884      11885      11896      11895      12005      12006      12017      12016  
     11885      11886      11897      11896      12006      12007      12018      12017  
     11886      11887      11898      11897      12007      12008      12019      12018  
     11887      11888      11899      11898      12008      12009      12020      12019  
     11888      11889      11900      11899      12009      12010      12021      12020  
     11889      11890      11901      11900      12010      12011      12022      12021  
     11890      11891      11902      11901      12011      12012      12023      12022  
     11892      11893      11904      11903      12013      12014      12025      12024  
     11893      11894      11905      11904      12014      12015      12026      12025  
     11894      11895      11906      11905      12015      12016      12027      12026  
     11895      11896      11907      11906      12016      12017      12028      12027  
     11896      11897      11908      11907      12017      12018      12029      12028  
     11897      11898      11909      11908      12018      12019      12030      12029  
     11898      11899      11910      11909      12019      12020      12031      12030  
     11899      11900      11911      11910      12020      12021      12032      12031  
     11900      11901      11912      11911      12021      12022      12033      12032  
     11901      11902      11913      11912      12022      12023      12034      12033  
     11903      11904      11915      11914      12024      12025      12036      12035  
     11904      11905      11916      11915      12025      12026      12037      12036  
     11905      11906      11917      11916      12026      12027      12038      12037  
     11906      11907      11918      11917      12027      12028      12039      12038  
     11907      11908      11919      11918      12028      12029      12040      12039  
     11908      11909      11920      11919      12029      12030      12041      12040  
     11909      11910      11921      11920      12030      12031      12042      12041  
     11910      11911      11922      11921      12031      12032      12043      12042  
     11911      11912      11923      11922      12032      12033      12044      12043  
     11912      11913      11924      11923      12033      12034      12045      12044  
     11914      11915      11926      11925      12035      12036      12047      12046  
     11915      11916      11927      11926      12036      12037      12048      12047  
     11916      11917      11928      11927      12037      12038      12049      12048  
     11917      11918      11929      11928      12038      12039      12050      12049  
     11918      11919      11930      11929      12039      12040      12051      12050  
     11919      11920      11931      11930      12040      12041      12052      12051  
     11920      11921      11932      11931      12041      12042      12053      12052  
     11921      11922      11933      11932      12042      12043      12054      12053  
     11922      11923      11934      11933      12043      12044      12055      12054  
     11923      11924      11935      11934      12044      12045      12056      12055  
     11925      11926      11937      11936      12046      12047      12058      12057  
     11926      11927      11938      11937      12047      12048      12059      12058  
     11927      11928      11939      11938      12048      12049      12060      12059  
     11928      11929      11940      11939      12049      12050      12061      12060  
     11929      11930      11941      11940      12050      12051      12062      12061  
     11930      11931      11942      11941      12051      12052      12063      12062  
     11931      11932      11943      11942      12052      12053      12064      12063  
     11932      11933      11944      11943      12053      12054      12065      12064  
     11933      11934      11945      11944      12054      12055      12066      12065  
     11934      11935      11946      11945      12055      12056      12067      12066  
     11936      11937      11948      11947      12057      12058      12069      12068  
     11937      11938      11949      11948      12058      12059      12070      12069  
     11938      11939      11950      11949      12059      12060      12071      12070  
     11939      11940      11951      11950      12060      12061      12072      12071  
     11940      11941      11952      11951      12061      12062      12073      12072  
     11941      11942      11953      11952      12062      12063      12074      12073  
     11942      11943      11954      11953      12063      12064      12075      12074  
     11943      11944      11955      11954      12064      12065      12076      12075  
     11944      11945      11956      11955      12065      12066      12077      12076  
     11945      11946      11957      11956      12066      12067      12078      12077  
     11947      11948      11959      11958      12068      12069      12080      12079  
     11948      11949      11960      11959      12069      12070      12081      12080  
     11949      11950      11961      11960      12070      12071      12082      12081  
     11950      11951      11962      11961      12071      12072      12083      12082  
     11951      11952      11963      11962      12072      12073      12084      12083  
     11952      11953      11964      11963      12073      12074      12085      12084  
     11953      11954      11965      11964      12074      12075      12086      12085  
     11954      11955      11966      11965      12075      12076      12087      12086  
     11955      11956      11967      11966      12076      12077      12088      12087  
     11956      11957      11968      11967      12077      12078      12089      12088  
     11958      11959      11970      11969      12079      12080      12091      12090  
     11959      11960      11971      11970      12080      12081      12092      12091  
     11960      11961      11972      11971      12081      12082      12093      12092  
     11961      11962      11973      11972      12082      12083      12094      12093  
     11962      11963      11974      11973      12083      12084      12095      12094  
     11963      11964      11975      11974      12084      12085      12096      12095  
     11964      11965      11976      11975      12085      12086      12097      12096  
     11965      11966      11977      11976      12086      12087      12098      12097  
     11966      11967      11978      11977      12087      12088      12099      12098  
     11967      11968      11979      11978      12088      12089      12100      12099  
     11980      11981      11992      11991      12101      12102      12113      12112  
     11981      11982      11993      11992      12102      12103      12114      12113  
     11982      11983      11994      11993      12103      12104      12115      12114  
     11983      11984      11995      11994      12104      12105      12116      12115  
     11984      11985      11996      11995      12105      12106      12117      12116  
     11985      11986      11997      11996      12106      12107      12118      12117  
     11986      11987      11998      11997      12107      12108      12119      12118  
     11987      11988      11999      11998      12108      12109      12120      12119  
     11988      11989      12000      11999      12109      12110      12121      12120  
     11989      11990      12001      12000      12110      12111      12122      12121  
     11991      11992      12003      12002      12112      12113      12124      12123  
     11992      11993      12004      12003      12113      12114      12125      12124  
     11993      11994      12005      12004      12114      12115      12126      12125  
     11994      11995      12006      12005      12115      12116      12127      12126  
     11995      11996      12007      12006      12116      12117      12128      12127  
     11996      11997      12008      12007      12117      12118      12129      12128  
     11997      11998      12009      12008      12118      12119      12130      12129  
     11998      11999      12010      12009      12119      12120      12131      12130  
     11999      12000      12011      12010      12120      12121      12132      12131  
     12000      12001      12012      12011      12121      12122      12133      12132  
     12002      12003      12014      12013      12123      12124      12135      12134  
     12003      12004      12015      12014      12124      12125      12136      12135  
     12004      12005      12016      12015      12125      12126      12137      12136  
     12005      12006      12017      12016      12126      12127      12138      12137  
     12006      12007      12018      12017      12127      12128      12139      12138  
     12007      12008      12019      12018      12128      12129      12140      12139  
     12008      12009      12020      12019      12129      12130      12141      12140  
     12009      12010      12021      12020      12130      12131      12142      12141  
     12010      12011      12022      12021      12131      12132      12143      12142  
     12011      12012      12023      12022      12132      12133      12144      12143  
     12013      12014      12025      12024      12134      12135      12146      12145  
     12014      12015      12026      12025      12135      12136      12147      12146  
     12015      12016      12027      12026      12136      12137      12148      12147  
     12016      12017      12028      12027      12137      12138      12149      12148  
     12017      12018      12029      12028      12138      12139      12150      12149  
     12018      12019      12030      12029      12139      12140      12151      12150  
     12019      12020      12031      12030      12140      12141      12152      12151  
     12020      12021      12032      12031      12141      12142      12153      12152  
     12021      12022      12033      12032      12142      12143      12154      12153  
     12022      12023      12034      12033      12143      12144      12155      12154  
     12024      12025      12036      12035      12145      12146      12157      12156  
     12025      12026      12037      12036      12146      12147      12158      12157  
     12026      12027      12038      12037      12147      12148      12159      12158  
     12027      12028      12039      12038      12148      12149      12160      12159  
     12028      12029      12040      12039      12149      12150      12161      12160  
     12029      12030      12041      12040      12150      12151      12162      12161  
     12030      12031      12042      12041      12151      12152      12163      12162  
     12031      12032      12043      12042      12152      12153      12164      12163  
     12032      12033      12044      12043      12153      12154      12165      12164  
     12033      12034      12045      12044      12154      12155      12166      12165  
     12035      12036      12047      12046      12156      12157      12168      12167  
     12036      12037      12048      12047      12157      12158      12169      12168  
     12037      12038      12049      12048      12158      12159      12170      12169  
     12038      12039      12050      12049      12159      12160      12171      12170  
     12039      12040      12051      12050      12160      12161      12172      12171  
     12040      12041      12052      12051      12161      12162      12173      12172  
     12041      12042      12053      12052      12162      12163      12174      12173  
     12042      12043      12054      12053      12163      12164      12175      12174  
     12043      12044      12055      12054      12164      12165      12176      12175  
     12044      12045      12056      12055      12165      12166      12177      12176  
     12046      12047      12058      12057      12167      12168      12179      12178  
     12047      12048      12059      12058      12168      12169      12180      12179  
     12048      12049      12060      12059      12169      12170      12181      12180  
     12049      12050      12061      12060      12170      12171      12182      12181  
     12050      12051      12062      12061      12171      12172      12183      12182  
     12051      12052      12063      12062      12172      12173      12184      12183  
     12052      12053      12064      12063      12173      12174      12185      12184  
     12053      12054      12065      12064      12174      12175      12186      12185  
     12054      12055      12066      12065      12175      12176      12187      12186  
     12055      12056      12067      12066      12176      12177      12188      12187  
     12057      12058      12069      12068      12178      12179      12190      12189  
     12058      12059      12070      12069      12179      12180      12191      12190  
     12059      12060      12071      12070      12180      12181      12192      12191  
     12060      12061      12072      12071      12181      12182      12193      12192  
     12061      12062      12073      12072      12182      12183      12194      12193  
     12062      12063      12074      12073      12183      12184      12195      12194  
     12063      12064      12075      12074      12184      12185      12196      12195  
     12064      12065      12076      12075      12185      12186      12197      12196  
     12065      12066      12077      12076      12186      12187      12198      12197  
     12066      12067      12078      12077      12187      12188      12199      12198  
     12068      12069      12080      12079      12189      12190      12201      12200  
     12069      12070      12081      12080      12190      12191      12202      12201  
     12070      12071      12082      12081      12191      12192      12203      12202  
     12071      12072      12083      12082      12192      12193      12204      12203  
     12072      12073      12084      12083      12193      12194      12205      12204  
     12073      12074      12085      12084      12194      12195      12206      12205  
     12074      12075      12086      12085      12195      12196      12207      12206  
     12075      12076      12087      12086      12196      12197      12208      12207  
     12076      12077      12088      12087      12197      12198      12209      12208  
     12077      12078      12089      12088      12198      12199      12210      12209  
     12079      12080      12091      12090      12200      12201      12212      12211  
     12080      12081      12092      12091      12201      12202      12213      12212  
     12081      12082      12093      12092      12202      12203      12214      12213  
     12082      12083      12094      12093      12203      12204      12215      12214  
     12083      12084      12095      12094      12204      12205      12216      12215  
     12084      12085      12096      12095      12205      12206      12217      12216  
     12085      12086      12097      12096      12206      12207      12218      12217  
     12086      12087      12098      12097      12207      12208      12219      12218  
     12087      12088      12099      12098      12208      12209      12220      12219  
     12088      12089      12100      12099      12209      12210      12221      12220  
