TITLE="results for TO code"
VARIABLES = "x", "y", "z", "density", "sigmaxx", "sigmayy", "sigmazz", "sigmaxy", "sigmaxz", "sigmayz"
ZONE T="load step 1", NODES= 12221, ELEMENTS= 10000, DATAPACKING=POINT, ZONETYPE=FEBRICK
               0.00000000                0.00000000                0.00000000                1.00000000               -0.00000000               -0.00000000                2.50331633               -0.00000000                0.66891028                1.49059168
               1.00000000                0.00000000                0.00000000                1.00000000                0.00000000                0.00000000                1.64668478                0.00000000               -0.01090118                0.92283682
               2.00000000                0.00000000                0.00000000                1.00000000                0.00000000                0.00000000                0.67272205               -0.00000000               -0.22362208                0.35715152
               3.00000000                0.00000000                0.00000000                1.00000000               -0.00000000               -0.00000000                0.01444449                0.00000000               -0.08690723                0.01427143
               4.00000000                0.00000000                0.00000000                1.00000000                0.00000000                0.00000000               -0.02956425               -0.00000000                0.02097065               -0.03549083
               5.00000000                0.00000000                0.00000000                1.00000000               -0.00000000                0.00000000               -0.00959850               -0.00000000                0.04686180               -0.00751278
               6.00000000                0.00000000                0.00000000                1.00000000               -0.00000000                0.00000000               -0.00415752                0.00000000                0.03121982                0.00724162
               7.00000000                0.00000000                0.00000000                1.00000000                0.00000000               -0.00000000               -0.09730291                0.00000000               -0.03193355               -0.07373715
               8.00000000                0.00000000                0.00000000                1.00000000                0.00000000                0.00000000               -0.81242015                0.00000000               -0.06784688               -0.53679900
               9.00000000                0.00000000                0.00000000                1.00000000                0.00000000               -0.00000000               -2.05838973                0.00000000                0.33122354               -1.20967059
              10.00000000                0.00000000                0.00000000                1.00000000               -0.00000000               -0.00000000               -3.32434393                0.00000000                1.25645377               -1.77774465
               0.00000000                1.00000000                0.00000000                1.00000000               -0.00000000                0.00000000                2.05243631               -0.00000000                1.01415944                0.77648454
               1.00000000                1.00000000                0.00000000                1.00000000               -0.00000000                0.00000000                1.16092808               -0.00000000                0.36804396                0.42317349
               2.00000000                1.00000000                0.00000000                1.00000000                0.00000000               -0.00000000                0.34560044                0.00000000                0.09630288                0.07083540
               3.00000000                1.00000000                0.00000000                1.00000000                0.00000000                0.00000000                0.00247030                0.00000000                0.04609151               -0.03088813
               4.00000000                1.00000000                0.00000000                1.00000000               -0.00000000               -0.00000000               -0.00174420               -0.00000000                0.02758039               -0.02408817
               5.00000000                1.00000000                0.00000000                1.00000000                0.00000000               -0.00000000               -0.00292095                0.00000000                0.02661019               -0.00382553
               6.00000000                1.00000000                0.00000000                1.00000000                0.00000000               -0.00000000               -0.00657482               -0.00000000                0.04250689                0.01062528
               7.00000000                1.00000000                0.00000000                1.00000000                0.00000000                0.00000000               -0.04107977                0.00000000                0.09620472               -0.01329740
               8.00000000                1.00000000                0.00000000                1.00000000               -0.00000000               -0.00000000               -0.27383466               -0.00000000                0.23113375               -0.12275657
               9.00000000                1.00000000                0.00000000                1.00000000               -0.00000000                0.00000000               -1.35598743                0.00000000                0.63391085               -0.52816617
              10.00000000                1.00000000                0.00000000                1.00000000               -0.00000000               -0.00000000               -2.94969055                0.00000000                1.54215498               -0.85681678
               0.00000000                2.00000000                0.00000000                1.00000000               -0.00000000               -0.00000000                2.02114401                0.00000000                1.14654991                0.37421786
               1.00000000                2.00000000                0.00000000                1.00000000                0.00000000                0.00000000                0.82562947                0.00000000                0.46527245                0.16592900
               2.00000000                2.00000000                0.00000000                1.00000000               -0.00000000                0.00000000                0.05662023               -0.00000000                0.18011550               -0.02093915
               3.00000000                2.00000000                0.00000000                1.00000000               -0.00000000               -0.00000000                0.00010671               -0.00000000                0.07016056               -0.01449273
               4.00000000                2.00000000                0.00000000                1.00000000                0.00000000                0.00000000                0.00179404                0.00000000                0.02577875               -0.01159542
               5.00000000                2.00000000                0.00000000                1.00000000                0.00000000                0.00000000               -0.00008083               -0.00000000                0.01527594               -0.00391203
               6.00000000                2.00000000                0.00000000                1.00000000               -0.00000000                0.00000000               -0.00040654                0.00000000                0.02823921               -0.00270319
               7.00000000                2.00000000                0.00000000                1.00000000                0.00000000                0.00000000               -0.00973913               -0.00000000                0.07183672               -0.01943578
               8.00000000                2.00000000                0.00000000                1.00000000                0.00000000                0.00000000                0.05068515                0.00000000                0.17117748               -0.07841461
               9.00000000                2.00000000                0.00000000                1.00000000               -0.00000000               -0.00000000               -0.68903585                0.00000000                0.45733433               -0.20072288
              10.00000000                2.00000000                0.00000000                1.00000000                0.00000000                0.00000000               -2.35430619                0.00000000                1.46270106               -0.18264039
               0.00000000                3.00000000                0.00000000                1.00000000                0.00000000                0.00000000                1.92528038               -0.00000000                1.11002752                0.11424631
               1.00000000                3.00000000                0.00000000                1.00000000                0.00000000                0.00000000                0.53300976                0.00000000                0.44012591                0.04200595
               2.00000000                3.00000000                0.00000000                1.00000000               -0.00000000               -0.00000000               -0.05189768                0.00000000                0.18561706               -0.03045468
               3.00000000                3.00000000                0.00000000                1.00000000               -0.00000000               -0.00000000                0.01167951                0.00000000                0.07440937               -0.00701401
               4.00000000                3.00000000                0.00000000                1.00000000               -0.00000000                0.00000000                0.00084912                0.00000000                0.02921470               -0.00434850
               5.00000000                3.00000000                0.00000000                1.00000000               -0.00000000               -0.00000000                0.00027831                0.00000000                0.01613764               -0.00336241
               6.00000000                3.00000000                0.00000000                1.00000000                0.00000000               -0.00000000               -0.00121795               -0.00000000                0.02152896               -0.00603079
               7.00000000                3.00000000                0.00000000                1.00000000               -0.00000000                0.00000000               -0.00313205                0.00000000                0.04611033               -0.01903699
               8.00000000                3.00000000                0.00000000                1.00000000                0.00000000                0.00000000                0.00301030               -0.00000000                0.09757994               -0.05215485
               9.00000000                3.00000000                0.00000000                1.00000000               -0.00000000                0.00000000               -0.26323881               -0.00000000                0.22291336               -0.09367230
              10.00000000                3.00000000                0.00000000                1.00000000                0.00000000               -0.00000000               -1.20697886                0.00000000                0.94471494                0.04138323
               0.00000000                4.00000000                0.00000000                1.00000000               -0.00000000               -0.00000000                1.75962159                0.00000000                0.99419982               -0.03855623
               1.00000000                4.00000000                0.00000000                1.00000000               -0.00000000               -0.00000000                0.33425407               -0.00000000                0.39522116               -0.03407786
               2.00000000                4.00000000                0.00000000                1.00000000                0.00000000                0.00000000               -0.08065220               -0.00000000                0.18538820               -0.03032269
               3.00000000                4.00000000                0.00000000                1.00000000               -0.00000000               -0.00000000                0.01278314                0.00000000                0.07488793               -0.00397597
               4.00000000                4.00000000                0.00000000                1.00000000                0.00000000               -0.00000000                0.00121085               -0.00000000                0.02947678               -0.00157151
               5.00000000                4.00000000                0.00000000                1.00000000                0.00000000                0.00000000                0.00037564                0.00000000                0.01538483               -0.00207433
               6.00000000                4.00000000                0.00000000                1.00000000               -0.00000000               -0.00000000               -0.00040548                0.00000000                0.01624321               -0.00475532
               7.00000000                4.00000000                0.00000000                1.00000000                0.00000000                0.00000000               -0.00370451                0.00000000                0.02968674               -0.01180233
               8.00000000                4.00000000                0.00000000                1.00000000               -0.00000000               -0.00000000                0.01209169                0.00000000                0.05786811               -0.02274231
               9.00000000                4.00000000                0.00000000                1.00000000                0.00000000               -0.00000000               -0.20989739                0.00000000                0.13143666               -0.00065779
              10.00000000                4.00000000                0.00000000                1.00000000               -0.00000000                0.00000000               -1.03747925                0.00000000                0.72017100                0.09112633
               0.00000000                5.00000000                0.00000000                1.00000000               -0.00000000                0.00000000                1.57348041               -0.00000000                0.86270851               -0.12270282
               1.00000000                5.00000000                0.00000000                1.00000000                0.00000000               -0.00000000                0.14870207                0.00000000                0.34623537               -0.07808159
               2.00000000                5.00000000                0.00000000                1.00000000               -0.00000000               -0.00000000               -0.09700769                0.00000000                0.17902490               -0.02836793
               3.00000000                5.00000000                0.00000000                1.00000000                0.00000000                0.00000000                0.01405925                0.00000000                0.07324100               -0.00192665
               4.00000000                5.00000000                0.00000000                1.00000000               -0.00000000               -0.00000000                0.00107172                0.00000000                0.02861117               -0.00011564
               5.00000000                5.00000000                0.00000000                1.00000000               -0.00000000               -0.00000000                0.00054688               -0.00000000                0.01409450               -0.00088405
               6.00000000                5.00000000                0.00000000                1.00000000               -0.00000000                0.00000000               -0.00024226                0.00000000                0.01284635               -0.00255119
               7.00000000                5.00000000                0.00000000                1.00000000               -0.00000000               -0.00000000               -0.00220209                0.00000000                0.02161703               -0.00499861
               8.00000000                5.00000000                0.00000000                1.00000000                0.00000000                0.00000000                0.00861019                0.00000000                0.04310177               -0.00244621
               9.00000000                5.00000000                0.00000000                1.00000000               -0.00000000                0.00000000               -0.14845272               -0.00000000                0.10752373                0.05532535
              10.00000000                5.00000000                0.00000000                1.00000000                0.00000000               -0.00000000               -0.90268241                0.00000000                0.61069460                0.13374906
               0.00000000                6.00000000                0.00000000                1.00000000               -0.00000000               -0.00000000                1.37780125                0.00000000                0.73314781               -0.16161083
               1.00000000                6.00000000                0.00000000                1.00000000                0.00000000               -0.00000000               -0.01929003                0.00000000                0.30392240               -0.09887123
               2.00000000                6.00000000                0.00000000                1.00000000                0.00000000               -0.00000000               -0.10439457                0.00000000                0.17265799               -0.02448563
               3.00000000                6.00000000                0.00000000                1.00000000               -0.00000000                0.00000000                0.01425889                0.00000000                0.07064614                0.00013492
               4.00000000                6.00000000                0.00000000                1.00000000                0.00000000                0.00000000                0.00099255                0.00000000                0.02711947                0.00130295
               5.00000000                6.00000000                0.00000000                1.00000000                0.00000000               -0.00000000                0.00058235               -0.00000000                0.01276346                0.00013259
               6.00000000                6.00000000                0.00000000                1.00000000               -0.00000000               -0.00000000               -0.00004387                0.00000000                0.01105796               -0.00095891
               7.00000000                6.00000000                0.00000000                1.00000000                0.00000000                0.00000000               -0.00154390                0.00000000                0.01880279               -0.00071885
               8.00000000                6.00000000                0.00000000                1.00000000                0.00000000                0.00000000                0.00521764               -0.00000000                0.04039618                0.00864732
               9.00000000                6.00000000                0.00000000                1.00000000               -0.00000000                0.00000000               -0.07890803                0.00000000                0.09880192                0.08796612
              10.00000000                6.00000000                0.00000000                1.00000000               -0.00000000                0.00000000               -0.77940713                0.00000000                0.50900966                0.17175828
               0.00000000                7.00000000                0.00000000                1.00000000                0.00000000               -0.00000000                1.17747412               -0.00000000                0.61496678               -0.17179121
               1.00000000                7.00000000                0.00000000                1.00000000               -0.00000000                0.00000000               -0.17406166                0.00000000                0.27289517               -0.09856571
               2.00000000                7.00000000                0.00000000                1.00000000               -0.00000000               -0.00000000               -0.10858330               -0.00000000                0.16859760               -0.01481380
               3.00000000                7.00000000                0.00000000                1.00000000                0.00000000                0.00000000                0.01405591                0.00000000                0.06708222                0.00495310
               4.00000000                7.00000000                0.00000000                1.00000000               -0.00000000                0.00000000                0.00078614                0.00000000                0.02443202                0.00357194
               5.00000000                7.00000000                0.00000000                1.00000000               -0.00000000                0.00000000                0.00058920                0.00000000                0.01102387                0.00097153
               6.00000000                7.00000000                0.00000000                1.00000000                0.00000000                0.00000000                0.00001623                0.00000000                0.00977596               -0.00062461
               7.00000000                7.00000000                0.00000000                1.00000000                0.00000000               -0.00000000               -0.00079679               -0.00000000                0.01870507                0.00045393
               8.00000000                7.00000000                0.00000000                1.00000000               -0.00000000                0.00000000                0.00051176                0.00000000                0.04348310                0.01435378
               9.00000000                7.00000000                0.00000000                1.00000000               -0.00000000                0.00000000                0.00461112               -0.00000000                0.09701945                0.11012642
              10.00000000                7.00000000                0.00000000                1.00000000               -0.00000000                0.00000000               -0.65005923               -0.00000000                0.40792331                0.19359529
               0.00000000                8.00000000                0.00000000                1.00000000               -0.00000000                0.00000000                0.96913272                0.00000000                0.51091056               -0.17057671
               1.00000000                8.00000000                0.00000000                1.00000000                0.00000000               -0.00000000               -0.31694541               -0.00000000                0.25373402               -0.06790842
               2.00000000                8.00000000                0.00000000                1.00000000               -0.00000000                0.00000000               -0.11844242                0.00000000                0.16433575                0.01427642
               3.00000000                8.00000000                0.00000000                1.00000000                0.00000000               -0.00000000                0.01313361                0.00000000                0.05803773                0.01786250
               4.00000000                8.00000000                0.00000000                1.00000000               -0.00000000               -0.00000000                0.00059878               -0.00000000                0.01855923                0.00638472
               5.00000000                8.00000000                0.00000000                1.00000000                0.00000000                0.00000000                0.00048910               -0.00000000                0.00925761                0.00095860
               6.00000000                8.00000000                0.00000000                1.00000000                0.00000000                0.00000000                0.00015689               -0.00000000                0.00830138               -0.00074642
               7.00000000                8.00000000                0.00000000                1.00000000               -0.00000000                0.00000000               -0.00036502                0.00000000                0.01651945               -0.00318537
               8.00000000                8.00000000                0.00000000                1.00000000               -0.00000000                0.00000000               -0.00244426                0.00000000                0.05219873                0.01025132
               9.00000000                8.00000000                0.00000000                1.00000000                0.00000000               -0.00000000                0.10346285               -0.00000000                0.11164561                0.12376072
              10.00000000                8.00000000                0.00000000                1.00000000               -0.00000000                0.00000000               -0.53034053                0.00000000                0.32462042                0.19757717
               0.00000000                9.00000000                0.00000000                1.00000000                0.00000000               -0.00000000                0.72025203                0.00000000                0.39545205               -0.19987497
               1.00000000                9.00000000                0.00000000                1.00000000               -0.00000000               -0.00000000               -0.43935806               -0.00000000                0.21954935                0.04211895
               2.00000000                9.00000000                0.00000000                1.00000000                0.00000000                0.00000000               -0.16462032                0.00000000                0.13647769                0.10456977
               3.00000000                9.00000000                0.00000000                1.00000000               -0.00000000               -0.00000000                0.01700537               -0.00000000                0.03388427                0.03791666
               4.00000000                9.00000000                0.00000000                1.00000000                0.00000000               -0.00000000               -0.00018296                0.00000000                0.01538015                0.00444198
               5.00000000                9.00000000                0.00000000                1.00000000               -0.00000000               -0.00000000                0.00057111                0.00000000                0.00887860                0.00079039
               6.00000000                9.00000000                0.00000000                1.00000000                0.00000000               -0.00000000                0.00013076               -0.00000000                0.00769176               -0.00077062
               7.00000000                9.00000000                0.00000000                1.00000000                0.00000000               -0.00000000                0.00072381               -0.00000000                0.01158611               -0.00569884
               8.00000000                9.00000000                0.00000000                1.00000000                0.00000000               -0.00000000               -0.00778549                0.00000000                0.04132825               -0.02397117
               9.00000000                9.00000000                0.00000000                1.00000000               -0.00000000               -0.00000000                0.28183232                0.00000000                0.15208557                0.08094201
              10.00000000                9.00000000                0.00000000                1.00000000               -0.00000000                0.00000000               -0.43758385               -0.00000000                0.28790009                0.22138103
               0.00000000               10.00000000                0.00000000                1.00000000                0.00000000                0.00000000                0.54916048               -0.00000000                0.00868962               -0.36053280
               1.00000000               10.00000000                0.00000000                1.00000000                0.00000000               -0.00000000               -0.59447865                0.00000000               -0.01157381                0.32019059
               2.00000000               10.00000000                0.00000000                1.00000000               -0.00000000               -0.00000000               -0.34970951               -0.00000000                0.14501441                0.33898114
               3.00000000               10.00000000                0.00000000                1.00000000                0.00000000                0.00000000               -0.00401955                0.00000000                0.08049977                0.05519185
               4.00000000               10.00000000                0.00000000                1.00000000                0.00000000                0.00000000               -0.00407618                0.00000000                0.03014761                0.01057318
               5.00000000               10.00000000                0.00000000                1.00000000               -0.00000000                0.00000000               -0.00014948                0.00000000                0.01255158                0.00220507
               6.00000000               10.00000000                0.00000000                1.00000000               -0.00000000                0.00000000                0.00095591                0.00000000                0.01122409               -0.00200801
               7.00000000               10.00000000                0.00000000                1.00000000               -0.00000000               -0.00000000                0.00479269                0.00000000                0.02238099               -0.01087157
               8.00000000               10.00000000                0.00000000                1.00000000               -0.00000000                0.00000000                0.02478473               -0.00000000                0.04680961               -0.06357081
               9.00000000               10.00000000                0.00000000                1.00000000                0.00000000                0.00000000                0.42780647               -0.00000000                0.04680718               -0.17355335
              10.00000000               10.00000000                0.00000000                1.00000000                0.00000000               -0.00000000               -0.45977115                0.00000000                0.03201498                0.39433897
               0.00668910                0.01490592                1.02503316                1.00000000               -0.67981146               -0.71410714                2.47213271               -0.22250569               -0.12852061                0.72430236
               0.99989099                0.00922837                1.01646685                1.00000000               -0.44626618               -0.49966333                1.64308871               -0.18777494               -0.47775787                0.23879222
               1.99776378                0.00357152                1.00672722                0.70061026               -0.03800302               -0.28631612                0.80934787               -0.13435773               -0.55172139               -0.06049068
               2.99913093                0.00014271                1.00014444                0.51371952                0.12229637               -0.04515956                0.09070780               -0.06332244               -0.04302245               -0.10278175
               4.00020971               -0.00035491                0.99970436                0.44592853                0.06688452                0.01140266               -0.20680707               -0.00428237                0.59227222               -0.14756581
               5.00046862               -0.00007513                0.99990402                0.44638904                0.00512458                0.00368725               -0.10131937                0.00111462                0.82526216               -0.02568877
               6.00031220                0.00007242                0.99995842                0.50242959               -0.03939767                0.00338366               -0.04991729               -0.02182511                0.67826513                0.08684827
               6.99968066               -0.00073737                0.99902697                0.62818032               -0.04953335                0.06043976               -0.44701667               -0.14388205                0.13906182                0.02067866
               7.99932153               -0.00536799                0.99187580                0.87225825                0.18157855                0.41404243               -1.32306938               -0.26898609               -0.40835065                0.10938110
               9.00331224               -0.01209671                0.97941610                1.00000000                0.66215033                0.68150442               -2.27524222               -0.31778552               -0.39196458               -0.21126258
              10.01256454               -0.01777745                0.96675656                1.00000000                0.92523023                0.92092787               -3.14269540               -0.28237286               -0.00693963               -0.95400451
               0.01014159                1.00776485                1.02052436                1.00000000               -0.64611549               -0.55818691                2.17421812               -0.11449123                0.20430768                0.59099531
               1.00368044                1.00423173                1.01160928                0.92372647               -0.45892828               -0.37845391                1.37365033               -0.11473775               -0.04727590                0.08234368
               2.00096303                1.00070835                1.00345600                0.22050731               -0.16097622               -0.18904534                0.58356959               -0.02516202                0.06065725               -0.19766763
               3.00046092                0.99969112                1.00002470                0.00010000               -0.03436125               -0.01438208                0.07631808                0.03107211                0.43229771               -0.16504829
               4.00027580                0.99975912                0.99998256                0.00010000               -0.00974066                0.01194771               -0.13828630                0.01593534                0.62577377               -0.15918819
               5.00026610                0.99996174                0.99997079                0.00010000                0.00746325                0.00180038               -0.08553893                0.00156379                0.69714247               -0.00082421
               6.00042507                1.00010625                0.99993425                0.00010000                0.03479726               -0.00497241               -0.09284054               -0.00622623                0.73370856                0.16464796
               7.00096205                0.99986703                0.99958920                0.10497157                0.09431343                0.02715068               -0.40221847               -0.01480579                0.70787671                0.18189846
               8.00231134                0.99877243                0.99726165                0.44025473                0.26885307                0.22919220               -1.21111635               -0.13792220                0.36415903                0.26472590
               9.00633911                0.99471834                0.98644013                1.00000000                0.65551061                0.50447385               -1.94358128               -0.30397471               -0.08056424                0.06664913
              10.01542155                0.99143183                0.97050309                1.00000000                0.90824413                0.79755213               -2.81613267               -0.22552697                0.03887607               -0.43882348
               0.01146550                2.00374218                1.02021144                1.00000000               -0.68127746               -0.33111911                2.01729660               -0.16035483                0.12567636                0.48343783
               1.00465272                2.00165929                1.00825629                0.67963436               -0.48321721               -0.19058377                1.15605874               -0.16153753                0.06491890               -0.01475624
               2.00180116                1.99979061                1.00056620                0.07217574               -0.19755595               -0.05064504                0.24421335               -0.04555378                0.53192568               -0.24095420
               3.00070161                1.99985507                1.00000107                0.00010000               -0.07716838                0.01193706               -0.46191622                0.01883080                1.09829875               -0.38579282
               4.00025779                1.99988405                1.00001794                0.00010000               -0.02744231                0.00986984               -0.03134673                0.00610750                1.27855247               -0.05444967
               5.00015276                1.99996088                0.99999919                0.00010000                0.00123023                0.00023156                0.01120391               -0.00079017                1.30642877                0.09811828
               6.00028239                1.99997297                0.99999593                0.00010000                0.02828039               -0.00832803                0.03509068               -0.01825084                1.35750512                0.24519718
               7.00071837                1.99980564                0.99990261                0.00010000                0.07146914               -0.00286980               -0.16235720               -0.06290290                1.55444053                0.39186167
               8.00171177                1.99921585                1.00050685                0.20296548                0.19274880                0.03530086               -1.19273374               -0.15742045                1.12053642                0.14317723
               9.00457334                1.99799277                0.99310964                0.71678700                0.64576179                0.21724694               -1.74157670               -0.25761164                0.20363366                0.17237724
              10.01462701                1.99817360                0.97645694                1.00000000                1.00536673                0.44910000               -2.94498332               -0.28063752                0.15182550                0.34175761
               0.01110028                3.00114246                1.01925280                1.00000000               -0.66990161               -0.20638704                1.89153983               -0.14841540                0.05559339                0.21425633
               1.00440126                3.00042006                1.00533010                0.60368371               -0.46220523               -0.10000343                0.87535413               -0.10737614                0.21593701               -0.08178153
               2.00185617                2.99969545                0.99948102                0.03872555               -0.18285827               -0.00469177               -0.18544262               -0.02187363                0.91918333               -0.21631792
               3.00074409                2.99992986                1.00011680                0.00010000               -0.07820118                0.00525838               -0.96407563                0.01541678                1.45170402               -0.41319047
               4.00029215                2.99995651                1.00000849                0.00010000               -0.02913587                0.00501195               -0.06956107                0.00367482                1.68634503               -0.01267527
               5.00016138                2.99996638                1.00000278                0.00010000               -0.00384287                0.00091885                0.08367098               -0.00078670                1.76622674                0.17479390
               6.00021529                2.99993969                0.99998782                0.00010000                0.01498635               -0.00102606                0.20632488               -0.01383529                1.77366612                0.33490295
               7.00046110                2.99980963                0.99996868                0.00010000                0.03802549                0.00381673                0.51520196               -0.04413703                1.63777444                0.55803356
               8.00097580                2.99947845                1.00003010                0.17538776                0.08840151                0.02783615               -0.31591276               -0.09397235                1.31995398                0.26094951
               9.00222913                2.99906328                0.99736761                0.64773561                0.42356750                0.10003255               -1.75556597               -0.11617979                0.78058964                0.02648637
              10.00944715                3.00041383                0.98793021                1.00000000                0.72180159                0.13688336               -3.46405881               -0.23620950                0.73585548                0.37737216
               0.00994200                3.99961444                1.01759622                1.00000000               -0.59897867               -0.11847456                1.75705463               -0.11918114                0.07545836                0.03103905
               1.00395221                3.99965922                1.00334254                0.56182355               -0.40440581               -0.06004377                0.54500982               -0.04282850                0.37057672               -0.11832253
               2.00185388                3.99969677                0.99919348                0.02240322               -0.16016661                0.00104338               -0.73779273                0.01175487                1.14949177               -0.23199703
               3.00074888                3.99996024                1.00012783                0.00010000               -0.07795571                0.00254368               -1.12504777                0.01379141                1.79468089               -0.28842732
               4.00029477                3.99998428                1.00001211                0.00010000               -0.02975155                0.00211643               -0.10211596                0.00064906                2.04531819                0.02857339
               5.00015385                3.99997926                1.00000376                0.00010000               -0.00661678                0.00123918                0.16702508               -0.00261348                2.14465510                0.22815212
               6.00016243                3.99995245                0.99999595                0.00010000                0.00715095                0.00173980                0.43560864               -0.00920531                2.12915698                0.42373232
               7.00029687                3.99988198                0.99996295                0.00010000                0.02081245                0.00701919                1.09007300               -0.02124014                1.86543826                0.68564457
               8.00057868                3.99977258                1.00012092                0.17165840                0.05087496                0.02485432                0.51482790               -0.02166681                1.31655106                0.46314429
               9.00131437                3.99999342                0.99790103                0.63786052                0.33115145                0.07449882               -1.35161127               -0.00076049                0.84445395                0.06576369
              10.00720171                4.00091126                0.98962521                1.00000000                0.58873434                0.04618292               -3.31297327               -0.07522606                0.77054146                0.08185756
               0.00862709                4.99877297                1.01573480                1.00000000               -0.51647314               -0.06152730                1.60492010               -0.08590478                0.08960403               -0.07128532
               1.00346235                4.99921918                1.00148702                0.53383205               -0.34184181               -0.03239668                0.23832468                0.00151806                0.50564158               -0.15438972
               2.00179025                4.99971632                0.99902992                0.01324989               -0.13649718                0.00291853               -1.28064692                0.03171237                1.33702654               -0.24110550
               3.00073241                4.99998073                1.00014059                0.00010000               -0.07520687                0.00205545               -1.14377813                0.01200525                2.09544137               -0.16415802
               4.00028611                4.99999884                1.00001072                0.00010000               -0.02957325                0.00143723               -0.09931867               -0.00065735                2.36552409                0.07611844
               5.00014094                4.99999116                1.00000547                0.00010000               -0.00788241                0.00110346                0.26554451               -0.00252846                2.48039926                0.25639990
               6.00012846                4.99997449                0.99999758                0.00010000                0.00376127                0.00189821                0.66460793               -0.00464991                2.46641518                0.46068446
               7.00021617                4.99995001                0.99997798                0.00010000                0.01512771                0.00554174                1.75152840               -0.00538948                2.07439801                0.78654686
               8.00043102                4.99997554                1.00008610                0.17653650                0.04295335                0.01569481                1.37984347                0.02142601                1.34939919                0.58650842
               9.00107524                5.00055325                0.99851547                0.64230254                0.28379641                0.04431195               -0.81113579                0.05178027                0.93116912                0.24628150
              10.00610695                5.00133749                0.99097318                1.00000000                0.50317087                0.04031598               -2.96209035               -0.02715696                0.83445059                0.20975104
               0.00733148                5.99838389                1.01377801                1.00000000               -0.42922542               -0.02454420                1.44465508               -0.06113127                0.11195371               -0.12886965
               1.00303922                5.99901129                0.99980710                0.51491533               -0.28024491               -0.01024206               -0.04987770                0.03189249                0.63499207               -0.16179502
               2.00172658                5.99975514                0.99895605                0.00870342               -0.11663813                0.00677706               -1.79288571                0.04428942                1.49585251               -0.21550639
               3.00070646                6.00000135                1.00014259                0.00010000               -0.07276926                0.00343987               -1.10057997                0.00981490                2.34237731               -0.06570018
               4.00027119                6.00001303                1.00000993                0.00010000               -0.02894134                0.00184379               -0.07694510               -0.00209074                2.63518277                0.10471626
               5.00012763                6.00000133                1.00000582                0.00010000               -0.00803076                0.00092779                0.37074230               -0.00266624                2.77620680                0.24716633
               6.00011058                5.99999041                0.99999956                0.00010000                0.00301966                0.00096329                0.89459360               -0.00196092                2.77119190                0.44312949
               7.00018803                5.99999281                0.99998456                0.00010000                0.01466911                0.00272627                2.53205426                0.00334713                2.26391327                0.83042912
               8.00040396                6.00008647                1.00005218                0.18611860                0.03999957                0.00839999                2.23899308                0.04453315                1.41969398                0.64400881
               9.00098802                6.00087966                0.99921092                0.65419310                0.23430674                0.02740054               -0.22504173                0.07630334                1.04776519                0.35656460
              10.00509010                6.00171758                0.99220593                1.00000000                0.41020774                0.02992311               -2.51726099               -0.01759347                0.90399821                0.29785822
               0.00614967                6.99828209                1.01177474                1.00000000               -0.34207161               -0.00448294                1.27582874               -0.03789312                0.14155798               -0.16293134
               1.00272895                6.99901434                0.99825938                0.50584810               -0.22318459                0.01548140               -0.31727043                0.05339452                0.75966213               -0.14495081
               2.00168598                6.99985186                0.99891417                0.00845282               -0.10290648                0.01938103               -2.25795019                0.04759828                1.63140590               -0.14591321
               3.00067082                7.00004953                1.00014056                0.00010000               -0.07208279                0.00886379               -1.05972788                0.00288867                2.53236671                0.01088501
               4.00024432                7.00003572                1.00000786                0.00010000               -0.02802917                0.00254089               -0.04818047               -0.00627090                2.84928875                0.10241740
               5.00011024                7.00000972                1.00000589                0.00010000               -0.00732803                0.00041300                0.47279599               -0.00385120                3.02037531                0.18880852
               6.00009776                6.99999375                1.00000016                0.00010000                0.00384060                0.00010625                1.11480193               -0.00163709                3.02932704                0.35251721
               7.00018705                7.00000454                0.99999203                0.00228922                0.01685357               -0.00123326                3.44674386                0.00634752                2.40351123                0.77819740
               8.00043483                7.00014354                1.00000512                0.20123997                0.03915719                0.00080200                3.04861142                0.06073753                1.52119111                0.60685409
               9.00097019                7.00110126                1.00004611                0.67557262                0.18222011                0.01789730                0.34970561                0.09604260                1.18590541                0.40237846
              10.00407923                7.00193595                0.99349941                1.00000000                0.31090386                0.01290944               -2.04618423               -0.00872575                0.97571378                0.33252499
               0.00510911                7.99829423                1.00969133                1.00000000               -0.25717654               -0.01404188                1.09383563               -0.00708908                0.17425751               -0.20876958
               1.00253734                7.99932092                0.99683055                0.51613565               -0.17328741                0.07034233               -0.56055034                0.06575365                0.86984605               -0.09188971
               2.00164336                8.00014276                0.99881558                0.01476330               -0.09784815                0.05969179               -2.64343269                0.02682551                1.73632408               -0.02151752
               3.00058038                8.00017863                1.00013134                0.00010000               -0.07288826                0.01648178               -1.07075116               -0.02054482                2.66435162                0.08828310
               4.00018559                8.00006385                1.00000599                0.00010000               -0.02439006                0.00043502               -0.02727709               -0.01297789                2.99423907                0.06518154
               5.00009258                8.00000959                1.00000489                0.00010000               -0.00512893               -0.00009057                0.56308385               -0.00463821                3.20354939                0.06435164
               6.00008301                7.99999254                1.00000157                0.00010000                0.00363092               -0.00007301                1.30470691               -0.00311409                3.21828012                0.17086783
               7.00016519                7.99996815                0.99999635                0.01504650                0.02194868               -0.00307638                4.51644075                0.00193939                2.43989446                0.57794307
               8.00052199                8.00010251                0.99997556                0.22884953                0.04756308               -0.01916247                3.74689348                0.06239562                1.64594309                0.46006741
               9.00111646                8.00123761                1.00103463                0.71986316                0.13621084               -0.01459221                0.86728847                0.12119599                1.32522116                0.41515766
              10.00324620                8.00197577                0.99469659                1.00000000                0.21297481                0.01389287               -1.58168608                0.01380484                1.02272041                0.30655243
               0.00395452                8.99800125                1.00720252                1.00000000               -0.17590271               -0.09497804                0.89282294               -0.00911656                0.21210180               -0.23734997
               1.00219549                9.00042119                0.99560642                0.57180641               -0.12948718                0.19404951               -0.77428076                0.01956845                0.92509328               -0.01044483
               2.00136478                9.00104570                0.99835380                0.03698397               -0.09283254                0.16235236               -2.85033162               -0.01176181                1.79462931                0.12037360
               3.00033884                9.00037917                1.00017005                0.00010000               -0.06054877                0.01866468               -1.21357632               -0.03883287                2.74174117                0.19328680
               4.00015380                9.00004442                0.99999817                0.00010000               -0.01250284                0.00209423               -0.01038888               -0.01276895                3.08596276               -0.00457060
               5.00008879                9.00000790                1.00000571                0.00010000               -0.00384420                0.00062323                0.62861239               -0.00095931                3.30136838               -0.15671541
               6.00007692                8.99999229                1.00000131                0.00010000                0.00135376               -0.00063079                1.41318005               -0.00178326                3.34014015               -0.15939158
               7.00011586                8.99994301                1.00000724                0.04381499                0.01681825               -0.00384310                5.66205742               -0.00866951                2.36723073                0.23616558
               8.00041328                8.99976029                0.99992215                0.29037185                0.07024973               -0.03691106                4.24676335                0.04062586                1.79097279                0.24675804
               9.00152086                9.00080942                1.00281832                0.82734892                0.12328592               -0.14865704                1.24997319                0.09025689                1.43380852                0.32382100
              10.00287900                9.00221381                0.99562416                1.00000000                0.13581452                0.09838090               -1.13755089               -0.00586370                0.93030794                0.22796290
               0.00008690                9.99639467                1.00549160                1.00000000               -0.02026343               -0.16065783                0.69211685                0.29396096               -0.03901862               -0.29110423
               0.99988426               10.00320191                0.99405521                0.83519956                0.06816240                0.27807165               -0.95804161                0.11863381                0.69561675                0.13126529
               2.00145014               10.00338981                0.99650290                0.53777002                0.04603679                0.23441138               -2.97277570               -0.12396264                1.71040234                0.41533829
               3.00080500               10.00055192                0.99995980                0.44132109               -0.05743340                0.01727519               -1.31629635               -0.11758848                2.97818757                0.27300135
               4.00030148               10.00010573                0.99995924                0.42669784               -0.03397410                0.00613120                0.04142281               -0.01172593                3.30139046               -0.07230099
               5.00012552               10.00002205                0.99999851                0.44071547               -0.00946176                0.00141468                0.73680831               -0.00261761                3.47297837               -0.46847626
               6.00011224                9.99997992                1.00000956                0.47579371                0.00491470               -0.00123739                1.54974857               -0.00300599                3.34793415               -0.84794046
               7.00022381                9.99989128                1.00004793                0.54541101                0.01779276               -0.00517273                6.23713185               -0.01998652                2.26835996               -0.17763398
               8.00046810                9.99936429                1.00024785                0.69109091                0.01221310               -0.03959964                4.54544824               -0.07585954                1.91212324                0.01849533
               9.00046807                9.99826447                1.00427806                0.99324703               -0.00739732               -0.25449536                1.48404296                0.12367650                1.29498737                0.06199273
              10.00032015               10.00394339                0.99540229                1.00000000               -0.01479221                0.17295794               -0.82635944                0.31200720                0.56306362                0.24754441
               0.01456222                0.02350365                2.04944265                1.00000000               -0.58114335               -0.68620183                2.44533725               -0.16585698               -0.43082105                0.34988431
               1.00875079                0.01449098                2.03286177                1.00000000               -0.46371218               -0.46335518                1.66202690               -0.17134593               -0.39922860                0.05098318
               2.00528798                0.00533262                2.01618696                0.75932666               -0.12941857               -0.31249529                0.92204672               -0.06438173               -0.33542991               -0.22611398
               3.00616241               -0.00181615                2.00181416                0.54047125                0.33989496               -0.13414368                0.15472114                0.15368186                0.19712682               -0.14239891
               4.01208587               -0.00350772                1.99586386                0.45114800                0.50443809                0.00103706               -0.32903874                0.10679258                1.30023386               -0.10191462
               5.01625118               -0.00064733                1.99797361                0.45081418                0.11782361                0.05356658               -0.22282901                0.03864942                1.95410181                0.00038229
               6.01444235                0.00178531                1.99900165                0.52900916               -0.26936565                0.14701379               -0.18344868                0.05816313                1.42229544                0.08220044
               7.01086386               -0.00071089                1.99105967                0.70083103               -0.14992457                0.34732211               -0.76388119                0.07815702                0.38306897                0.12724836
               8.01144386               -0.00858409                1.97353861                1.00000000                0.32080418                0.52475528               -1.55949992                0.02071980               -0.13368601               -0.00073131
               9.01727995               -0.01827330                1.95449516                1.00000000                0.68682181                0.59127414               -2.26026031               -0.11272072               -0.10374075                0.11860211
              10.02518029               -0.02657316                1.93714609                1.00000000                0.79003451                0.80963108               -2.96345130               -0.08285679               -0.10947419               -0.24224532
               0.02191632                1.01664163                2.04348436                1.00000000               -0.57934775               -0.62816659                2.29652837               -0.08534031               -0.01211012                0.49488275
               1.01612284                1.00985743                2.02747301                1.00000000               -0.45592977               -0.42534601                1.52129694               -0.11205667                0.03984517                0.11371483
               2.01279772                1.00220767                2.01167139                0.38639228               -0.20017201               -0.30883607                0.73360849                0.02953757                0.32051702               -0.33199501
               3.01211940                0.99684241                2.00152636                0.01619710               -0.01141674               -0.29958987                0.07748731                0.53234052                0.85147625               -0.68729062
               4.01256939                0.99650265                1.99723427                0.00010000                0.09358776                0.11963954               -0.31648964                0.82664888                1.40170384               -0.10038290
               5.01399116                0.99988834                1.99828922                0.00010000                0.12431858                0.12888498               -0.20989209                0.83261008                1.69480907                0.07559051
               6.01505576                1.00325545                1.99814319                0.01167680                0.14194885                0.15325316               -0.17761527                0.78391655                1.51002825                0.30171699
               7.01683013                1.00276233                1.99195563                0.27625872                0.26882488                0.40843229               -0.71573271                0.65610232                0.89953916                0.40852904
               8.02043226                0.99666347                1.97577767                0.78472295                0.41585708                0.43395914               -1.55415732                0.13184764                0.56987423               -0.12514748
               9.02514727                0.98763944                1.96112837                1.00000000                0.61096633                0.53966781               -2.25137961               -0.21488358                0.51546362               -0.04383421
              10.03265158                0.98152315                1.94367735                1.00000000                0.75043096                0.79905966               -2.80139385               -0.05354782                0.26989930               -0.69386808
               0.02642382                2.01094032                2.04034593                1.00000000               -0.54802021               -0.48706394                2.07786043               -0.14357763                0.19744251                0.57487095
               1.02094362                2.00598406                2.02312117                1.00000000               -0.37650383               -0.32896517                1.29593930               -0.19083693                0.23378704                0.04458739
               2.01889374                1.99915590                2.00488427                0.19901075                0.07853105               -0.25806499                0.31369060               -0.14963803                0.43926067               -0.57715557
               3.02251424                1.99219205                1.99076168                0.00010000                0.33395918               -0.26164929               -0.54713939                0.80581942                1.81236704               -1.17122452
               4.02557292                1.99888507                1.99937307                0.00010000                0.18181722                0.16248366               -0.20279197                1.55049231                2.92234928                0.03097885
               5.02615058                2.00193037                2.00022408                0.00010000                0.08368803                0.18014870               -0.05418089                1.36596756                2.69473975                0.27936171
               6.02724669                2.00485037                2.00070181                0.00010000                0.22136562                0.17212995               -0.03204864                1.29895248                2.56909792                0.55968485
               7.03057789                2.00745776                1.99675286                0.12109873                0.09785052                0.41689967               -0.18601945                0.55638970                1.52820600                1.22970982
               8.02920370                2.00009510                1.97614533                0.46459129               -0.12276535                0.44707300               -1.22456751               -0.31849037                1.04247253                0.74994553
               9.02812259                1.99252006                1.96516847                1.00000000                0.35691105                0.40494495               -2.20090465               -0.40613248                0.90154619               -0.28576176
              10.03634192                1.98940804                1.94110033                1.00000000                0.82193300                0.64280104               -2.97301098               -0.26418598                0.01703581               -1.46303830
               0.02895728                3.00690035                2.03783080                1.00000000               -0.48667595               -0.34007676                1.89373819               -0.18258774                0.21780523                0.49923988
               1.02409052                3.00327812                2.01750708                0.93749227               -0.26801556               -0.22537162                1.01674876               -0.24916641                0.28626234               -0.14543848
               2.02359697                2.99704637                1.99629115                0.15534567                0.22080458               -0.16723688               -0.22261615               -0.21789469                0.60396013               -0.82701476
               3.02850661                2.99160943                1.98071849                0.00010000                0.51219717                0.10078023               -1.21560830                0.76333556                2.70449249               -0.80965047
               4.03384091                2.99975233                1.99860878                0.00010000                0.34192965                0.08420841               -0.32992594                1.36697005                4.12763744               -0.02344120
               5.03534521                3.00349131                2.00167342                0.00010000                0.08332568                0.13149918                0.09485828                1.18522030                3.63401264                0.38029411
               6.03550743                3.00669805                2.00412650                0.00010000               -0.13159996                0.18072574                0.39393232                1.14931337                3.83332069                0.77117108
               7.03271321                3.01110032                2.01030404                0.11398684               -0.32536394                0.31229178                0.81975517                0.27563882                2.74020774                1.73928489
               8.02900015                3.00560492                1.99368174                0.43461834               -0.25007610                0.45558959               -0.35486095               -0.80863639                0.83406898                1.64074589
               9.02771168                2.99573834                1.96488868                1.00000000                0.22958817                0.38236772               -2.03563550               -0.59817747                0.00075916                0.03565205
              10.03359191                2.99437917                1.93071882                1.00000000                0.58802263                0.45930757               -3.50007078               -0.35488940               -0.48171527               -1.03691253
               0.03001652                4.00413878                2.03514109                1.00000000               -0.42022453               -0.22539268                1.72992050               -0.19969710                0.13457965                0.37988336
               1.02581427                4.00147663                2.01090020                0.88378448               -0.19059864               -0.14152384                0.67403640               -0.28002147                0.17200244               -0.23464722
               2.02620454                3.99581116                1.98524415                0.13275920                0.46303575               -0.08155261               -0.85099597               -0.13894901                1.09384649               -0.97489656
               3.03507499                3.99420766                1.97749904                0.00010000                0.74129470                0.25463279               -1.61653212                0.85897515                3.63552620               -0.31176689
               4.04103044                4.00056924                1.99795768                0.00010000                0.39171390                0.08861126               -0.39972613                1.19786968                4.92418880                0.07986429
               5.04290927                4.00456036                2.00334050                0.00010000                0.07967511                0.08173088                0.27097328                1.10857837                4.48841494                0.47315168
               6.04262394                4.00846489                2.00871217                0.00010000               -0.28627359                0.12560123                0.87434900                1.14958013                4.85985364                0.91075749
               7.03718379                4.01370359                2.02180146                0.11590831               -0.71154955                0.23045031                1.85401622                0.47141134                3.72655012                1.83645642
               8.02839295                4.00920689                2.01029656                0.43503462               -0.48995025                0.30969919                0.53554655               -0.70429180                0.99797237                1.71689741
               9.02738479                4.00016741                1.97296777                1.00000000                0.17847583                0.39386968               -1.55183172               -0.52940381               -0.38247820                0.63047063
              10.03196247                3.99859419                1.93374053                1.00000000                0.45776781                0.36175629               -3.34561575               -0.24823787               -0.65935835               -0.07865684
               0.03028765                5.00239250                2.03209840                1.00000000               -0.34699348               -0.13780554                1.56854121               -0.18626593                0.08748239                0.27426629
               1.02681771                5.00044765                2.00476649                0.84588134               -0.11003442               -0.07424446                0.32486354               -0.26348280                0.03865174               -0.24224761
               2.02808696                4.99541531                1.97438706                0.11787419                0.70551603               -0.00027657               -1.47937675               -0.01842742                1.66019533               -0.95890171
               3.04092803                4.99670208                1.97712444                0.00010000                0.96793233                0.22391869               -1.83815525                0.84139629                4.56055366               -0.04096532
               4.04744561                5.00152455                1.99801363                0.00010000                0.43465459                0.07639696               -0.38895798                1.01169153                5.53355631                0.17986473
               5.04962113                5.00512593                2.00531089                0.00010000                0.09550940                0.01912734                0.47658550                1.01553780                5.23056966                0.52007968
               6.04935579                5.00921007                2.01329216                0.00010000               -0.41108447                0.01975577                1.37539939                1.17022798                5.87553629                0.93578178
               7.04139944                5.01570933                2.03503057                0.12206014               -1.04526517                0.14454688                2.92594945                0.53153463                4.67458122                2.08266061
               8.02845049                5.01179891                2.02759687                0.44482165               -0.68315636                0.18771367                1.44990632               -0.56595119                1.14863542                1.81005655
               9.02773631                5.00361574                1.98377728                1.00000000                0.16615579                0.27166204               -0.94167998               -0.43839231               -0.65853641                0.86929571
              10.03177361                5.00161430                1.94075819                1.00000000                0.40372973                0.24183730               -2.99413740               -0.19376970               -0.78621137                0.28764386
               0.03018090                6.00138267                2.02889310                1.00000000               -0.26591000               -0.07822193                1.40546666               -0.16038190                0.05061033                0.19051195
               1.02752180                5.99999174                1.99900245                0.81999081               -0.02996694               -0.01850545               -0.01776490               -0.21704687               -0.09812571               -0.23176705
               2.02958156                5.99580563                1.96414229                0.10839164                0.91359376                0.09034503               -2.07886506                0.06771382                2.23154166               -0.87443319
               3.04579367                5.99868603                1.97798840                0.00010000                1.16294299                0.17634354               -1.93978274                0.74585796                5.44160208                0.10613781
               4.05284042                6.00209718                1.99846110                0.00010000                0.48704126                0.02638669               -0.33335350                0.79658551                6.02862506                0.22744585
               5.05553450                6.00494290                2.00741485                0.00010000                0.13023399               -0.06744140                0.69689456                0.87784521                5.88484624                0.49753768
               6.05544510                6.00886000                2.01789187                0.00010000               -0.51544248               -0.10808681                1.89255932                1.14481166                6.92948186                0.88105954
               7.04522565                6.01659453                2.05064109                0.13117888               -1.31387898               -0.00785860                4.04327284                0.53834947                5.56667114                2.29652684
               8.02916752                6.01296116                2.04477986                0.46139078               -0.82120495                0.02073960                2.37014313               -0.45373112                1.20067943                1.78357469
               9.02880155                6.00560065                1.99549917                1.00000000                0.14612126                0.13040620               -0.28514275               -0.35213590               -0.85739305                0.95314199
              10.03208995                6.00343093                1.94965478                1.00000000                0.32883947                0.12727672               -2.54716311               -0.17526826               -0.82540269                0.46737106
               0.02986188                7.00082806                2.02551657                1.00000000               -0.18080583               -0.04929203                1.23712305               -0.12376143                0.02417501                0.11003353
               1.02805382                7.00007754                1.99365459                0.80646266                0.04425335                0.04117165               -0.34569191               -0.14274858               -0.22513369               -0.19307953
               2.03074694                6.99722221                1.95484100                0.10367470                1.07499115                0.21621958               -2.63085384                0.09977729                2.73606513               -0.69788623
               3.04955364                7.00022895                1.97880544                0.00010000                1.31867499                0.15250688               -1.98911098                0.55665085                6.22165201                0.14162509
               4.05712044                7.00205229                1.99903639                0.00010000                0.54307827               -0.03919296               -0.26740608                0.53594779                6.44653731                0.21392974
               5.06041521                7.00377710                2.00945592                0.00010000                0.17399793               -0.18278449                0.91233167                0.67684788                6.44673822                0.39437251
               6.06060040                7.00704834                2.02229604                0.00010000               -0.61749680               -0.27218967                2.41412045                1.03520497                8.03960226                0.71284844
               7.04806527                7.01555216                2.06893488                0.14385481               -1.51153288               -0.25254369                5.16929489                0.43818072                6.37499111                2.44212144
               8.03036974                7.01221370                2.06097223                0.48567444               -0.89207256               -0.18384199                3.24919448               -0.33076183                1.08610135                1.59840831
               9.03022382                7.00622386                2.00699411                1.00000000                0.11189697               -0.00348563                0.36439137               -0.25360162               -1.00205171                0.90556414
              10.03260768                7.00415983                1.95907632                1.00000000                0.23838644                0.02876810               -2.06991017               -0.15437617               -0.80975292                0.53574101
               0.02920671                8.00039683                2.02187671                1.00000000               -0.09340404               -0.06876677                1.06204665               -0.07954781                0.00347857                0.01965447
               1.02827267                8.00081517                1.98878899                0.81173629                0.11094893                0.12444492               -0.65062599               -0.04850186               -0.32487442               -0.12517919
               2.03142569                8.00013002                1.94713135                0.10585689                1.19119740                0.37489644               -3.09524708                0.07515035                3.10073886               -0.34020827
               3.05209662                8.00173617                1.97858498                0.00010000                1.42927676                0.19041573               -2.05341244                0.24100560                6.81148074                0.04607575
               4.06001123                8.00131332                1.99945446                0.00010000                0.59893931               -0.10484740               -0.22326530                0.21571010                6.80514095                0.14600331
               5.06407541                8.00128721                2.01126168                0.00010000                0.21814585               -0.34525126                1.10287307                0.38559573                6.90267207                0.19183840
               6.06437414                8.00341621                2.02609414                0.00010000               -0.76257530               -0.51220793                2.90819302                0.82286586                9.22650704                0.38400968
               7.04882390                8.01154366                2.09032881                0.16394415               -1.62467802               -0.54402123                6.22021790                0.26133085                7.05540067                2.42377674
               8.03188058                8.00928432                2.07493787                0.52512724               -0.85202573               -0.37754150                4.02364972               -0.16870434                0.72510625                1.20355641
               9.03178339                8.00553094                2.01734577                1.00000000                0.06249464               -0.14954383                0.96050854               -0.12638451               -1.08755853                0.69887356
              10.03313048                8.00400629                1.96836628                1.00000000                0.13470899               -0.01531349               -1.59557784               -0.13312466               -0.74451435                0.55396449
               0.02743424                8.99945272                2.01785646                1.00000000               -0.00836488               -0.13985415                0.89643989               -0.04434383               -0.02153193               -0.05015249
               1.02735059                9.00256644                1.98451438                0.82352151                0.19473569                0.24562739               -0.93654726               -0.00521088               -0.33012725               -0.04937252
               2.03132895                9.00472014                1.94299337                0.11742629                1.29199304                0.59392648               -3.39547810               -0.08257020                3.19520063                0.06824996
               3.05319045                9.00403727                1.97572847                0.00010000                1.52773230                0.20721790               -2.17802240               -0.03770038                7.03338441                0.00757294
               4.06188360                8.99995534                1.99979222                0.00010000                0.64168902               -0.13407386               -0.21499893               -0.05936541                7.19310762                0.03987943
               5.06602423                8.99687208                2.01257225                0.00010000                0.24588391               -0.53211635                1.25473464                0.10913401                7.21852446               -0.04122291
               6.06680128                8.99680418                2.02826360                0.00010000               -0.93002266               -1.01957618                3.36089952                0.51673873               10.42698396                0.02034872
               7.04742378                9.00467173                2.11324115                0.19332698               -1.68964527               -0.75888565                6.95464934                0.20818515                7.56212457                1.65831860
               8.03300837                9.00466287                2.08493527                0.58275864               -0.72248116               -0.47829093                4.58528739                0.03464965                0.09639164                0.67928403
               9.03297415                9.00323298                2.02499946                1.00000000               -0.00069443               -0.36052848                1.44275394               -0.09236933               -1.08967453                0.38075993
              10.03299448                9.00385356                1.97724898                1.00000000                0.00203281                0.06941697               -1.16247807               -0.14382452               -0.56291695                0.43996642
               0.02209241                9.99759975                2.01384234                1.00000000                0.08086248               -0.18529766                0.65505352                0.27861437               -0.02584611               -0.04043545
               1.02290103               10.00572772                1.98083917                0.89641933                0.31055228                0.31612818               -1.18492464                0.27548474               -0.31106106               -0.03869850
               2.02830346               10.01200855                1.94054449                0.56226982                1.66031916                0.72884066               -3.51757611               -0.29490922                3.14841601                0.23119971
               3.05610742               10.00588053                1.97367407                0.44965484                1.88428264                0.18432579               -2.23800258               -0.37713841                7.29688203               -0.06569286
               4.06598911                9.99863184                2.00082846                0.42874041                0.66509141               -0.13234930               -0.19552406               -0.35123088                7.63293793               -0.15707090
               5.06940925                9.99064489                2.01473617                0.44859906                0.04600764               -0.62271910                1.32793187               -0.44185624                7.48310664               -0.25099872
               6.06690926                9.98302469                2.03099497                0.50238967               -1.21401677               -1.37794903                3.54694030                0.29685131               10.92746696               -0.26101824
               7.04512891                9.99636594                2.12474264                0.60643109               -1.64484671               -0.83057920                7.31896557                0.60520412                7.74036645                0.81990031
               8.03401233                9.99971850                2.09090896                0.80696254               -0.71918024               -0.49443687                4.94915291                0.19811707               -0.17343801                0.39156769
               9.03074531                9.99832037                2.02968086                1.00000000               -0.24997511               -0.49126123                1.84691593                0.06092183               -1.06197661                0.25453707
              10.02901282               10.00539463                1.98347281                1.00000000               -0.17324814                0.15410701               -0.70998486                0.30926055               -0.38104871                0.25643887
               0.03123444                0.03382019                3.07393991                1.00000000               -0.60723287               -0.70609638                2.46084161               -0.21069575               -0.35626419                0.39833338
               1.02516211                0.02102557                3.04970739                1.00000000               -0.45658213               -0.47789360                1.67832806               -0.17417091               -0.37828151                0.00141188
               2.02210280                0.00808037                3.02516815                0.73981841               -0.08827751               -0.27092228                0.89471044               -0.03604061               -0.24351757               -0.31143989
               3.02339656               -0.00212968                3.00323887                0.53476460                0.39760640               -0.08725382                0.16845669                0.19237957                0.51704621               -0.09405707
               4.03005493               -0.00513403                2.99312358                0.44955778                0.65081478               -0.06237151               -0.23957001                0.22075815                1.81928741               -0.04084746
               5.03641286               -0.00069870                2.99544743                0.45041212                0.28085629               -0.00782112               -0.27395369                0.11242030                2.54823386                0.02326635
               6.03567205                0.00343336                2.99628945                0.52958808               -0.18038863                0.10070781               -0.34475521                0.16443552                1.89776302                0.08406585
               7.03280509                0.00001567                2.98374935                0.69929713               -0.12298656                0.23287499               -0.76728787                0.18662145                0.73332118                0.09746107
               8.03321232               -0.00986074                2.96068580                0.99189853                0.24124275                0.35235094               -1.34464950               -0.01796280                0.03133343                0.23024148
               9.03762994               -0.02299110                2.93421090                1.00000000                0.59304296                0.61594452               -2.10578456               -0.17932956               -0.20154012                0.08570476
              10.04507318               -0.03568486                2.90748753                1.00000000                0.74432402                0.92850911               -2.97229002               -0.20453498               -0.23546641               -0.30488458
               0.04192210                1.02675922                3.06645493                1.00000000               -0.56317899               -0.64635114                2.27684698               -0.11978806               -0.00770283                0.53205045
               1.03629031                1.01624663                3.04203522                1.00000000               -0.43010447               -0.42543027                1.44051463               -0.08800306                0.03141995               -0.00815019
               2.03332001                1.00537114                3.01812817                0.35656469               -0.21813779               -0.22263128                0.63216349                0.07971120                0.43594900               -0.50023017
               3.03192756                0.99699779                3.00157445                0.01094402               -0.08864967               -0.03159342                0.02335805                0.39673471                1.18399050               -0.62997872
               4.03154702                0.99424225                2.99365277                0.00010000                0.06629051                0.21315750               -0.33941259                1.07063729                2.04022682                0.00105688
               5.03325337                0.99922309                2.99577295                0.00010000                0.27061019                0.14313077               -0.26461658                1.32520637                2.49002886                0.11263482
               6.03695922                1.00444043                2.99638195                0.02287543                0.40324892                0.08750008               -0.22385647                1.12924240                2.05575236                0.20433173
               7.04131835                1.00234442                2.98527455                0.29054816                0.37884268                0.30178813               -0.62298060                0.61281143                1.26086423                0.51798645
               8.04453608                0.99366277                2.96617851                0.77233144                0.37151804                0.30857152               -1.01310000                0.08786100                0.61429142                0.39344075
               9.04874871                0.98316834                2.94141253                1.00000000                0.55927567                0.57541656               -1.91544239               -0.00216123                0.21719493                0.12554394
              10.05572159                0.97360023                2.91447522                1.00000000                0.69728843                0.87781074               -2.80868793               -0.05527091                0.06494510               -0.51463903
               0.04986386                2.02089316                3.06176865                1.00000000               -0.50737334               -0.52135612                2.09483356               -0.12853499                0.06072071                0.66549997
               1.04479013                2.01251696                3.03417508                0.97629538               -0.34589980               -0.32571814                1.13371260               -0.09447906                0.09855600               -0.04391833
               2.04294587                2.00362774                3.00684001                0.17606237               -0.11649912               -0.12879322                0.24361228                0.10627244                0.58037020               -0.67831043
               3.04246015                1.99723846                2.98905828                0.00010000                0.31482515                0.00008474               -0.22793202                0.80450659                2.06123280               -0.96032686
               4.04924237                1.99912912                2.99596210                0.00010000                0.51293291                0.33304112               -0.34823024                1.76342010                3.26493501                0.04983820
               5.05271881                2.00216392                2.99891557                0.00010000                0.29466011                0.26163728               -0.18679396                2.00623902                3.09531332                0.29165919
               6.05513557                2.00518336                2.99935496                0.00010000                0.15600847                0.14561607               -0.12572952                1.75896868                2.89549068                0.51595654
               7.05583898                2.00605143                2.99618222                0.13410871               -0.04949786                0.36011532               -0.01631995                0.77595003                1.76065576                1.32666166
               8.05414562                1.99631069                2.97601550                0.45663332                0.09051416                0.22396822               -0.29894554                0.05011294                0.73400053                0.93927311
               9.05764926                1.98851723                2.94909155                1.00000000                0.44791882                0.44043329               -1.51815330                0.10095952                0.35696666                0.15106904
              10.06310399                1.98187135                2.91699672                1.00000000                0.54547331                0.67175757               -2.30825505               -0.04303938               -0.03513004               -0.87206329
               0.05610381                3.01633210                3.05712757                1.00000000               -0.44376527               -0.39743320                1.88056596               -0.09740721                0.06461805                0.61881879
               1.05166615                3.00973227                3.02566507                0.90100209               -0.26899196               -0.24050479                0.86005289               -0.05188716                0.12965540               -0.10670299
               2.05072397                3.00279528                2.99502870                0.13827446                0.04250789               -0.07624068               -0.07870199                0.07266547                0.70296911               -0.71485288
               3.05251631                2.99699948                2.97580463                0.00010000                0.55829977                0.00402481               -0.45965399                0.81967580                2.96006125               -0.64546125
               4.06188996                3.00090308                2.99340997                0.00010000                0.74037988                0.15238021               -0.47042927                1.55755348                4.49541357               -0.05907174
               5.06732391                3.00445583                3.00189995                0.00010000                0.31805601                0.18204520               -0.04085172                1.64492639                4.11989323                0.35458611
               6.06825108                3.00735275                3.00786647                0.00010000               -0.08069496                0.19092895                0.29976391                1.44269313                4.23243501                0.82716877
               7.06571001                3.00954672                3.01636378                0.13430547               -0.25892731                0.29165731                0.52152924                0.40969454                2.88278358                1.75306022
               8.06307254                2.99814214                2.99293288                0.43599230               -0.02513867                0.19423538               -0.13462761               -0.11717579                0.79356874                1.18657932
               9.06520724                2.99197701                2.95665490                0.99610734                0.25400101                0.25985007               -0.85535372                0.07324059                0.17614237                0.28772455
              10.06815256                2.98703538                2.91792880                1.00000000                0.29453201                0.37137022               -1.39448425               -0.02591131               -0.02798636               -0.76971163
               0.06111538                4.01294450                3.05219463                1.00000000               -0.38261758               -0.29129058                1.65949431               -0.07692627                0.06785343                0.54818262
               1.05728921                4.00770687                3.01682327                0.85453590               -0.19917099               -0.17301429                0.62937448               -0.02804989                0.12669788               -0.14702675
               2.05713196                4.00210293                2.98217356                0.11942139                0.17283302               -0.05775669               -0.29359294                0.07621651                1.13785425               -0.74050789
               3.06074587                3.99731895                2.96779719                0.00010000                0.79025616                0.08362949               -0.78568993                0.79372002                3.85676985               -0.27100652
               4.07293709                4.00217672                2.99201759                0.00010000                0.92108935                0.10948226               -0.53814171                1.46833443                5.44373972                0.10363622
               5.07916765                4.00580482                3.00542322                0.00010000                0.29807298                0.09312870                0.14793488                1.44875545                5.06368317                0.42076634
               6.07889855                4.00900194                3.01748293                0.00010000               -0.29620852                0.10788350                0.77081362                1.28740921                5.46197570                0.86889051
               7.07324348                4.01188458                3.03704328                0.14066269               -0.47633662                0.16084386                1.19207188                0.24432690                3.70379492                1.74563226
               8.06937181                4.00019540                3.01083185                0.44400491               -0.15113291                0.17756146                0.03150352               -0.32929364                0.87056440                1.11685629
               9.07022083                3.99371423                2.96686439                0.99997797                0.15486046                0.17153837               -0.57660260               -0.06803476                0.06042190                0.41815050
              10.07246902                3.98929876                2.92271289                1.00000000                0.22481969                0.20703708               -1.11140771               -0.02813021               -0.01792197               -0.46321553
               0.06504055                5.01050629                3.04710563                1.00000000               -0.30938206               -0.20842709                1.44801922               -0.07294997                0.06682069                0.47474632
               1.06194673                5.00627198                3.00798429                0.81864249               -0.12021688               -0.11095085                0.37322398               -0.01639123                0.11673198               -0.16284984
               2.06263621                5.00164015                2.96944239                0.10418879                0.31850946               -0.01451912               -0.51030465                0.13197919                1.72883821               -0.69860052
               3.06831692                4.99867207                2.96337749                0.00010000                1.00672866                0.15620739               -1.07197705                0.79631989                4.79784181               -0.02618281
               4.08277079                5.00309272                2.99223156                0.00010000                1.05784440                0.06812300               -0.54151652                1.30632507                6.19996506                0.21673524
               5.08947381                5.00631841                3.00953718                0.00010000                0.25743632                0.00011151                0.36991325                1.28219171                5.89159573                0.45049352
               6.08791951                5.00951042                3.02750557                0.00010000               -0.50353611               -0.01971070                1.27027723                1.15103116                6.61160298                0.86952407
               7.07940308                5.01276360                3.05849697                0.14858134               -0.66312509                0.00672315                1.78687471                0.17864588                4.44879982                1.72631375
               8.07465701                5.00169337                3.02908423                0.45605429               -0.23299492                0.10936037                0.16811431               -0.35840840                0.93803665                1.02779899
               9.07474319                4.99540778                2.97968187                1.00000000                0.08819457                0.15057210               -0.37908901               -0.08864150                0.01186716                0.47742255
              10.07642090                4.99117612                2.93109043                1.00000000                0.16777156                0.17240622               -0.95764910               -0.03307595               -0.02931303               -0.25062474
               0.06812500                6.00877596                3.04188735                1.00000000               -0.22974706               -0.15035705                1.23894819               -0.06298161                0.06871898                0.39476698
               1.06582753                6.00548785                2.99945180                0.79124295               -0.03767688               -0.04528887                0.10813037               -0.00041425                0.10447319               -0.15442290
               2.06737146                6.00181255                2.95737875                0.09166664                0.46960826                0.06324655               -0.73304379                0.17877335                2.38566842               -0.61935608
               3.07521969                6.00044310                2.96134693                0.00010000                1.20228959                0.18066927               -1.26567633                0.71590936                5.75159414                0.12650203
               4.09141725                6.00353918                2.99334286                0.00010000                1.15870474                0.01141165               -0.50098398                1.05588767                6.83541761                0.25030144
               5.09839379                6.00580705                3.01394371                0.00010000                0.20283635               -0.11340371                0.60990417                1.06900440                6.65020511                0.43136895
               6.09547398                6.00860772                3.03785075                0.00010000               -0.68801621               -0.17309841                1.77681498                0.98516626                7.74456983                0.84424264
               7.08463346                6.01201904                3.08085002                0.15836772               -0.79572537               -0.18021813                2.26629132                0.16912425                5.13933041                1.66907697
               8.07955947                6.00238261                3.04745504                0.47268719               -0.28341108                0.01301652                0.31791126               -0.29263765                0.92606733                0.92496527
               9.07896524                5.99672567                2.99350806                0.99935461                0.03556717                0.09790832               -0.18153336               -0.07769192               -0.03467802                0.46472557
              10.08027081                5.99274688                2.94126267                1.00000000                0.13055739                0.13815764               -0.82458889               -0.03293579               -0.02856586               -0.13804418
               0.07035713                7.00749915                3.03651720                1.00000000               -0.14552785               -0.12142597                1.03366438               -0.05183826                0.06959420                0.30817154
               1.06890186                7.00536620                2.99134555                0.77108818                0.04496463                0.02348448               -0.15997481                0.01818111                0.09027169               -0.12489394
               2.07125643                7.00290508                2.94629709                0.08113660                0.60033058                0.16868410               -0.95882676                0.17049721                3.02257159               -0.49293083
               3.08090847                7.00228546                2.96035834                0.00010000                1.36340807                0.18670042               -1.37759689                0.48415331                6.65533658                0.16021555
               4.09852459                7.00332095                2.99465974                0.00010000                1.24384435               -0.06555506               -0.44782760                0.69796693                7.39694419                0.21297587
               5.10578536                7.00405033                3.01825253                0.00010000                0.14431293               -0.25385120                0.84732413                0.79200273                7.37671890                0.36405399
               6.10141085                7.00604846                3.04828257                0.00010000               -0.83873361               -0.34512774                2.27071515                0.75904714                8.86636368                0.78081838
               7.08901068                7.00915924                3.10337793                0.17018283               -0.86566122               -0.39408147                2.56907375                0.18506275                5.77637101                1.52185686
               8.08409762                7.00195370                3.06498901                0.49387265               -0.30928048               -0.10860024                0.48469319               -0.16728037                0.82958748                0.77338316
               9.08282507                6.99736594                3.00733394                0.99852224               -0.01889275                0.02420268                0.03577880               -0.05213920               -0.07488201                0.40386689
              10.08371977                6.99393927                2.95210120                1.00000000                0.08946948                0.10677566               -0.68264961               -0.04046254               -0.02046192               -0.07537973
               0.07135412                8.00634744                3.03093226                1.00000000               -0.05688978               -0.12332857                0.83575205               -0.04644524                0.07318421                0.22413419
               1.07078522                8.00595754                2.98381803                0.75489918                0.12540176                0.10086797               -0.42989607                0.01964861                0.09521117               -0.08183594
               2.07386215                8.00518623                2.93691063                0.07254911                0.68508309                0.30462401               -1.19549648                0.05089218                3.54944273               -0.28379561
               3.08448688                8.00417711                2.95906309                0.00010000                1.48747800                0.15780363               -1.43145982                0.01705311                7.42319236                0.06306175
               4.10361171                8.00222808                2.99554068                0.00010000                1.35097288               -0.19264718               -0.41284995                0.26002539                7.93491748                0.10970488
               5.11150634                8.00073003                3.02206235                0.00010000                0.09671527               -0.41706891                1.05914586                0.48398134                8.08451246                0.26596830
               6.10554602                8.00170517                3.05816543                0.00140893               -0.95384305               -0.52750107                2.72500903                0.49721162                9.93856739                0.70133269
               7.09242948                8.00413741                3.12440071                0.18394066               -0.87694293               -0.52318384                2.55857750                0.20907200                6.37582717                1.14646783
               8.08800716                8.00021060                3.08044855                0.51929201               -0.32463000               -0.22894111                0.67445227               -0.02212532                0.68262201                0.51648257
               9.08593688                7.99720973                3.02024480                0.99842094               -0.08461294               -0.06382072                0.28125468               -0.03698158               -0.09399492                0.30602984
              10.08631490                7.99488239                2.96278504                0.99988890                0.03780225                0.09836654               -0.54111487               -0.06264032               -0.00691992               -0.06214847
               0.07020803                9.00503258                3.02513132                1.00000000                0.02480097               -0.13666158                0.64857656               -0.05379136                0.08453883                0.14797281
               1.07045604                9.00738356                2.97687547                0.71023422                0.19233354                0.19104157               -0.71945556                0.00703273                0.18656392               -0.04976213
               2.07405470                9.00899756                2.93044423                0.05926824                0.68758182                0.38626707               -1.50949471               -0.21103136                3.90501652               -0.05559398
               3.08420768                9.00544153                2.95660961                0.00010000                1.65587394               -0.04151232               -1.37339900               -0.37788793                8.00598454               -0.07053613
               4.10717218                8.99946801                2.99569819                0.00010000                1.58901102               -0.36681177               -0.42592721               -0.07230713                8.48858652               -0.01360901
               5.11598790                8.99570896                3.02510040                0.00010000                0.03877582               -0.50278932                1.21736816                0.20726101                8.79735491                0.15861903
               6.10794770                8.99549843                3.06721930                0.00051398               -1.06506050               -0.62041763                3.11995553                0.30478490               10.74002133                0.50419192
               7.09468669                8.99869556                3.13910022                0.18694703               -0.86824481               -0.54255483                2.15432092                0.22820538                6.83373350                0.58051000
               8.09058280                8.99737487                3.09162789                0.52445856               -0.36365184               -0.24811765                0.89915912                0.07239615                0.70519816                0.21276695
               9.08741365                8.99608953                3.03167340                0.99979788               -0.17305873               -0.16086546                0.61813916               -0.03702256               -0.02808616                0.19970428
              10.08712163                8.99590661                2.97237460                0.99967752               -0.02920246                0.08710570               -0.41520805               -0.07827369               -0.01798594               -0.09235044
               0.06557631               10.00361421                3.01859268                1.00000000                0.13845794               -0.14183694                0.38976652                0.15324457                0.22145261                0.14279030
               1.06696089               10.00977837                2.97035672                0.81842932                0.30036234                0.23948055               -1.04081300                0.11535332                0.43777974               -0.05581247
               2.07158356               10.01291157                2.92615138                0.51971469                0.97488881                0.39140117               -1.82213464               -0.56868953                4.28442598                0.00031906
               3.08645867               10.00334686                2.95519975                0.43798035                2.01572911               -0.20946667               -1.36771789               -0.67588694                8.49739296               -0.31125782
               4.11189814                9.99489185                2.99604876                0.42726392                1.65812327               -0.45761644               -0.51981378               -0.16103497                8.76779025               -0.10780664
               5.11962113                9.99067424                3.02655714                0.44731825               -0.16215161               -0.50347168                1.19616157                0.08357209                9.05554341                0.15836787
               6.10865511                9.98929681                3.07094837                0.49472187               -1.22519939               -0.62016207                3.22666897                0.20134501               11.22483210                0.68412775
               7.09511715                9.99328631                3.14642724                0.58242521               -0.82969978               -0.54092483                2.01937026                0.34061766                7.33807694                0.36191438
               8.09206111                9.99524825                3.09923091                0.74160057               -0.42262262               -0.21266238                1.16924566                0.18313659                0.91314512                0.06267730
               9.08666469                9.99399242                3.04121638                1.00000000               -0.34729212               -0.20971115                1.04433569               -0.00608272                0.23401749                0.24030614
              10.08511527                9.99662451                2.98120259                0.99999962               -0.15494219                0.07179031               -0.13910452                0.06257377                0.15141212               -0.17739778
               0.05590198                0.04644027                4.09865949                1.00000000               -0.59450710               -0.69863728                2.44908662               -0.18770183               -0.36920105                0.42937955
               1.04995691                0.02986355                4.06642834                1.00000000               -0.45079188               -0.46368209                1.66423142               -0.15071574               -0.36487640               -0.01702862
               2.04688614                0.01318378                4.03408117                0.72917819               -0.07044992               -0.26525789                0.89707469               -0.00246713               -0.19991941               -0.37156503
               3.04854791               -0.00036846                4.00518329                0.53050984                0.46884568               -0.12081182                0.21408013                0.24433027                0.73880787               -0.07082589
               4.05626306               -0.00538303                3.99107246                0.44982183                0.77510371               -0.09316960               -0.18820978                0.26800832                2.34218279               -0.03768576
               5.06404998               -0.00083303                3.99249454                0.45300514                0.39163196               -0.04940759               -0.30676257                0.13449020                3.14254296                0.02099429
               6.06409569                0.00328164                3.99210655                0.53317829               -0.14580235                0.09949355               -0.45372925                0.20839913                2.31634254                0.06016086
               7.06113394               -0.00181207                3.97571391                0.70076344               -0.12433601                0.25012582               -0.84781507                0.19937639                0.89803677                0.07278818
               8.06160897               -0.01496467                3.94664562                0.98634528                0.26567359                0.41672507               -1.45609844                0.03959227                0.02840828                0.24354894
               9.06644741               -0.03096248                3.91237946                1.00000000                0.61543561                0.62321470               -2.19634159               -0.10937187               -0.22423733                0.06920460
              10.07391769               -0.04664621                3.87770029                1.00000000                0.74702772                0.83674038               -2.93325389               -0.17763075               -0.24754670               -0.33535771
               0.07060168                1.03945390                4.08902130                1.00000000               -0.55236874               -0.64312964                2.22872900               -0.07654757               -0.00431792                0.58275943
               1.06507800                1.02522673                4.05628330                1.00000000               -0.43121051               -0.41938552                1.42548627               -0.05181169                0.04352541               -0.02750827
               2.06197747                1.01053120                4.02431466                0.32727575               -0.24016882               -0.22473097                0.64165126                0.09642515                0.55220659               -0.61428386
               3.06027462                0.99842343                4.00199352                0.00010000               -0.14010242               -0.04381050                0.07039527                0.46114829                1.53202227               -0.72439138
               4.05917542                0.99368527                3.99044602                0.00010000                0.03939661                0.27538308               -0.28484986                1.25003726                2.70502423                0.06127429
               5.06106255                0.99867290                3.99299689                0.00048657                0.37468914                0.12347922               -0.27873715                1.56026517                3.32881938                0.13537416
               6.06666921                1.00427657                3.99366606                0.02337525                0.55941524                0.02016734               -0.30016688                1.29052250                2.64989762                0.20099260
               7.07225086                1.00068919                3.97949602                0.28091078                0.49554465                0.23569123               -0.61399866                0.64612684                1.55153803                0.73921294
               8.07658010                0.98920258                3.95551567                0.74116173                0.44718029                0.35454262               -1.13930699                0.19729428                0.73299723                0.57318444
               9.08119446                0.97526967                3.92281953                1.00000000                0.56225087                0.56307736               -1.85377886                0.01759516                0.20422747                0.14469686
              10.08782512                0.96172119                3.88750359                1.00000000                0.66306554                0.75797031               -2.60619444               -0.05928373                0.05349884               -0.52417787
               0.08282537                2.03357768                4.08224260                1.00000000               -0.49819978               -0.53015744                2.01807185               -0.08153658                0.06264514                0.72396288
               1.07784337                2.02147584                4.04579543                0.95390847               -0.36037106               -0.33654263                1.17529155               -0.05920077                0.09295747               -0.07989722
               2.07561795                2.00868916                4.00975651                0.16113928               -0.16132820               -0.15577195                0.34150269                0.14094090                0.71267780               -0.89191060
               3.07461681                1.99875533                3.98620304                0.00010000                0.26981917                0.07689326               -0.26753653                1.02437069                2.78112147               -1.30960537
               4.08101433                2.00012463                3.99240846                0.00010000                0.50235904                0.44150671               -0.30533188                2.06798311                4.10427200                0.04358277
               5.08466399                2.00163656                3.99648820                0.00010000                0.34377615                0.27012453               -0.24034732                2.28921893                3.87137510                0.32072546
               6.08788985                2.00368499                3.99818722                0.00010000                0.22332411                0.04184432               -0.14586519                2.01441411                3.66324464                0.60423354
               7.08913047                2.00290175                3.99642646                0.13267616                0.15422621                0.23056408               -0.08276855                1.07463999                2.39960691                1.69424783
               8.09097438                1.99212618                3.97016641                0.44376490                0.25751168                0.26587929               -0.68380813                0.26988094                0.94941604                1.21040520
               9.09428070                1.98029907                3.93480540                1.00000000                0.44272992                0.42251598               -1.42099039                0.07155842                0.27247197                0.24718820
              10.09982898                1.96851319                3.89493523                1.00000000                0.55482732                0.57737891               -2.15061040               -0.04562405                0.04603496               -0.72018007
               0.09317463                3.02885075                4.07544212                1.00000000               -0.43921346               -0.42266528                1.80504054               -0.07094072                0.06092113                0.69011011
               1.08878250                3.01849588                4.03470814                0.88917902               -0.28289178               -0.26294831                0.91790528               -0.04545290                0.10828646               -0.13414518
               2.08751680                3.00741576                3.99471711                0.12892169                0.02720346               -0.10509242                0.02156209                0.19175892                0.96163985               -0.96241718
               3.08932657                2.99996129                3.97152541                0.00010000                0.50685346                0.12296663               -0.36100356                1.14245968                3.81283861               -0.89432311
               4.09765386                3.00251541                3.98920019                0.00010000                0.69800051                0.18478752               -0.34516404                1.76894829                5.45593916               -0.10893587
               5.10328658                3.00407539                4.00085639                0.00010000                0.40192139                0.18509481               -0.11253953                1.83258280                5.03782362                0.42109820
               6.10569229                3.00511346                4.01012178                0.00010000                0.10079427                0.12593081                0.14806689                1.67893134                5.10680423                1.01876665
               7.10530246                3.00530047                4.02073462                0.13835395               -0.05559447                0.17906486                0.30457713                0.90935023                3.36764836                1.98159383
               8.10458040                2.99452016                3.99098919                0.42998908                0.04680795                0.16332439               -0.22454571                0.17141345                0.83180859                1.50272247
               9.10623862                2.98371999                3.94778161                0.97933562                0.29519966                0.26021905               -0.93416936                0.05900407                0.06712514                0.32926924
              10.11048440                2.97326877                3.90282914                1.00000000                0.42457760                0.38275264               -1.58037076               -0.04121985                0.04714973               -0.68473084
               0.10211630                4.02512437                4.06833098                1.00000000               -0.37470033               -0.33280229                1.59057697               -0.05614482                0.06107281                0.63540227
               1.09836930                4.01621687                4.02348769                0.84718026               -0.20642956               -0.19668794                0.67530054               -0.02519811                0.11061283               -0.16360531
               2.09798771                4.00658731                3.97937229                0.11243680                0.19985298               -0.05888275               -0.24426714                0.23757634                1.45519180               -0.98026557
               3.10236636                4.00121467                3.96178525                0.00010000                0.71457454                0.13336947               -0.47068536                1.10011006                4.93318351               -0.39340702
               4.11227920                4.00382038                3.98719485                0.00010000                0.81756163                0.10092901               -0.36522436                1.58775686                6.60019098                0.06030062
               5.11871759                4.00533845                4.00629920                0.00010000                0.39820988                0.07699606                0.06477742                1.56378385                6.21993661                0.51165493
               6.12024340                4.00620360                4.02412845                0.00010000               -0.04034102                0.05596358                0.51785517                1.40401852                6.50448255                1.10268375
               7.11791077                4.00648305                4.04564290                0.14796944               -0.21301360                0.05641990                0.69160380                0.63416875                4.16267372                1.93953392
               8.11598313                3.99539267                4.01092663                0.44239763               -0.05992937                0.06057664                0.02498957                0.02331575                0.76075150                1.40415301
               9.11671218                3.98550345                3.96143572                0.98688304                0.19619499                0.14002619               -0.58852330                0.02522040                0.00898301                0.43151323
              10.11990703                3.97616824                3.91151238                1.00000000                0.31948437                0.23916318               -1.20536121               -0.03922879                0.04326592               -0.53288541
               0.10986673                5.02219470                4.06105879                1.00000000               -0.30511420               -0.26289686                1.37597216               -0.04775533                0.05836071                0.57936992
               1.10681559                5.01456212                4.01223097                0.81161643               -0.12981037               -0.13374236                0.43270792               -0.01030179                0.10890748               -0.17372235
               2.10727053                5.00623811                3.96418097                0.09763039                0.36400537               -0.00117548               -0.50341904                0.27393258                2.10737883               -0.93845222
               3.11409570                5.00262868                3.95568490                0.00010000                0.90073442                0.15102756               -0.58893798                1.03954883                6.10317835               -0.04528124
               4.12528522                5.00453399                3.98718330                0.00010000                0.90416661                0.04273234               -0.36222835                1.38297100                7.58479475                0.21098996
               5.13217903                5.00561531                4.01270916                0.00010000                0.36714242               -0.02417587                0.27310785                1.35059328                7.30583181                0.56454082
               6.13262806                5.00623273                4.03869770                0.00010000               -0.16911316               -0.06178748                0.90048902                1.20001778                7.83158741                1.10207435
               7.12879677                5.00642887                4.07076806                0.15713566               -0.33008731               -0.06939725                1.01548906                0.49980818                4.91002685                1.88695704
               8.12602632                4.99573170                4.03095916                0.45589678               -0.14146584                0.00815094                0.22040631               -0.04303293                0.71493431                1.33982962
               9.12596745                4.98652051                3.97619550                1.00000000                0.11719590                0.08698240               -0.36288821               -0.00457425               -0.01838860                0.50207712
              10.12837024                4.97805203                3.92160521                1.00000000                0.24027837                0.17455144               -0.98760193               -0.04172838                0.03071516               -0.36965520
               0.11642637                6.01986644                4.05367207                1.00000000               -0.23065113               -0.21240644                1.16248624               -0.04592406                0.05478772                0.51898199
               1.11411986                6.01354203                4.00116505                0.78181983               -0.05132853               -0.06743411                0.18044815               -0.00194303                0.10461937               -0.16329137
               2.11539980                6.00656380                3.94948141                0.08401617                0.53707996                0.07968038               -0.77832805                0.28041229                2.87091583               -0.85379766
               3.12486146                6.00423522                3.95267487                0.00010000                1.07760977                0.15442151               -0.66553432                0.91566225                7.29431728                0.17669253
               4.13695199                6.00467503                3.98844142                0.00010000                0.95846274               -0.02100051               -0.33601833                1.12498209                8.42982958                0.26980521
               5.14403071                6.00485494                4.01961293                0.00010000                0.32391009               -0.13378818                0.49344348                1.12202720                8.32398469                0.56591353
               6.14343019                6.00496785                4.05342817                0.00010000               -0.28113716               -0.19413546                1.26310473                1.02071885                9.12800695                1.06681822
               7.13840797                6.00509511                4.09596691                0.16668097               -0.41996867               -0.19951306                1.27286539                0.43386602                5.62795591                1.80884977
               8.13503082                5.99555569                4.05113809                0.47155375               -0.20538017               -0.05219232                0.41260491               -0.04364203                0.66273744                1.24695991
               9.13430036                5.98724310                3.99186850                0.99938182                0.04893023                0.05219747               -0.16514034               -0.01249428               -0.03002515                0.51730506
              10.13600943                5.97965927                3.93316300                1.00000000                0.17090616                0.15389186               -0.82147179               -0.04369885                0.01910727               -0.24749301
               0.12159707                7.01794657                4.04618986                1.00000000               -0.15177108               -0.18005191                0.95293864               -0.04968913                0.05243278                0.45764740
               1.12007936                7.01321343                3.99045510                0.75523451                0.02942531                0.00532484               -0.08251747               -0.00180963                0.10482569               -0.13683664
               2.12218558                7.00783172                3.93566446                0.07084328                0.71091795                0.18715792               -1.07133596                0.21366822                3.65525416               -0.72216069
               3.13429772                7.00571711                3.95125350                0.00010000                1.24897801                0.12554589               -0.72002800                0.66756124                8.45481002                0.23211746
               4.14716514                7.00411398                3.99007984                0.00010000                1.00145151               -0.11030300               -0.29971575                0.79903764                9.19915547                0.23668119
               5.15432675                7.00293955                4.02640240                0.00010000                0.28185650               -0.25481173                0.70578547                0.86731220                9.30438938                0.51774797
               6.15280227                7.00235002                4.06771034                0.00297033               -0.37202492               -0.32308565                1.58010639                0.84380016               10.39468829                0.98301299
               7.14688625                7.00243861                4.12031635                0.17613365               -0.48983929               -0.31721947                1.45566385                0.39935915                6.30399653                1.62729322
               8.14300548                6.99468785                4.07066609                0.48830478               -0.26361364               -0.12903004                0.62362982               -0.01080159                0.60799349                1.08291091
               9.14161398                6.98756446                4.00770969                0.99857856               -0.01707857                0.00344874                0.04242803               -0.01456727               -0.02751793                0.46966571
              10.14266391                6.98112987                3.94542332                1.00000000                0.10499318                0.14153283               -0.66756329               -0.04835082                0.01148859               -0.19895075
               0.12489887                8.01626540                4.03859175                1.00000000               -0.07003435               -0.15974054                0.74880214               -0.05970608                0.06044236                0.40563125
               1.12419852                8.01364852                3.98019107                0.72463719                0.11353098                0.09095321               -0.36497037               -0.01344232                0.13331085               -0.11220436
               2.12716948                8.01030696                3.92322142                0.05670249                0.88659491                0.32678992               -1.40700599                0.03035926                4.38443277               -0.53007920
               3.14193042                8.00674614                3.94995578                0.00010000                1.42704131                0.03863841               -0.77364538                0.29602333                9.54121069                0.15871701
               4.15571031                8.00246897                3.99119746                0.00010000                1.06052442               -0.24694473               -0.27103546                0.45059776                9.94884546                0.12889459
               5.16314091                7.99975870                4.03244459                0.00010000                0.25484124               -0.36949385                0.88547560                0.60803208               10.25518694                0.42419232
               6.16080714                7.99850614                4.08059432                0.00465567               -0.45417934               -0.41224710                1.82642001                0.68958139               11.55934179                0.82579708
               7.15405732                7.99875072                4.14150036                0.18229647               -0.55591021               -0.40916012                1.55715695                0.36362732                6.92717426                1.23291252
               8.14968893                7.99297509                4.08842691                0.50045372               -0.32451600               -0.22759975                0.87698034                0.00475150                0.63166213                0.81302441
               9.14756700                7.98731207                4.02297086                0.99847550               -0.08886656               -0.06544890                0.28149460               -0.02167072                0.01049101                0.38231443
              10.14791160                7.98248993                3.95754398                0.99971793                0.03445989                0.12295670               -0.50591398               -0.05379181                0.00638539               -0.22084237
               0.12563670                9.01475176                4.03082799                1.00000000                0.01322484               -0.13662795                0.54361540               -0.06720121                0.07918047                0.31520245
               1.12576895                9.01503250                3.97012527                0.66673351                0.20292241                0.20002267               -0.68857252               -0.02424242                0.25055353               -0.10227120
               2.12969515                9.01436751                3.91280347                0.03573751                1.11436166                0.51468362               -1.84436198               -0.32815807                5.07563467               -0.31217473
               3.14805618                9.00648988                3.94826049                0.00010000                1.67346897               -0.21355310               -0.83045982               -0.04824749               10.54733227                0.04799840
               4.16316453                8.99917508                3.99127368                0.00010000                1.11970192               -0.33471930               -0.26650815                0.16685008               10.65298618                0.01357717
               5.17045022                8.99554967                4.03691961                0.00010000                0.22186758               -0.44299672                0.99470534                0.37047981               11.09727338                0.27511808
               6.16760188                8.99410508                4.09066271                0.00010000               -0.53801851               -0.46285152                1.94154905                0.47172039               12.49101853                0.54052092
               7.15968985                8.99425540                4.15632757                0.17508640               -0.65313624               -0.49002569                1.72726622                0.27906818                7.50084502                0.65697563
               8.15453916                8.99013586                4.10291845                0.48807651               -0.40120644               -0.36045317                1.25541230               -0.01013829                0.89953588                0.46545353
               9.15166572                8.98625549                4.03736225                0.99958636               -0.16533950               -0.16357715                0.57665902               -0.03299429                0.15766078                0.27242486
              10.15123237                8.98358900                3.96894482                0.99943861               -0.04333565                0.08503834               -0.30799360               -0.05879583                0.00380484               -0.24148867
               0.12299337               10.01353284                4.02163767                1.00000000                0.11045508               -0.12189258                0.27866303                0.14728064                0.24589284                0.25925800
               1.12409792               10.01764898                3.96002291                0.80390928                0.30777857                0.26164767               -1.03368988                0.18628701                0.52279718               -0.09294580
               2.12914894               10.02060064                3.90410179                0.50914180                1.60299903                0.62331203               -2.26310095               -0.81331583                5.72817680               -0.11922427
               3.15615790               10.00247507                3.94631972                0.43472431                2.04192904               -0.40148049               -0.98534354               -0.43113079               11.35659181               -0.03962150
               4.16998752                9.99577458                3.99043218                0.42781852                0.97313017               -0.34005008               -0.34980626                0.10348401               11.08492712                0.02818061
               5.17562051                9.99089877                4.03865940                0.44915783                0.07741419               -0.46509012                1.02479076                0.19075474               11.59987456                0.18999897
               6.17153581                9.98924911                4.09552835                0.49609470               -0.60062984               -0.48559723                2.05802079                0.29596442               13.17164988                0.37146948
               7.16360791                9.98895020                4.16513004                0.58002561               -0.70248616               -0.53052005                1.96214500                0.21765147                8.17336527                0.34260126
               8.15748608                9.98576602                4.11429388                0.73031939               -0.50769697               -0.43698333                1.62193099                0.04920916                1.34846451                0.17973973
               9.15345397                9.98404053                4.05056757                1.00000000               -0.27087166               -0.22149539                0.91106139                0.10005833                0.46995515                0.20565961
              10.15206865                9.98419070                3.98069072                0.99986932               -0.13853189                0.06016943               -0.03096197                0.09864488                0.17181042               -0.23789450
               0.08831272                0.06168415                5.12292164                1.00000000               -0.58698173               -0.68528518                2.39928815               -0.17100508               -0.39748260                0.46330440
               1.08244291                0.04097507                5.08299201                1.00000000               -0.44816329               -0.46456928                1.65378739               -0.13264781               -0.38731376               -0.02581814
               2.07934946                0.02018208                5.04310965                0.72246031               -0.06307387               -0.27719552                0.91991460                0.02336028               -0.17420530               -0.42768004
               3.08118143                0.00283334                5.00752047                0.52611856                0.51189386               -0.13431274                0.25925834                0.28467395                0.92330383               -0.06848220
               4.08958733               -0.00463487                4.98935939                0.44961449                0.85240990               -0.12333887               -0.15184305                0.29983759                2.75724054               -0.03839755
               5.09822963               -0.00128352                4.98931218                0.45503259                0.45960997               -0.07795721               -0.32447633                0.14563056                3.62623708                0.01570223
               6.09877953                0.00151755                4.98721487                0.53479068               -0.10014385                0.08620591               -0.52347155                0.22738786                2.65381395                0.05612448
               7.09622675               -0.00609279                4.96679305                0.69967908               -0.08323006                0.25089165               -0.93864964                0.21490384                1.03786686                0.07150230
               8.09711493               -0.02272986                4.93156383                0.98409927                0.29318878                0.43355287               -1.53880338                0.05604100                0.02639615                0.26395286
               9.10209052               -0.04248713                4.89028406                1.00000000                0.61828302                0.61234792               -2.20063266               -0.08795573               -0.27556696                0.08627112
              10.10948059               -0.06199861                4.84882246                1.00000000                0.73900678                0.78803397               -2.84233865               -0.15686218               -0.29548518               -0.37487540
               0.10731175                1.05483129                5.11102951                1.00000000               -0.54442883               -0.63662693                2.17595410               -0.06527217               -0.00576687                0.62560808
               1.10186746                1.03632937                5.07054495                1.00000000               -0.43289140               -0.42404456                1.42746752               -0.03643546                0.04728520               -0.04722354
               2.09865392                1.01741012                5.03096120                0.30711175               -0.27154100               -0.23974963                0.68972451                0.13015988                0.66192999               -0.69697519
               3.09643664                1.00149021                5.00298235                0.00010000               -0.20048921               -0.06594385                0.12936340                0.54854089                1.84116178               -0.82008204
               4.09464414                0.99413174                4.98795577                0.00084193                0.00865378                0.29407387               -0.21866148                1.39510055                3.28364021                0.10204629
               5.09660972                0.99793691                4.99019821                0.00175677                0.44069548                0.10012226               -0.27908844                1.71928972                4.04473545                0.14478862
               6.10345805                1.00237961                4.99037861                0.02017846                0.69448879               -0.03526206               -0.36492973                1.40809453                3.17182792                0.19168206
               7.11049949                0.99641613                4.97299457                0.26794519                0.62072334                0.23952848               -0.70234041                0.74256151                1.81462088                0.84393893
               8.11587251                0.98160567                4.94339237                0.71828831                0.51729239                0.38875688               -1.25076399                0.24301390                0.82010156                0.63424500
               9.12084534                0.96363635                4.90433696                1.00000000                0.57754654                0.54930241               -1.84924755                0.02577089                0.22847641                0.19305995
              10.12742345                0.94588173                4.86235133                1.00000000                0.65781039                0.70704048               -2.47668310               -0.06123979                0.07699186               -0.50337372
               0.12401112                2.04895161                5.10213009                1.00000000               -0.48757490               -0.53926838                1.96752076               -0.07182168                0.06088177                0.77525267
               1.11913537                2.03249418                5.05768091                0.93530186               -0.36096519               -0.34861345                1.19344203               -0.04375476                0.09329911               -0.11447413
               2.11679182                2.01538708                5.01367007                0.14489113               -0.18523704               -0.17394791                0.42524405                0.17529319                0.80715586               -1.01541462
               3.11543063                2.00151446                4.98370755                0.00010000                0.21254158                0.10202974               -0.19710529                1.18564386                3.29176387               -1.38695151
               4.12104265                2.00124660                4.98985546                0.00010000                0.44684581                0.49031177               -0.21454086                2.31190479                4.91383052                0.05790658
               5.12436755                2.00071893                4.99410863                0.00010000                0.37097804                0.25649433               -0.23426724                2.50573952                4.69179776                0.35927013
               6.12846221                2.00081231                4.99643766                0.00010000                0.37421886               -0.02963731               -0.22762387                2.25148669                4.46484470                0.67575543
               7.13185192                1.99869778                4.99452685                0.12188330                0.31463928                0.17730156               -0.28559072                1.29645167                2.92715452                1.95371876
               8.13475499                1.98504528                4.96233934                0.42499059                0.32389787                0.29153517               -0.84979062                0.32951726                1.01794659                1.38659317
               9.13832988                1.96849891                4.92067174                1.00000000                0.45050163                0.41478631               -1.42091983                0.04806879                0.31186421                0.34832466
              10.14376503                1.95214220                4.87398451                1.00000000                0.54351458                0.54409426               -2.06967038               -0.05681930                0.05297244               -0.59342047
               0.13879018                3.04404593                5.09322838                1.00000000               -0.42332886               -0.44578667                1.75859987               -0.06826683                0.04646536                0.74400356
               1.13455689                3.02935711                5.04402318                0.87798613               -0.28253412               -0.27911245                0.93698295               -0.03949891                0.09264826               -0.16873679
               2.13313950                3.01393116                4.99545994                0.11667992               -0.01334461               -0.11766637                0.10977749                0.26600637                1.19598011               -1.07325823
               3.13429000                3.00353081                4.96858456                0.00010000                0.42691354                0.18884297               -0.19079584                1.30815794                4.48723297               -0.85445389
               4.14167777                3.00393797                4.98650669                0.00010000                0.64344001                0.20765144               -0.22222485                1.94601483                6.37075519               -0.10610738
               5.14715880                3.00306680                4.99964916                0.00010000                0.44155803                0.17331095               -0.12385601                2.00570682                6.01421208                0.50951768
               6.15050893                3.00178687                5.01082780                0.00010000                0.25183808                0.08336859                0.00347703                1.90388262                6.01497412                1.19269376
               7.15219556                2.99996216                5.02245533                0.13102204                0.10763987                0.09720175                0.04969390                1.17481796                3.93058469                2.21956930
               8.15266173                2.98743637                4.98844197                0.41780973                0.12571163                0.16316101               -0.31232009                0.30044691                0.92807990                1.59902117
               9.15470979                2.97193207                4.93797151                0.97614935                0.31693799                0.27158417               -0.99811183                0.04060495                0.07287934                0.39333782
              10.15900049                2.95676362                4.88632138                1.00000000                0.42906929                0.38613881               -1.65074935               -0.04604553                0.01640121               -0.56491750
               0.15202343                4.04003587                5.08400617                1.00000000               -0.35632686               -0.36466633                1.54787267               -0.05873425                0.04773899                0.69551355
               1.14846016                4.02691193                5.03032928                0.84019621               -0.20425927               -0.21184688                0.68721488               -0.02781571                0.09551732               -0.18363212
               2.14793824                4.01303376                4.97728822                0.10208385                0.15634108               -0.05845922               -0.17889518                0.32848818                1.82175467               -1.06147857
               3.15158698                4.00529132                4.95838348                0.00010000                0.62443568                0.16730050               -0.21636276                1.27270169                5.75520593               -0.38724861
               4.16042695                4.00539963                4.98471310                0.00010000                0.75229052                0.10639880               -0.19152511                1.73292386                7.67290634                0.08810377
               5.16663279                4.00418515                5.00671877                0.00010000                0.46087729                0.06143482                0.02526826                1.69986437                7.38757244                0.63790705
               6.16964450                4.00247968                5.02784003                0.00010000                0.15329937                0.02326598                0.27406451                1.62200454                7.55147635                1.33364008
               7.16969878                4.00064182                5.05087536                0.14277991               -0.04252398                0.01082842                0.41573456                0.94877108                4.71146374                2.19799685
               8.16879402                3.98830850                5.01133164                0.43349515                0.00579795                0.04210639                0.01041736                0.20776541                0.83101511                1.41125200
               9.16981473                3.97393060                4.95509393                0.98893283                0.21935034                0.15422360               -0.65505820                0.02880217                0.00488807                0.41558219
              10.17318103                3.95986498                4.89860567                1.00000000                0.33662914                0.26843899               -1.30658831               -0.04579689                0.00291467               -0.52478744
               0.16386339                5.03675260                5.07462507                1.00000000               -0.28606938               -0.30056764                1.33830382               -0.05267573                0.04634522                0.65281428
               1.16100270                5.02512017                5.01663845                0.80476185               -0.12667624               -0.14570136                0.44107707               -0.01701052                0.09897494               -0.18807391
               2.16132987                5.01276198                4.95937401                0.08769906                0.31877306                0.01096720               -0.45817897                0.35491828                2.59849016               -1.02257829
               3.16737816                5.00687682                4.95159873                0.00010000                0.80562780                0.15585097               -0.27972304                1.19315103                7.10092111               -0.03886025
               4.17744242                5.00606595                4.98498699                0.00010000                0.83489391                0.03195565               -0.15986814                1.50337550                8.85927252                0.26036035
               5.18407604                5.00429550                5.01499934                0.00010000                0.45249657               -0.03765376                0.19333374                1.47200874                8.69206442                0.71708315
               6.18649235                5.00225219                5.04551535                0.00010000                0.06330665               -0.07741178                0.55433812                1.39594340                9.00014833                1.34975696
               7.18534217                5.00017873                5.07880675                0.15265880               -0.14820493               -0.09970358                0.71302461                0.79051014                5.41507432                2.13618337
               8.18352825                4.98827850                5.03349235                0.44786247               -0.08064052               -0.03468142                0.25220957                0.14782143                0.76785255                1.36021697
               9.18372936                4.97501654                4.97242411                1.00000000                0.13437683                0.08134962               -0.39198372                0.01894913               -0.00342557                0.46148490
              10.18621579                4.96213240                4.91133839                1.00000000                0.24864325                0.20569660               -1.04732514               -0.04426855                0.00263190               -0.43104602
               0.17423477                6.03402452                5.06513707                1.00000000               -0.21242065               -0.25100964                1.12951957               -0.05206542                0.04312875                0.61291901
               1.17211057                6.02399790                5.00306076                0.77289848               -0.04774100               -0.07583571                0.18734794               -0.01251732                0.10036541               -0.17857103
               2.17327995                6.01325310                4.94181219                0.07365481                0.50177299                0.09799394               -0.75147433                0.33218396                3.50611387               -0.95842199
               3.18214603                6.00840834                4.94803625                0.00010000                0.98979160                0.13850404               -0.34909594                1.04983893                8.48661306                0.19300360
               4.19307579                6.00603874                4.98662249                0.00010000                0.88703491               -0.03837057               -0.12939763                1.24700548                9.90683311                0.34226798
               5.19988673                6.00343207                5.02381258                0.00010000                0.43021738               -0.13609329                0.36129368                1.25296537                9.92262337                0.72959088
               6.20168013                6.00093145                5.06311284                0.00010000               -0.02020310               -0.18548081                0.81451533                1.20569913               10.39365183                1.30653311
               7.19948266                5.99864774                5.10630733                0.16152155               -0.23837510               -0.20035391                0.96118191                0.67380578                6.10707685                2.04069943
               8.19691263                5.98761487                5.05570714                0.46221478               -0.15714217               -0.09777069                0.47728389                0.11228741                0.72666154                1.30778691
               9.19633982                5.97555759                4.99020526                0.99942808                0.05756591                0.03201745               -0.16812779                0.00760827               -0.00223125                0.48775999
              10.19806395                5.96397891                4.92483323                1.00000000                0.17241296                0.17234427               -0.84527056               -0.04254417                0.00689909               -0.34797462
               0.18287533                7.03173241                5.05557598                1.00000000               -0.13515536               -0.21012928                0.92072942               -0.05641775                0.04248199                0.57776447
               1.18152377                7.02360345                4.98969520                0.74218511                0.03438880                0.00226866               -0.08146203               -0.01496734                0.10974743               -0.16152568
               2.18356310                7.01472186                4.92487037                0.05936305                0.70327597                0.20962657               -1.07197609                0.22747944                4.45178579               -0.86645634
               3.19558929                7.00964690                4.94595778                0.00010000                1.18978496                0.09680587               -0.45597699                0.78828517                9.84946343                0.23819589
               4.20735880                7.00529854                4.98866542                0.00010000                0.93266744               -0.12133056               -0.10551023                0.94753751               10.86779509                0.32926593
               5.21424264                7.00157363                5.03236823                0.00010000                0.40159317               -0.23677048                0.51399272                1.02852615               11.09370072                0.67156232
               6.21539066                6.99854257                5.07988470                0.00010000               -0.10538886               -0.28313547                1.04656341                1.02974837               11.72741656                1.18847267
               7.21213486                6.99617165                5.13249121                0.16862307               -0.32632534               -0.29316495                1.18124662                0.57191090                6.79062533                1.82604176
               8.20886416                6.98632309                5.07746160                0.47519234               -0.23086895               -0.16980675                0.71937513                0.08712567                0.73158165                1.18857942
               9.20751748                6.97565689                5.00818250                0.99857278               -0.01709437               -0.01770670                0.05530718               -0.00269974                0.01332622                0.46835734
              10.20852227                6.96557928                4.93874994                1.00000000                0.10047859                0.14825703               -0.66530251               -0.04614013                0.00338117               -0.31450772
               0.18936433                8.02982194                5.04590830                1.00000000               -0.05425548               -0.17208481                0.70907762               -0.06177896                0.05282890                0.54711498
               1.18882177                8.02404327                4.97651862                0.70614267                0.12108856                0.09514253               -0.37481435               -0.02042248                0.14804731               -0.16184967
               2.19178610                8.01744563                4.90877051                0.04339251                0.92566396                0.35759147               -1.44373729                0.00851303                5.35457286               -0.75840823
               3.20733505                8.01034446                4.94359018                0.00010000                1.41568544                0.01953316               -0.62665000                0.36306639               11.12577679                0.14874580
               4.22009981                8.00361213                4.99011997                0.00010000                0.99390829               -0.23968522               -0.09751616                0.62830944               11.78048500                0.24836162
               5.22721322                7.99869666                5.03977186                0.00010000                0.37886373               -0.32885576                0.63293914                0.79791479               12.19342532                0.53488488
               6.22767708                7.99526874                5.09469383                0.00044800               -0.20364257               -0.35838739                1.24323526                0.85286146               12.95118575                0.95676023
               7.22314037                7.99278445                5.15554385                0.17123968               -0.42535894               -0.39831264                1.43343798                0.46314915                7.48842139                1.42613716
               8.21916990                7.98421873                5.09798816                0.48167475               -0.30553674               -0.27530524                1.01808024                0.05468455                0.85340163                0.99988179
               9.21702963                7.97520346                5.02587469                0.99856038               -0.09367660               -0.08577883                0.30404579               -0.01258374                0.06741688                0.41852843
              10.21729637                7.96694405                4.95266676                0.99966626                0.02667398                0.11754056               -0.47394182               -0.05042544                0.00696408               -0.33345050
               0.19319707                9.02829071                5.03600363                1.00000000                0.02945549               -0.13209619                0.48947467               -0.06047259                0.05996219                0.44101196
               1.19349163                9.02550630                4.96310402                0.65094167                0.21175511                0.20404564               -0.70121740               -0.01430438                0.23934595               -0.16941157
               2.19743217                9.02187369                4.89355700                0.02254005                1.15962448                0.52424064               -1.89308495               -0.37022760                6.19972031               -0.56905870
               3.21668412                9.01003756                4.94000041                0.00010000                1.70703056               -0.19542356               -0.86711517               -0.07218941               12.22917206                0.04929302
               4.23157279                9.00050483                4.99036803                0.00010000                1.09301071               -0.32368399               -0.11263895                0.30580731               12.61162772                0.13424003
               5.23854433                8.99499651                5.04499451                0.00010000                0.33936627               -0.38510090                0.70357763                0.50896132               13.15551962                0.30963704
               6.23836011                8.99137482                5.10605028                0.00010000               -0.30482406               -0.41369062                1.39430860                0.55746318               13.99810188                0.55140060
               7.23244785                8.98820540                5.17364555                0.16569591               -0.54106369               -0.51255290                1.80197235                0.30603590                8.25028644                0.85076823
               8.22753884                8.98081698                5.11673614                0.47211220               -0.39536780               -0.40632738                1.42300054                0.00794450                1.19247443                0.67857672
               9.22454049                8.97394132                5.04320658                0.99970213               -0.17531316               -0.17542492                0.59300900               -0.01247830                0.18010372                0.32862261
              10.22403257                8.96793009                4.96621473                0.99942938               -0.05079196                0.07153849               -0.25437586               -0.05068169                0.00073585               -0.32083618
               0.19372369               10.02718001                5.02416594                1.00000000                0.12290210               -0.11106992                0.22729258                0.14707899                0.26915225                0.35630129
               1.19495271               10.02812419                4.94968292                0.80198374                0.30632997                0.26178812               -1.01836156                0.18362984                0.56065425               -0.17318685
               2.19985029               10.02793044                4.88088936                0.50373301                1.61537035                0.60567577               -2.25177194               -0.84259848                6.99729427               -0.46364143
               3.22726012               10.00643599                4.93549288                0.43267472                2.07033567               -0.36015734               -1.11085703               -0.48199950               13.07891730                0.03851405
               4.24125700                9.99713845                4.98905263                0.42803122                0.96311689               -0.33663788               -0.17613793                0.19635439               13.24362567                0.07574840
               5.24652245                9.99099465                5.04705296                0.45037181                0.21802305               -0.40018684                0.73407494                0.29063597               13.83991604                0.19663202
               6.24561746                9.98699493                5.11210878                0.49690587               -0.33517654               -0.43798955                1.51548741                0.30267221               14.84714788                0.31153182
               7.23981892                9.98253339                5.18567014                0.57900996               -0.60122946               -0.56720092                2.09891916                0.19197046                9.05505513                0.51114241
               8.23359287                9.97609219                5.13166953                0.72822918               -0.50759852               -0.47247943                1.74267620                0.06348211                1.75553427                0.46648112
               9.22966695                9.97169496                5.05943761                1.00000000               -0.26438448               -0.22463581                0.88562079                0.12677761                0.51927784                0.26881280
              10.22830518                9.96837482                4.98058335                0.99987921               -0.13617696                0.04447270                0.00273694                0.09524713                0.18716143               -0.29200045
               0.12781158                0.07949062                6.14664525                1.00000000               -0.57889548               -0.67330044                2.34885314               -0.16053980               -0.43638760                0.49914243
               1.12202263                0.05424132                6.09950408                1.00000000               -0.44690002               -0.46479649                1.65022497               -0.12123847               -0.42333331               -0.03192532
               2.11887358                0.02892708                6.05247946                0.71891426               -0.06291886               -0.28957996                0.95576801                0.04534870               -0.17736589               -0.47508261
               3.12076425                0.00733813                6.01036846                0.52299029                0.53712865               -0.15034247                0.31353545                0.32036265                1.05881733               -0.06727480
               4.12961615               -0.00334374                5.98803560                0.44949895                0.89774993               -0.14261334               -0.11193935                0.32016453                3.09651601               -0.04657106
               5.13871925               -0.00229103                5.98600501                0.45648202                0.50374792               -0.09367478               -0.33589173                0.15253667                4.02915086                0.00911514
               6.13969111               -0.00192336                5.98163712                0.53534804               -0.05884686                0.08107806               -0.58746995                0.23712574                2.92934743                0.05123004
               7.13754231               -0.01278508                5.95694092                0.69843128               -0.05226164                0.26192462               -1.01819763                0.22775413                1.12494778                0.07138454
               8.13864588               -0.03334269                5.91586955                0.98365329                0.30675676                0.44546582               -1.58398127                0.07149941               -0.00067124                0.26816316
               9.14367744               -0.05734284                5.86836681                1.00000000                0.61426601                0.60860308               -2.18236291               -0.08018058               -0.32017750                0.10726320
              10.15093120               -0.08120147                5.82085352                1.00000000                0.72537538                0.76931276               -2.76737288               -0.14536180               -0.33191874               -0.38180870
               0.15145548                1.07275761                6.13254038                1.00000000               -0.53634659               -0.63033778                2.12876052               -0.05993697               -0.00938579                0.66854380
               1.14609201                1.04959336                6.08483265                1.00000000               -0.43384068               -0.42666010                1.42878349               -0.02897954                0.04737066               -0.05678990
               2.14277866                1.02603128                6.03810915                0.29523348               -0.29943622               -0.25224759                0.73628554                0.15510975                0.74729624               -0.76028062
               3.14010329                1.00583471                6.00458079                0.00010000               -0.25731427               -0.09620154                0.18858523                0.63506414                2.11631336               -0.90879203
               4.13763238                0.99523012                5.98607279                0.00179571               -0.02844332                0.30377914               -0.16473432                1.51056135                3.79499688                0.13843941
               5.13953442                0.99677223                5.98741512                0.00299700                0.48385094                0.08310172               -0.28311506                1.84279009                4.65542807                0.14762943
               6.14730940                0.99888742                5.98636747                0.01738624                0.79975478               -0.06628726               -0.43519910                1.50696767                3.61667771                0.17592324
               7.15552952                0.98983416                5.96544921                0.25894581                0.71651767                0.26502308               -0.79446363                0.82270587                2.01882006                0.91892249
               8.16163975                0.97111197                5.93050039                0.70434687                0.56377567                0.40755639               -1.30961398                0.27257843                0.88977594                0.67883645
               9.16680503                0.94874319                5.88583458                1.00000000                0.58482301                0.54869212               -1.85242549                0.02875298                0.25894196                0.25859409
              10.17333621                0.92649166                5.83796993                1.00000000                0.65311811                0.69380984               -2.42385964               -0.05856895                0.09573848               -0.47241260
               0.17294135                2.06688386                6.12159302                1.00000000               -0.47719809               -0.54514370                1.92672700               -0.06463104                0.06530908                0.82683255
               1.16816937                2.04570812                6.06966427                0.91840167               -0.36034617               -0.35602937                1.20073029               -0.03449246                0.10105701               -0.13762530
               2.16573443                2.02388213                6.01826139                0.13277301               -0.19513408               -0.18494139                0.48454801                0.19011667                0.88930167               -1.11994983
               3.16426669                2.00541410                5.98226093                0.00010000                0.15777173                0.11807865               -0.09925045                1.33854501                3.74507342               -1.38928999
               4.16888986                2.00273184                5.98811764                0.00010000                0.38255296                0.51527508               -0.14401391                2.51644481                5.63426859                0.10093130
               5.17191775                1.99937101                5.99180285                0.00010000                0.39393321                0.24416864               -0.23375666                2.68671715                5.40078871                0.39204194
               6.17676853                1.99675090                5.99363475                0.00010000                0.49270656               -0.06612294               -0.32154609                2.45102913                5.12772491                0.72258922
               7.18177188                1.99251538                5.99071464                0.11244810                0.42099456                0.17545927               -0.44708563                1.44140089                3.28751688                2.08185868
               8.18518842                1.97480844                5.95317060                0.40982523                0.35504681                0.31981579               -0.95345210                0.35508437                1.12674204                1.54700944
               9.18887282                1.95363101                5.90638700                1.00000000                0.45372340                0.42106840               -1.44090339                0.04390278                0.37244076                0.46188998
              10.19426289                1.93267473                5.85354183                1.00000000                0.53900701                0.54287991               -2.03508640               -0.05680360                0.06947881               -0.51431721
               0.19251434                3.06185474                6.11061411                1.00000000               -0.41104402               -0.46229566                1.72043004               -0.06402176                0.03976109                0.79854553
               1.18840390                3.04247277                6.05344780                0.86420410               -0.28196600               -0.28895820                0.94613325               -0.03470327                0.08248767               -0.19750823
               2.18687502                3.02233245                5.99691266                0.10617302               -0.01897111               -0.12192249                0.17208392                0.31788404                1.47031782               -1.19050765
               3.18802448                3.00819628                5.96770949                0.00010000                0.35646749                0.25207119               -0.01504661                1.44910382                5.15307663               -0.71194961
               4.19400437                3.00553562                5.98475570                0.00010000                0.56126142                0.21851593               -0.14008247                2.09857473                7.16614624               -0.06128605
               5.19924970                3.00165560                5.99837927                0.00010000                0.45906198                0.16877046               -0.13380834                2.17268509                6.87202125                0.59070911
               6.20318561                2.99756496                6.01019132                0.00010000                0.35251429                0.07189821               -0.11310488                2.10177824                6.80435898                1.32276027
               7.20629999                2.99334335                6.02172850                0.12268432                0.22201020                0.07880929               -0.17570328                1.34099386                4.46971782                2.39521296
               8.20762581                2.97750829                5.98474279                0.40628485                0.17584031                0.18794410               -0.41632367                0.35088264                1.11258633                1.76483681
               9.20981680                2.95716456                5.92781937                0.96400737                0.32434388                0.28657481               -1.03417072                0.02520353                0.07481933                0.47648949
              10.21411269                2.93734926                5.86981415                1.00000000                0.42958928                0.39903782               -1.65729169               -0.04758286                0.02538211               -0.50142650
               0.21042485                4.05763795                6.09928843                1.00000000               -0.34272589               -0.38673284                1.51031694               -0.05827198                0.03908621                0.75762618
               1.20699759                4.03992896                6.03723198                0.83044352               -0.20281261               -0.22018095                0.69218821               -0.02760076                0.08217714               -0.20290146
               2.20636860                4.02144368                5.97579438                0.09318447                0.15239995               -0.05349425               -0.12737389                0.39658004                2.25801543               -1.16002668
               3.21004559                4.01045552                5.95745799                0.00010000                0.55167192                0.20012148               -0.02312928                1.40675713                6.63475882               -0.30539237
               4.21740204                4.00710216                5.98336434                0.00010000                0.66482580                0.11480900               -0.09883803                1.86782909                8.59136689                0.15058538
               5.22334211                4.00274642                6.00680456                0.00010000                0.48571506                0.06037798               -0.00587125                1.86644833                8.39562713                0.75303837
               6.22711634                3.99818886                6.02960974                0.00010000                0.26531624                0.01950463                0.11762008                1.84915792                8.48588213                1.50627020
               7.22864843                3.99409157                6.05395759                0.13566163                0.06342588                0.01886078                0.21609050                1.15998589                5.30980342                2.41586794
               8.22838486                3.97856732                6.01113498                0.42478979                0.04437404                0.05261257               -0.04781457                0.27055670                1.00105665                1.45420710
               9.22953591                3.95936250                5.94833456                0.98321953                0.22784880                0.17371591               -0.69945601                0.01621367                0.00589266                0.43121811
              10.23294183                3.94065549                5.88538061                1.00000000                0.34059194                0.29271444               -1.34458846               -0.04662029                0.00453114               -0.52681921
               0.22676688                5.05412008                6.08782486                1.00000000               -0.27207265               -0.32320193                1.30163796               -0.05425797                0.04074001                0.72739700
               1.22404616                5.03806915                6.02105251                0.79595190               -0.12434148               -0.15075498                0.44071906               -0.02015339                0.09009405               -0.20351819
               2.22428005                5.02126257                5.95501739                0.07942870                0.32274915                0.02276616               -0.41838029                0.41537738                3.17332849               -1.12322345
               3.23050114                5.01219871                5.95009044                0.00010000                0.73950027                0.16403569               -0.09930712                1.31535321                8.18898926                0.00256393
               4.23907006                5.00783180                5.98398593                0.00010000                0.74954135                0.03698979               -0.06981841                1.62873638                9.93806706                0.32523692
               5.24549197                5.00286316                6.01657583                0.00010000                0.48767797               -0.03342811                0.13249198                1.63869846                9.86482605                0.85244907
               6.24882362                4.99795506                6.04978447                0.00010000                0.18146404               -0.07298508                0.36133258                1.62747784               10.04927176                1.54011378
               7.24912125                4.99372056                6.08502855                0.14598383               -0.05288042               -0.09334638                0.55630052                0.99561288                6.03370995                2.33314605
               8.24776601                4.97856054                6.03600335                0.44004020               -0.05341700               -0.04125734                0.23926207                0.20997884                0.92366839                1.37722802
               9.24805291                4.96063888                5.96835583                1.00000000                0.14141522                0.09387039               -0.42066960                0.01183699               -0.00199151                0.43310932
              10.25059431                4.94320355                5.90065871                1.00000000                0.25414070                0.23163724               -1.08376360               -0.04605182                0.00075629               -0.49762901
               0.24144155                6.05117391                6.07626246                1.00000000               -0.19895114               -0.26947261                1.09317688               -0.05393577                0.04020320                0.70194802
               1.23945204                6.03691386                6.00491201                0.76302818               -0.04474816               -0.07720432                0.18235365               -0.01705757                0.09677014               -0.19998577
               2.24054659                6.02189900                5.93445192                0.06547949                0.51656884                0.11408504               -0.72240427                0.37505195                4.21855558               -1.08233227
               3.24978342                6.01373624                5.94569296                0.00010000                0.93828635                0.13641936               -0.21254783                1.14668752                9.77880679                0.19646543
               4.25931232                6.00784195                5.98585347                0.00010000                0.81047022               -0.03149961               -0.05900834                1.36910720               11.15246130                0.41109163
               5.26599282                6.00207785                6.02683880                0.00010000                0.47480857               -0.12258232                0.26518528                1.41883671               11.25602950                0.87010595
               6.26880849                5.99672916                6.06971848                0.00010000                0.09811924               -0.17082842                0.59244616                1.42753975               11.53728129                1.49192940
               7.26795521                5.99222464                6.11519055                0.15447064               -0.15711853               -0.19988222                0.85263304                0.85068129                6.75080180                2.22731835
               8.26566612                5.97774218                6.06068376                0.45374780               -0.14127821               -0.11910605                0.50299124                0.15975439                0.88817942                1.34448518
               9.26512964                5.96123991                5.98850594                0.99947065                0.06126711                0.03116485               -0.17463841                0.00426595                0.00459945                0.45554673
              10.26689146                5.94528823                5.91625759                1.00000000                0.17618162                0.19013190               -0.86712368               -0.04505056                0.00423607               -0.44739732
               0.25420827                7.04873063                6.06460445                1.00000000               -0.12283570               -0.21969330                0.88135596               -0.05589362                0.04183750                0.67934182
               1.25297992                7.03652507                5.98882585                0.73028582                0.03752196                0.00444209               -0.09054085               -0.01705752                0.11166040               -0.19761964
               2.25495871                7.02354427                5.91422494                0.05108038                0.72560107                0.22765867               -1.05233900                0.25224099                5.28870113               -1.03310538
               3.26749194                7.01492710                5.94213396                0.00010000                1.15759374                0.09710919               -0.39211672                0.84853110               11.33804317                0.18285248
               4.27811059                7.00720181                5.98796963                0.00010000                0.87447777               -0.10541784               -0.07008414                1.06552114               12.28842304                0.39831349
               5.28498149                7.00041151                6.03668226                0.00010000                0.45585213               -0.21238657                0.38214749                1.18897055               12.57453166                0.80033722
               6.28722763                6.99453849                6.08864161                0.00010000                0.00701819               -0.26266986                0.81015606                1.22808940               12.96590356                1.35501005
               7.28512186                6.98972292                6.14394128                0.16068718               -0.26409021               -0.30527596                1.14612815                0.71080701                7.48945402                2.02845361
               8.28194582                6.97617842                6.08505359                0.46515035               -0.22648428               -0.20219949                0.77809589                0.11496285                0.91679878                1.27680952
               9.28059217                6.96126218                6.00881583                0.99856054               -0.01745835               -0.02906746                0.06653875               -0.00325689                0.02634891                0.45631439
              10.28159666                6.94700619                5.93211727                1.00000000                0.10044876                0.15339492               -0.66483038               -0.04683476                0.00343943               -0.41929531
               0.26473481                8.04678005                6.05277331                1.00000000               -0.04375551               -0.17081307                0.66241084               -0.05639058                0.05142647                0.65426235
               1.26429726                8.03700270                5.97269478                0.69263534                0.12272846                0.09774481               -0.38281718               -0.01526433                0.14700593               -0.21952842
               2.26718938                8.02645217                5.89434667                0.03502927                0.93996204                0.36616121               -1.42167794                0.02550908                6.29524866               -0.98003875
               3.28309650                8.01567842                5.93742278                0.00010000                1.39744728                0.03229701               -0.64450076                0.38090386               12.80487231                0.04499940
               4.29513833                8.00573360                5.98924714                0.00010000                0.96695303               -0.21372940               -0.10837815                0.72220485               13.38555719                0.30604281
               5.30243556                7.99783012                6.04510338                0.00010000                0.44602709               -0.29750979                0.47533140                0.93195197               13.81103795                0.63168330
               6.30405887                7.99147576                6.10545902                0.00010000               -0.09520690               -0.34101740                1.01835086                0.99871235               14.32196868                1.08133567
               7.30053142                7.98611912                6.17016912                0.16320829               -0.38163744               -0.42892216                1.49472320                0.55551444                8.29021055                1.68203651
               8.29642612                7.97369819                6.10878852                0.47077629               -0.31473404               -0.30761969                1.09895088                0.07106146                1.05527373                1.16010912
               9.29423674                7.96065856                6.02905178                0.99861928               -0.09796856               -0.09985794                0.32476040               -0.00725094                0.07259908                0.43892131
              10.29446675                7.94835613                5.94806514                0.99967282                0.02300088                0.11247495               -0.45294070               -0.04853631                0.00736079               -0.42266519
               0.27263515                9.04531437                6.04061748                1.00000000                0.03673495               -0.12229005                0.43609580               -0.05305921                0.05169526                0.53182755
               1.27300250                9.03847996                5.95610093                0.64184070                0.20790101                0.20123696               -0.69151291               -0.00782779                0.22557700               -0.23483843
               2.27679317                9.03086749                5.87494177                0.01534751                1.14130457                0.51054480               -1.81862704               -0.34057188                7.23441965               -0.78514668
               3.29582859                9.01557304                5.93091819                0.00010000                1.68049058               -0.17090066               -0.92409811               -0.07318923               14.14557252               -0.04312522
               4.31040298                9.00292722                5.98902090                0.00010000                1.10248862               -0.29066264               -0.17179455                0.35249568               14.40535967                0.16827470
               5.31787836                8.99446132                6.05099116                0.00010000                0.42549488               -0.35578049                0.53765883                0.58590186               14.90219091                0.35850124
               6.31891288                8.98771814                6.11854888                0.00010000               -0.19343216               -0.40565113                1.20051243                0.62429391               15.57110430                0.61707503
               7.31400972                8.98114448                6.19236701                0.16089280               -0.50426342               -0.54976222                1.90466033                0.34623655                9.20148689                1.08130636
               8.30882761                8.97002602                6.13137846                0.46545058               -0.41102564               -0.42346572                1.46201502                0.02618591                1.38144004                0.84418908
               9.30578921                8.95926502                6.04922243                0.99978643               -0.17984099               -0.18519150                0.60621580               -0.00406892                0.16089257                0.37022598
              10.30523079                8.94925568                5.96385730                0.99946598               -0.05584161                0.06286548               -0.22456604               -0.04825085               -0.00356310               -0.38163335
               0.27734244               10.04433424                6.02618352                1.00000000                0.12451374               -0.09801255                0.18087410                0.14004860                0.30686036                0.43027476
               1.27858758               10.04102744                5.93965568                0.80185681                0.29712135                0.25474767               -0.98433307                0.17494914                0.60500232               -0.23473687
               2.28328487               10.03666307                5.85906635                0.50114600                1.54927007                0.57955783               -2.12155716               -0.78918174                8.16268205               -0.63526806
               3.30957298               10.01226041                5.92410257                0.43177155                2.00075463               -0.33126279               -1.13294070               -0.46269745               15.18906191               -0.02659326
               4.32329996                9.99992034                5.98690942                0.42828660                0.98948486               -0.30068805               -0.25031619                0.21240306               15.21962229                0.10610203
               5.32936268                9.99071451                6.05334090                0.45106260                0.32808115               -0.37468024                0.56352011                0.32055124               15.75093890                0.20686274
               6.32986158                9.98336274                6.12583810                0.49726305               -0.21072051               -0.43554002                1.32285905                0.31533844               16.58583546                0.33091276
               7.32514827                9.97512387                6.20710843                0.57893319               -0.55161440               -0.60206034                2.16559298                0.20716126               10.13472019                0.68791481
               8.31882930                9.96522887                6.14914740                0.72862322               -0.51112839               -0.47971517                1.73566437                0.09171127                2.02066327                0.60198009
               9.31492570                9.95695473                6.06827999                1.00000000               -0.26544494               -0.23102881                0.88686398                0.13287751                0.54288010                0.30989027
              10.31352040                9.94961344                5.98074546                0.99991387               -0.14053021                0.03577546                0.02913493                0.09483149                0.20525100               -0.33419292
               0.17386730                0.09987673                7.16989870                1.00000000               -0.57252723               -0.66223243                2.30538652               -0.15250965               -0.47962606                0.54026314
               1.16814203                0.06967943                7.11599651                1.00000000               -0.44647685               -0.46460360                1.64839481               -0.11237674               -0.46722959               -0.03423263
               2.16493777                0.03942104                7.06222501                0.71747893               -0.06701976               -0.29984637                0.99099377                0.06058150               -0.19921061               -0.51673813
               3.16680164                0.01306318                7.01379118                0.52133473                0.54716664               -0.16412767                0.36932318                0.34667725                1.15007430               -0.06975497
               4.17588110               -0.00164069                6.98712060                0.44969667                0.92047432               -0.15408350               -0.07214872                0.33363436                3.35768672               -0.05465919
               5.18521112               -0.00392143                6.98259435                0.45763063                0.52747397               -0.09869110               -0.34397134                0.15735581                4.34673580                0.00295668
               6.18643058               -0.00691854                6.97546547                0.53574829               -0.03589264                0.08189890               -0.63653957                0.24468067                3.13665233                0.04977118
               7.18449327               -0.02168169                6.94642909                0.69777705               -0.03774828                0.27025379               -1.06967575                0.23948307                1.17957473                0.07464104
               8.18567561               -0.04662827                6.89988421                0.98383086                0.31048709                0.45096245               -1.60414769                0.08092000               -0.02654149                0.27670066
               9.19070301               -0.07527740                6.84663681                1.00000000                0.60965955                0.60654336               -2.16723749               -0.07680243               -0.35803705                0.12662128
              10.19786880               -0.10386760                6.79347500                1.00000000                0.71657925                0.76127701               -2.72289601               -0.13914878               -0.36015137               -0.38932243
               0.20253950                1.09325440                7.15360472                1.00000000               -0.52933958               -0.62310981                2.08669145               -0.05672591               -0.01420942                0.71851298
               1.19724611                1.06503339                7.09912061                1.00000000               -0.43438986               -0.42764541                1.42813622               -0.02428621                0.04484925               -0.06121374
               2.19385171                1.03642257                7.04568691                0.28899818               -0.32234195               -0.26182278                0.77553633                0.17159643                0.81510322               -0.81521402
               3.19079927                1.01142190                7.00675406                0.00057254               -0.30709803               -0.12316064                0.24312736                0.70350596                2.34799664               -0.98173453
               4.18770975                0.99681848                6.98466108                0.00267963               -0.06878311                0.31115056               -0.12291238                1.59873768                4.22960124                0.17632893
               5.18942361                0.99509166                6.98453590                0.00412555                0.50238833                0.07585272               -0.29405382                1.93685331                5.16518191                0.14991824
               6.19775751                0.99390045                6.98167463                0.01584397                0.86596803               -0.08206079               -0.49427629                1.58017664                3.98074800                0.15875483
               7.20674297                0.98102085                6.95710530                0.25358545                0.77625781                0.28686748               -0.85959068                0.87770178                2.18651766                0.97232785
               8.21328267                0.95788135                6.91720009                0.69552783                0.59058405                0.41856714               -1.34235527                0.28545221                0.95222359                0.71908769
               9.21855465                0.93078804                6.86728845                1.00000000                0.58924231                0.55146593               -1.85771887                0.02841418                0.28553663                0.32124037
              10.22506751                0.90374517                6.81387414                1.00000000                0.65128665                0.69396142               -2.40438673               -0.05547850                0.10992337               -0.44437447
               0.22917480                2.08741453                7.14066463                1.00000000               -0.46866676               -0.54664887                1.88924189               -0.05987466                0.07194855                0.88597897
               1.22448814                2.06112652                7.08169552                0.90397594               -0.35968081               -0.35970838                1.20349357               -0.02839781                0.11158228               -0.15616545
               2.22198119                2.03418458                7.02336103                0.12484874               -0.20061436               -0.19172763                0.52927406                0.19529504                0.97166204               -1.21882559
               3.22047585                2.01059996                6.98172254                0.00010000                0.11024536                0.13364274               -0.01954483                1.45534850                4.14704840               -1.33723919
               4.22418609                2.00458233                6.98697519                0.00010000                0.31951847                0.53235357               -0.09558502                2.68084168                6.26427128                0.15669986
               5.22686622                1.99759562                6.98943349                0.00010000                0.39594118                0.23938060               -0.24005742                2.82989585                5.99184787                0.42364174
               6.23210492                1.99144024                6.99000674                0.00010000                0.56000934               -0.08166840               -0.38968393                2.59746997                5.66882452                0.75134455
               7.23806640                1.98405566                6.98558514                0.10554337                0.47562778                0.18013104               -0.54892448                1.52991500                3.58864699                2.13552745
               8.24161747                1.96174307                6.94327030                0.39759777                0.36705340                0.34436922               -1.00919118                0.36180871                1.24682889                1.70892897
               9.24540747                1.93575192                6.89185367                0.99761723                0.46137427                0.43631355               -1.48064005                0.04243668                0.44399897                0.57030875
              10.25084496                1.91001163                6.83328278                1.00000000                0.54374864                0.55755624               -2.04906084               -0.05147643                0.09467972               -0.45892972
               0.25391803                3.08232142                7.12763698                1.00000000               -0.40099287               -0.47184408                1.68547304               -0.06105774                0.03685645                0.85763129
               1.24990810                3.05783922                7.06294584                0.85008314               -0.28169331               -0.29386687                0.95109637               -0.03118953                0.07839667               -0.22699773
               2.24828416                3.03258802                6.99890162                0.09839069               -0.01998034               -0.12280450                0.21957021                0.35734424                1.77351043               -1.31363434
               3.24950849                3.01409475                6.96828363                0.00010000                0.30233781                0.31012836                0.08677427                1.55569380                5.75095675               -0.54083558
               4.25433092                3.00746555                6.98370504                0.00010000                0.48275552                0.22993881               -0.08509447                2.22530696                7.83974214                0.00073642
               5.25916360                2.99987927                6.99697299                0.00010000                0.44579765                0.17268635               -0.14533281                2.31176270                7.60044958                0.66198712
               6.26324687                2.99226708                7.00856571                0.00010000                0.39374196                0.07858467               -0.19510783                2.24242009                7.45357454                1.41987699
               7.26703844                2.98462347                7.01894126                0.11557827                0.27878569                0.08017297               -0.33778426                1.44024263                4.97200279                2.50286711
               8.26882259                2.96476873                6.98011550                0.39509058                0.20481880                0.21945074               -0.49719145                0.38557715                1.34330562                1.95376640
               9.27113482                2.93951431                6.91728810                0.94762547                0.33479893                0.31332899               -1.08678979                0.02035199                0.08993281                0.55949139
              10.27551856                2.91489630                6.85317555                1.00000000                0.43837451                0.42362028               -1.69879305               -0.04507193                0.03768971               -0.47768690
               0.27691805                4.07797765                7.11421250                1.00000000               -0.33202978               -0.39974542                1.47551938               -0.05760367                0.03264866                0.82180100
               1.27359775                4.05524918                7.04417304                0.81923353               -0.20227526               -0.22347246                0.69456398               -0.02726035                0.07267913               -0.22828985
               2.27287254                4.03172849                6.97474074                0.08643045                0.15572224               -0.04740257               -0.08722266                0.45138498                2.72471323               -1.27383116
               3.27671219                4.01680253                6.95792090                0.00010000                0.50175881                0.22991890                0.06566843                1.50667578                7.44828427               -0.24171039
               4.28290772                4.00918110                6.98273634                0.00010000                0.57938734                0.13080074               -0.04645093                1.98171340                9.37647996                0.22355834
               5.28829994                4.00104935                7.00660135                0.00010000                0.46506999                0.07154838               -0.02867466                2.01206284                9.25311916                0.84820434
               6.29220912                3.99301194                7.03019243                0.00010000                0.30348320                0.03393182                0.02218323                2.01939815                9.30147575                1.63373717
               7.29436960                3.98565912                7.05519717                0.12901337                0.11145327                0.04926077                0.05910392                1.29395939                5.91266445                2.59920436
               8.29443818                3.96613208                7.01037535                0.41546351                0.06586727                0.07527683               -0.10287640                0.31055687                1.22190245                1.53887313
               9.29568695                3.94201850                6.94110481                0.97196222                0.23706777                0.19965201               -0.74723273                0.01256501                0.00328200                0.46439044
              10.29917954                3.91848404                6.87171390                1.00000000                0.34925886                0.32032707               -1.39058094               -0.04811660                0.00599025               -0.54388377
               0.29822289                5.07432652                7.10065783                1.00000000               -0.26108357               -0.33468770                1.26534517               -0.05458990                0.03618121                0.80046473
               1.29561205                5.05336978                7.02545283                0.78631416               -0.12321862               -0.15121691                0.43863289               -0.02138954                0.08396477               -0.22736358
               2.29575851                5.03163997                6.95100640                0.07345409                0.32886736                0.03352068               -0.38602212                0.46604699                3.76615290               -1.23915701
               3.30218940                5.01869313                6.94961259                0.00010000                0.69799268                0.17457955               -0.04534542                1.40250126                9.19848115                0.00050031
               4.30971837                5.01008157                6.98359062                0.00010000                0.66923132                0.05478876               -0.03128116                1.73442763               10.87516579                0.38483092
               5.31557402                5.00131024                7.01764918                0.00010000                0.46533478               -0.01607927                0.09393772                1.78532585               10.86554215                0.95809124
               6.31902506                4.99294572                7.05274200                0.00010000                0.21117309               -0.05495233                0.26066760                1.80816731               11.00787265                1.68343351
               7.31979749                4.98560869                7.08993276                0.13968684               -0.01753584               -0.06888706                0.44161713                1.12461815                6.68768314                2.49182558
               8.31867435                4.96627427                7.03827760                0.43177542               -0.03816598               -0.03388791                0.21392140                0.24106519                1.13001460                1.41731252
               9.31903417                4.94350735                6.96401072                0.99423802                0.14754065                0.10950116               -0.45073132                0.00998005                0.00217689                0.43067206
              10.32162516                4.92130284                6.88966312                1.00000000                0.25909928                0.25441808               -1.11825236               -0.04715897                0.00441776               -0.55244329
               0.31773973                6.07128389                7.08700061                1.00000000               -0.18832235               -0.27590603                1.05419397               -0.05358589                0.03801153                0.78222507
               1.31585650                6.05222484                7.00670784                0.75329871               -0.04348024               -0.07507435                0.17716461               -0.01802747                0.09495773               -0.23050331
               2.31687012                6.03239890                6.92736411                0.05990737                0.52320584                0.12625166               -0.69434739                0.41698887                4.92257650               -1.21851201
               3.32632062                6.02029412                6.94378529                0.00010000                0.90545207                0.14404954               -0.20837917                1.21470172               10.97617507                0.14027519
               4.33497916                6.01027688                6.98544232                0.00010000                0.74108413               -0.01052143               -0.04374726                1.46471223               12.25675222                0.45491113
               5.34114230                6.00072777                7.02911629                0.00010000                0.45474243               -0.09972190                0.20885201                1.55616436               12.40447314                0.97376260
               6.34407401                5.99191289                7.07496177                0.00010000                0.11955550               -0.15217468                0.49380694                1.59891300               12.62348656                1.63429765
               7.34353341                5.98428138                7.12335999                0.14823125               -0.13565927               -0.19232704                0.79176280                0.96279527                7.45425476                2.37751458
               8.34136083                5.96545433                7.06576696                0.44553204               -0.13377155               -0.12598750                0.50617487                0.17891902                1.08810394                1.38774950
               9.34085798                5.94420852                6.98671249                0.99954673                0.06422731                0.03649989               -0.18593190                0.00323449                0.01035029                0.43692557
              10.34264537                5.92357240                6.90749076                1.00000000                0.17873911                0.20414916               -0.88790322               -0.04546170                0.00492894               -0.53408719
               0.33526927                7.06880839                7.07320309                1.00000000               -0.11327768               -0.21948718                0.83856540               -0.05350210                0.04058704                0.76222609
               1.33413649                7.05186829                6.98788438                0.71968609                0.03798728                0.00763945               -0.09560413               -0.01556859                0.11194793               -0.24086248
               2.33602901                7.03416500                6.90382359                0.04576876                0.72344843                0.23645583               -1.02258552                0.28993936                6.08353574               -1.20117199
               3.34860546                7.02157412                6.93811544                0.00010000                1.12749777                0.10830504               -0.42895991                0.89587728               12.72581024                0.07102090
               4.35857897                7.00987114                6.98726374                0.00010000                0.82279186               -0.07975763               -0.08423593                1.14464328               13.58167796                0.42196049
               5.36506130                6.99931580                7.04001118                0.00010000                0.44353691               -0.18531712                0.30889927                1.30554361               13.87618661                0.89091173
               6.36744971                6.98990222                7.09608782                0.00010000                0.02253305               -0.24623569                0.72001455                1.37115206               14.18862147                1.49190045
               7.36551196                6.98176215                7.15541377                0.15456224               -0.25620609               -0.31409674                1.14437046                0.79669817                8.25612441                2.20989953
               8.36232559                6.96375452                7.09302352                0.45656947               -0.22655872               -0.21791368                0.80189438                0.12535459                1.11112891                1.35168794
               9.36098078                6.94423734                7.00951327                0.99856769               -0.01687050               -0.03166180                0.06872712               -0.00108474                0.02939892                0.44684214
              10.36198818                6.92538582                6.92545333                1.00000000                0.10073918                0.15891584               -0.66908772               -0.04657821                0.00246248               -0.50831554
               0.35054990                8.06689415                7.05915652                1.00000000               -0.03613728               -0.16456728                0.61621418               -0.05191047                0.04878072                0.73544507
               1.35018853                8.05237763                6.96886228                0.68199718                0.12065885                0.09901777               -0.38069656               -0.01118724                0.14387432               -0.27627436
               2.35296308                8.03712802                6.88033696                0.03015588                0.91717532                0.36430336               -1.37453638                0.06784396                7.16495935               -1.17895215
               3.36853203                8.02246022                6.93070016                0.00010000                1.35836393                0.04605701               -0.69133396                0.42323429               14.39915375               -0.09171404
               4.38013035                8.00868172                6.98795241                0.00010000                0.93450280               -0.18315480               -0.15007491                0.77946183               14.89042534                0.30820922
               5.38722209                7.99702142                7.04927849                0.00010000                0.44601766               -0.26933903                0.38994256                1.01526604               15.27683017                0.69938562
               6.38905071                7.98698818                7.11506085                0.00010000               -0.08035038               -0.32824889                0.94057669                1.09673316               15.71684357                1.20278865
               7.38561508                7.97799945                7.18543831                0.15805667               -0.38289922               -0.44349621                1.53392044                0.61219634                9.13985014                1.91389903
               8.38139272                7.96109605                7.11996718                0.46267408               -0.32050466               -0.32063204                1.12061448                0.07812398                1.23000154                1.27719036
               9.37920499                7.94357529                7.03236990                0.99864231               -0.09879341               -0.10598592                0.33341583               -0.00233097                0.06627003                0.45138362
              10.37941685                7.92675071                6.94360794                0.99972067                0.02118671                0.11156443               -0.44343322               -0.04728808                0.00713157               -0.49785913
               0.36326409                9.06551705                7.04472554                1.00000000                0.04147833               -0.11203570                0.38934356               -0.04850642                0.04516135                0.59947975
               1.36367888                9.05384864                6.94927377                0.63606997                0.20196052                0.19711567               -0.67315691               -0.00422926                0.21737868               -0.28997524
               2.36730330                9.04145107                6.85718445                0.01210904                1.09187831                0.49239510               -1.73413947               -0.28297122                8.19067895               -0.95133191
               3.38551644                9.02249526                6.92151845                0.00010000                1.61518512               -0.14624339               -0.94008722               -0.02883868               15.96886674               -0.14141237
               4.39960701                9.00620804                6.98693214                0.00010000                1.07718612               -0.25991378               -0.22891464                0.38572632               16.12370201                0.16294890
               5.40706016                8.99392902                7.05574769                0.00010000                0.43996706               -0.32944942                0.44677846                0.62598367               16.53950135                0.39461321
               6.40840635                8.98333725                7.13006053                0.00010000               -0.17060767               -0.39767136                1.13368068                0.67395695               17.17787927                0.69525055
               7.40364801                8.97289222                7.21173876                0.15877648               -0.50470611               -0.55952931                1.93834008                0.37967888               10.16377460                1.26980113
               8.39831222                8.95734188                7.14597644                0.46169468               -0.41842550               -0.42510736                1.45230733                0.03336276                1.53467660                0.94546993
               9.39527950                8.94211763                7.05533090                0.99982629               -0.18103332               -0.18988234                0.61221658               -0.00016297                0.14342640                0.39671661
              10.39469156                8.92761711                6.96172341                0.99951339               -0.05879428                0.05819675               -0.20711586               -0.04693116               -0.00680027               -0.43488213
               0.37291658               10.06465344                7.02778342                1.00000000                0.12533402               -0.08636128                0.14209718                0.13189980                0.33667689                0.48491393
               1.37416992               10.05631995                6.92999626                0.80230026                0.28702252                0.24713027               -0.94951124                0.16522879                0.64977936               -0.28158216
               2.37865703               10.04697592                6.83845822                0.50039912                1.45141832                0.55248539               -2.00803924               -0.70385678                9.23814767               -0.75521757
               3.40319829               10.01953536                6.91283407                0.43167797                1.88770470               -0.29599088               -1.11414825               -0.40643922               17.18785446               -0.07812817
               4.41641113               10.00348345                6.98404631                0.42861823                0.97071342               -0.27245919               -0.30103253                0.22526592               17.11028827                0.10004701
               5.42261256                9.99043243                7.05832336                0.45152970                0.35777587               -0.34965845                0.47155195                0.33280419               17.54669738                0.22695189
               6.42356664                9.97903475                7.13856596                0.49765621               -0.17042655               -0.43024963                1.25749062                0.33485086               18.36175651                0.38330702
               7.41920402                9.96680886                7.22898200                0.57944151               -0.53660336               -0.60833624                2.19143029                0.23355904               11.22490948                0.81742062
               8.41283458                9.95259390                7.16638281                0.72950672               -0.51387633               -0.47479759                1.71441653                0.10067406                2.23722167                0.66978723
               9.40892650                9.93977764                7.07717489                1.00000000               -0.26776568               -0.23399855                0.89174334                0.13073696                0.56615560                0.33885107
              10.40747926                9.92791465                6.98116605                0.99995016               -0.14472361                0.02975395                0.05139253                0.09247132                0.22264331               -0.37296920
               0.22602344                0.12288385                8.19275298                1.00000000               -0.56717105               -0.65218950                2.26822701               -0.14593157               -0.52595624                0.58524323
               1.22035173                0.08730847                8.13247198                1.00000000               -0.44643684               -0.46383889                1.64619012               -0.10525887               -0.51555056               -0.03462011
               2.21709470                0.05166851                8.07229933                0.71712172               -0.07407927               -0.30775339                1.02077391                0.07069826               -0.23377107               -0.55554237
               3.21887014                0.02001727                8.01775492                0.52076861                0.54360079               -0.17486163                0.41977437                0.36257025                1.20578293               -0.07376795
               4.22796672                0.00048211                7.98659262                0.45013548                0.92194764               -0.15799929               -0.03521848                0.34097007                3.55186239               -0.06168372
               5.23730910               -0.00611500                7.97912559                0.45857646                0.53113479               -0.09535505               -0.34677860                0.16012367                4.59016287               -0.00172187
               6.23858941               -0.01334625                7.96890633                0.53611683               -0.02970151                0.08675039               -0.66687012                0.25007075                3.29458610                0.04930843
               7.23671507               -0.03264468                7.93554740                0.69740796               -0.03410391                0.27693579               -1.09824429                0.24722502                1.22028368                0.07822853
               8.23790734               -0.06244044                7.88378660                0.98378269                0.31054226                0.45480719               -1.61359741                0.08592364               -0.04944964                0.28666650
               9.24292591               -0.09611369                7.82502206                1.00000000                0.60722252                0.60648262               -2.16023574               -0.07570730               -0.39289148                0.14482387
              10.25005179               -0.12978619                7.76639560                1.00000000                0.71258753                0.75825769               -2.70239678               -0.13609842               -0.38825564               -0.39828645
               0.26013950                1.11636195                8.17427421                1.00000000               -0.52326941               -0.61563313                2.04983571               -0.05443219               -0.01962291                0.77385310
               1.25490681                1.08267008                8.11339537                1.00000000               -0.43461087               -0.42744424                1.42621988               -0.02090440                0.04121024               -0.06282390
               2.25144728                1.04859098                8.05361988                0.28601883               -0.34088793               -0.26888040                0.80742292                0.18222600                0.87055061               -0.86696006
               3.24808905                1.01826866                8.00944334                0.00101662               -0.35023629               -0.14387607                0.29156132                0.75172464                2.54018464               -1.04589833
               4.24444256                0.99890212                7.98361454                0.00346845               -0.11322673                0.31698832               -0.08916295                1.65802018                4.59234634                0.21600479
               5.24582451                0.99293144                7.98153404                0.00512146                0.49562007                0.07608801               -0.30430832                2.00165970                5.59160673                0.15787615
               6.25435496                0.98752125                7.97648194                0.01514228                0.89549474               -0.08835196               -0.53581807                1.62985971                4.28860172                0.14500915
               7.26373441                0.97012468                7.94825740                0.25037870                0.80730595                0.30173252               -0.90114636                0.90762881                2.33654947                1.02317981
               8.27050108                0.94210764                7.90365329                0.68957622                0.60536529                0.42560245               -1.36363982                0.28877897                1.01563517                0.76383364
               9.27584171                0.90995113                7.84868020                1.00000000                0.59311106                0.55756089               -1.86733949                0.02515756                0.31205253                0.36835561
              10.28236330                0.87779639                7.78988219                1.00000000                0.65215852                0.69904567               -2.40337379               -0.05315091                0.12286260               -0.43856134
               0.29231854                2.11057118                8.15937786                1.00000000               -0.46139247               -0.54512320                1.85516359               -0.05644808                0.07910259                0.95025336
               1.28770461                2.07875958                8.09373414                0.89132768               -0.35889456               -0.36073946                1.20299791               -0.02399478                0.12366036               -0.17204247
               2.28514065                2.04629091                8.02884687                0.12003957               -0.20555567               -0.19554623                0.56363880                0.19701639                1.05188911               -1.31535656
               3.28359350                2.01713975                7.98187003                0.00010000                0.06618432                0.14562778                0.04064901                1.53410554                4.50740723               -1.27735010
               4.28646433                2.00682188                7.98620594                0.00010000                0.25648274                0.54435417               -0.06493592                2.79671458                6.81395552                0.21771104
               5.28872315                1.99540676                7.98700171                0.00010000                0.37645208                0.23980222               -0.24460207                2.93191750                6.49342355                0.45969785
               6.29399337                1.98488671                7.98584107                0.00010000                0.57790520               -0.08722206               -0.43123724                2.69585432                6.13790848                0.77645104
               7.30028126                1.97338997                7.97973615                0.10066771                0.49315418                0.18319921               -0.60408036                1.58203761                3.87000686                2.16837236
               8.30385646                1.94607161                7.93298678                0.38824048                0.37295252                0.36854646               -1.04276183                0.36457805                1.36685827                1.87039570
               9.30774031                1.91503753                7.87677420                0.97979034                0.47209011                0.45760611               -1.52894807                0.04184005                0.50252930                0.66299503
              10.31329826                1.88419472                7.81256061                1.00000000                0.55579519                0.57840080               -2.09213583               -0.04786558                0.11191870               -0.43561343
               0.32263374                3.10545949                8.14432357                1.00000000               -0.39265485               -0.47590328                1.65309089               -0.05850919                0.03612493                0.91839517
               1.31870719                3.07545529                8.07246973                0.83636097               -0.28131469               -0.29517054                0.95194771               -0.02805518                0.07819435               -0.25694425
               2.31700744                3.04468006                8.00130406                0.09308036               -0.02335005               -0.12143160                0.25600004                0.38501429                2.07111969               -1.43991850
               3.31824019                3.02118121                7.96944498                0.00010000                0.25512000                0.35763030                0.12018175                1.62656613                6.30338220               -0.38719895
               4.32210984                3.00978920                7.98305381                0.00010000                0.40789206                0.24329340               -0.05518714                2.31665665                8.42853153                0.06509018
               5.32639803                2.99772749                7.99547261                0.00010000                0.40894926                0.18137819               -0.15281375                2.41064281                8.23023213                0.72799830
               6.33028883                2.98577681                8.00628916                0.00010000                0.38961130                0.09003036               -0.24611680                2.33089167                8.01334148                1.50310313
               7.33419026                2.97378866                8.01497282                0.10988137                0.29281266                0.08470909               -0.42419384                1.50696502                5.45840772                2.58887215
               8.33614508                2.94947856                7.97479896                0.38512019                0.21825729                0.25555371               -0.56056235                0.41867012                1.59679085                2.15364132
               9.33855540                2.91910326                7.90608357                0.92985425                0.34732537                0.34450837               -1.14949879                0.02042670                0.10191796                0.65148401
              10.34309159                2.88936440                7.83583829                1.00000000                0.45361884                0.45477578               -1.76271005               -0.04662575                0.03744166               -0.45698028
               0.35115675                4.10105312                8.12879882                1.00000000               -0.32338044               -0.40591069                1.44275881               -0.05635614                0.02823235                0.88366550
               1.34792294                4.07285617                8.05112326                0.80710852               -0.20208673               -0.22341021                0.69439321               -0.02605777                0.06623448               -0.25838703
               2.34711501                4.04386227                7.97404993                0.08160365                0.15463678               -0.04119986               -0.05392809                0.49360473                3.17844666               -1.39597714
               3.35101568                4.02429236                7.95877136                0.00010000                0.45680883                0.25815546                0.07872302                1.57359107                8.21059811               -0.20925153
               4.35625119                4.01168774                7.98243533                0.00010000                0.49663609                0.15166196               -0.02580297                2.05844505               10.07325472                0.28683081
               5.36094840                3.99903432                8.00623107                0.00010000                0.41494231                0.08912744               -0.04231892                2.11264878               10.00774374                0.92940533
               6.36455003                3.98668732                8.03005340                0.00010000                0.28852026                0.05387910               -0.03445720                2.12292450               10.02931101                1.74297577
               7.36671880                3.97508415                8.05513967                0.12328483                0.11826155                0.08027964               -0.04513015                1.38222124                6.51772927                2.78496313
               8.36691527                3.95118269                8.00907745                0.40632110                0.07720990                0.10183055               -0.15411088                0.34934008                1.48322459                1.65597637
               9.36826300                3.92192769                7.93338990                0.95703391                0.24640924                0.22706901               -0.79644761                0.01315374                0.00430620                0.51498048
              10.37184345                3.89329024                7.85756900                1.00000000                0.35804483                0.35067099               -1.44120052               -0.04943148                0.00640471               -0.55161998
               0.37790051                5.09734127                8.11313177                1.00000000               -0.25236253               -0.33899848                1.23045721               -0.05388972                0.03251239                0.86678545
               1.37537688                5.07098709                8.02982517                0.77575241               -0.12285747               -0.14919645                0.43562957               -0.02102298                0.07932901               -0.25772065
               2.37544336                5.04385606                7.94729695                0.06931939                0.32548301                0.04246486               -0.35731737                0.50814445                4.33140347               -1.36224924
               3.38188654                5.02634432                7.94918353                0.00010000                0.65467138                0.18732630               -0.05678735                1.45897043               10.15368957               -0.04233982
               4.38853678                5.01282244                7.98336031                0.00010000                0.58824467                0.07896564               -0.02503771                1.80154460               11.72722839                0.42227290
               5.39365143                4.99951004                8.01845458                0.00010000                0.40803513                0.00783891                0.07251585                1.88231989               11.76582630                1.04132667
               6.39669749                4.98685439                8.05499782                0.00010000                0.18439382               -0.03090125                0.20591034                1.91843533               11.90001791                1.80739857
               7.39733931                4.97539426                8.09386090                0.13420376               -0.02045715               -0.03951169                0.35851148                1.20885431                7.36298412                2.66818882
               8.39628834                4.95151518                8.04028177                0.42356456               -0.03141938               -0.02157225                0.18598049                0.27054052                1.37326094                1.48761899
               9.39671092                4.92364464                7.95934120                0.98157421                0.15447621                0.12740847               -0.48499915                0.01062510                0.00631472                0.44564038
              10.39937787                4.89637782                7.87829366                1.00000000                0.26669448                0.27630169               -1.15871383               -0.04717860                0.00855525               -0.59986079
               0.40278733                6.09427315                8.09734634                1.00000000               -0.17996267               -0.27610162                1.01627737               -0.05224349                0.03600221                0.85084192
               1.40098770                6.06987225                8.00845530                0.74324802               -0.04333291               -0.07168538                0.17287961               -0.01700409                0.09356870               -0.26653628
               2.40192067                6.04471157                7.92056498                0.05627664                0.51205033                0.13459605               -0.66574009                0.45608210                5.57838098               -1.35570820
               3.41122871                6.02803888                7.94152537                0.00010000                0.85978481                0.15441603               -0.24597056                1.26184678               12.11390965                0.04798612
               4.41911636                6.01326706                7.98497852                0.00010000                0.66670689                0.01542477               -0.05427493                1.52319183               13.28673778                0.46650347
               5.42456284                5.99919110                8.03101584                0.00010000                0.39590803               -0.07212472                0.17976756                1.64159733               13.46294384                1.04917473
               6.42703452                5.98606929                8.07959462                0.00010000                0.08361321               -0.12884877                0.44772127                1.70014041               13.67142547                1.75775625
               7.42623511                5.97429392                8.13102581                0.14302474               -0.14794149               -0.17758342                0.74596362                1.03256419                8.18887512                2.54549224
               8.42407569                5.95075124                8.07080726                0.43771772               -0.13111261               -0.12516064                0.49754866                0.19812499                1.31265662                1.44894976
               9.42361286                5.92447586                7.98478730                0.99964316                0.06789051                0.04484864               -0.20210379                0.00522247                0.01384322                0.43201937
              10.42543350                5.89881627                7.89849953                1.00000000                0.18206493                0.21724318               -0.90830321               -0.04656255                0.00442615               -0.60548199
               0.42565744                7.09181924                8.08137576                1.00000000               -0.10590671               -0.21533250                0.79805411               -0.05100673                0.03900239                0.82937639
               1.42459838                7.06955338                7.98691377                0.70959539                0.03704578                0.01077908               -0.09745671               -0.01323274                0.11168974               -0.28596113
               2.42639836                7.04654798                7.89377323                0.04253661                0.69848067                0.24003485               -0.98718043                0.33046363                6.81499345               -1.35927922
               3.43856799                7.02943264                7.93355477                0.00010000                1.07250230                0.12011284               -0.47342196                0.94091839               14.05023202               -0.05603006
               4.44784841                7.01313093                7.98628492                0.00010000                0.75565777               -0.05188356               -0.10886002                1.19435218               14.81074429                0.41046050
               5.45368115                6.99806754                8.04286024                0.00010000                0.38745336               -0.15548823                0.27358723                1.37236819               15.10546247                0.95262419
               6.45559747                6.98427742                8.10304190                0.00010000               -0.01862515               -0.22552307                0.68450847                1.44882202               15.40154684                1.61252998
               7.45330864                6.97184259                8.16682869                0.14984008               -0.27642873               -0.31109029                1.13293754                0.84607656                9.05456246                2.39795290
               8.45006890                6.94901196                8.10109148                0.44893746               -0.22791520               -0.22310826                0.80473595                0.13589450                1.31198044                1.42674617
               9.44875034                6.92454161                8.01019037                0.99859089               -0.01515521               -0.03036274                0.06390679                0.00096208                0.02899385                0.44147093
              10.44976579                6.90072269                7.91873552                1.00000000                0.10154553                0.16562982               -0.67513208               -0.04690297                0.00289452               -0.58270760
               0.44629892                8.08996650                8.06509759                1.00000000               -0.03046079               -0.15710873                0.57499144               -0.04864291                0.04609743                0.79956777
               1.44599431                8.07008783                7.96508085                0.67288616                0.11758816                0.09965460               -0.37498928               -0.00807238                0.14079553               -0.32873753
               2.44865068                8.04951227                7.86685594                0.02761026                0.87349055                0.35858049               -1.32291282                0.11585110                7.96751910               -1.35036996
               3.46346412                8.03044114                7.92359610                0.00010000                1.28589135                0.05891224               -0.71529848                0.48036851               15.92123567               -0.21909520
               4.47436851                8.01222938                7.98624564                0.00010000                0.86998030               -0.15193154               -0.18008830                0.82197849               16.33252769                0.28418176
               5.48086372                7.99608133                8.05290223                0.00010000                0.39337080               -0.23794156                0.35128331                1.05941497               16.69012669                0.74387521
               6.48223592                7.98155883                8.12427056                0.00010000               -0.12208156               -0.30796902                0.91277072                1.14363523               17.12011360                1.30969741
               7.47842209                7.96807211                8.20084753                0.15454133               -0.40706800               -0.44228869                1.53671675                0.63954530               10.01488547                2.12517602
               8.47409456                7.94628908                8.13120081                0.45617734               -0.32503607               -0.32460881                1.12082772                0.08282991                1.40010961                1.36963501
               9.47192137                7.92386861                8.03572010                0.99864519               -0.09806359               -0.10736254                0.33321766                0.00001118                0.05823160                0.45938009
              10.47213329                7.90212887                7.93919648                0.99979463                0.02119179                0.11386242               -0.44276588               -0.04677504                0.00681378               -0.56414526
               0.46444193                9.08867707                8.04840435                1.00000000                0.04492301               -0.10248637                0.34980008               -0.04549070                0.04028868                0.65288294
               1.46489116                9.07154647                7.94263779                0.63149303                0.19600687                0.19314888               -0.65524241               -0.00217110                0.21283178               -0.33689627
               2.46836207                9.05371959                7.84025899                0.01115999                1.02835410                0.47494598               -1.65654293               -0.21881240                9.07991538               -1.08329205
               3.48545824                9.03061089                7.91211645                0.00010000                1.51428570               -0.11872682               -0.93039409                0.03252893               17.69332380               -0.22064336
               4.49864778                9.01009230                7.98444261                0.00010000                1.00408788               -0.22682211               -0.25322906                0.41728779               17.76718287                0.14417460
               5.50554000                8.99330871                8.05992673                0.00010000                0.39158074               -0.29895636                0.40866754                0.64694903               18.13657987                0.41930893
               6.50647940                8.97811804                8.14122250                0.00010000               -0.20853498               -0.37704082                1.10927564                0.69451282               18.79203646                0.76172580
               7.50136930                8.96299681                8.23113382                0.15774390               -0.52751981               -0.55431552                1.93274043                0.39046318               11.13581947                1.42027206
               8.49592900                8.94251979                8.16042461                0.45914290               -0.42292667               -0.42386031                1.43769489                0.03419109                1.68160157                1.01417833
               9.49291077                8.92239436                8.06146676                0.99983418               -0.18096162               -0.19124207                0.61269877                0.00121761                0.13118458                0.41467204
              10.49230977                8.90299994                7.95971499                0.99956153               -0.06009992                0.05699492               -0.19881155               -0.04655956               -0.00897604               -0.48258249
               0.47965029               10.08791677                8.02902546                1.00000000                0.12580718               -0.07602953                0.10891035                0.12423932                0.36197360                0.52821789
               1.48090836               10.07395080                7.92066545                0.80244364                0.27798618                0.24043324               -0.92005183                0.15644102                0.69256878               -0.31930192
               2.48521002               10.05901119                7.81890557                0.50060190                1.34168091                0.52915986               -1.91270140               -0.60941533               10.23932338               -0.84222153
               3.50774198               10.02806660                7.90181961                0.43207334                1.74032097               -0.25442829               -1.08378203               -0.33753836               19.07459801               -0.11667917
               4.52001644               10.00769294                7.98088877                0.42897258                0.90174947               -0.23993606               -0.31480427                0.23864536               18.91315840                0.09230867
               5.52577697                9.99010221                8.06277194                0.45185688                0.32108209               -0.32065067                0.43984457                0.33995054               19.30297333                0.24374343
               6.52643808                9.97401801                8.15098791                0.49801858               -0.19736825               -0.41000240                1.23973381                0.34004780               20.15048475                0.43088658
               7.52182961                9.95698580                8.25093703                0.58000878               -0.55286201               -0.60110106                2.19301179                0.23572337               12.30974916                0.90690229
               8.51538084                9.93781187                8.18343573                0.73026598               -0.51820163               -0.47079163                1.69923038                0.09808178                2.43332872                0.70712709
               9.51146557                9.92004377                8.08611486                1.00000000               -0.26949461               -0.23505924                0.89460145                0.12832553                0.59085888                0.35937610
              10.50999094                9.90326877                7.98177331                0.99997881               -0.14746294                0.02688328                0.06556964                0.09061777                0.23803204               -0.40707640
               0.28391018                0.14853912                9.21526324                1.00000000               -0.56255133               -0.64325369                2.23614627               -0.14043426               -0.57377915                0.63216878
               1.27828467                0.10714024                9.14892032                1.00000000               -0.44653875               -0.46254819                1.64282253               -0.09950305               -0.56630425               -0.03413025
               2.27497940                0.06566910                9.08264049                0.71714374               -0.08303306               -0.31332692                1.04433905                0.07707242               -0.27645311               -0.59299180
               3.27662400                0.02821098                9.02218667                0.52086710                0.52841387               -0.18221618                0.46255490                0.36906390                1.23451803               -0.07854991
               4.28554768                0.00308180                8.98641623                0.45071159                0.90383352               -0.15565410               -0.00188822                0.34264003                3.69428260               -0.06739906
               5.29470067               -0.00877279                8.97565878                0.45935797                0.51764014               -0.08541528               -0.34443576                0.16049766                4.77893707               -0.00504929
               6.29590048               -0.02108359                8.96212806                0.53641114               -0.03410027                0.09494876               -0.68416074                0.25235501                3.42145548                0.04944686
               7.29401867               -0.04553711                8.92446421                0.69705742               -0.03442624                0.28328031               -1.11540158                0.25115774                1.25430094                0.08183775
               8.29521196               -0.08062832                8.86761226                0.98317732                0.31087571                0.45861637               -1.62255686                0.08805674               -0.07039735                0.29926845
               9.30023618               -0.11969719                8.80343209                1.00000000                0.60723287                0.61002012               -2.16285992               -0.07584856               -0.42645950                0.16000783
              10.30735662               -0.15880651                8.73942706                1.00000000                0.71204332                0.76154484               -2.69913310               -0.13451543               -0.41663250               -0.41498125
               0.32390472                1.14210659                9.19460144                1.00000000               -0.51800758               -0.60844440                2.01804684               -0.05247769               -0.02510359                0.83195221
               1.31872465                1.10251475                9.12764501                1.00000000               -0.43449841               -0.42644595                1.42321880               -0.01815495                0.03716617               -0.06335121
               2.31521476                1.06253583                9.06183537                0.28458961               -0.35581762               -0.27379167                0.83237809                0.18888685                0.91809830               -0.91734062
               3.31160829                1.02638882                9.01258529                0.00141165               -0.38743946               -0.15798295                0.33339573                0.78151725                2.70088983               -1.10676537
               4.30746597                1.00152525                8.98287782                0.00416269               -0.16099741                0.32077442               -0.05972184                1.68850451                4.89579242                0.25423229
               5.30838835                0.99037306                8.97844974                0.00600269                0.46701142                0.08119014               -0.30999650                2.03697636                5.95651273                0.17246022
               6.31680619                0.97986589                8.97095827                0.01486827                0.89571309               -0.08771800               -0.56349029                1.65753957                4.56126173                0.13878278
               7.32630261                0.95729570                8.93908238                0.24833756                0.81831881                0.31223988               -0.92934325                0.91970568                2.47985546                1.07862391
               8.33317257                0.92395785                8.88992729                0.68502255                0.61320933                0.43168134               -1.38099782                0.29059699                1.08095403                0.81212842
               9.33856680                0.88640301                8.82994166                1.00000000                0.59741048                0.56528199               -1.88184342                0.02495675                0.33716963                0.40553850
              10.34512078                0.84880894                8.76580666                1.00000000                0.65539853                0.70748877               -2.41546500               -0.05171188                0.13346619               -0.44790085
               0.36204429                2.13637024                9.17776790                1.00000000               -0.45519654               -0.54191116                1.82470920               -0.05371685                0.08673104                1.01694631
               1.35749232                2.09861132                9.10575548                0.87973791               -0.35806071               -0.36017698                1.20060596               -0.02050589                0.13702516               -0.18713780
               2.35488307                2.06019327                9.03463380                0.11713414               -0.21136997               -0.19746175                0.59056842                0.19782791                1.12868201               -1.41116033
               3.35326492                2.02505132                8.98253552                0.00010000                0.02252283                0.15303142                0.08698813                1.57610582                4.83356877               -1.23576658
               4.35533353                2.00949728                8.98567647                0.00010000                0.19173199                0.55063581               -0.04416446                2.86038222                7.30211548                0.27770035
               5.35709956                1.99285102                8.98454145                0.00010000                0.33975543                0.24184050               -0.24562326                2.99046540                6.93519822                0.50224000
               6.36212864                1.97716205                8.98138199                0.00010000                0.56106332               -0.08745406               -0.45335427                2.75319870                6.56500530                0.80717193
               7.36832083                1.96070769                8.97350353                0.09728732                0.48939745                0.18508524               -0.63571359                1.61187253                4.14595212                2.20728558
               8.37191659                1.92800531                8.92241506                0.38113003                0.37816989                0.38965231               -1.06836608                0.36879148                1.48472711                2.02840080
               9.37588423                1.89160845                8.86127471                0.96373031                0.47969658                0.47626391               -1.56537540                0.04525045                0.55501069                0.74216875
              10.38151052                1.85534326                8.79144007                1.00000000                0.56262925                0.59696845               -2.12789625               -0.04465907                0.12661810               -0.43016601
               0.39834822                3.13126836                9.16069880                1.00000000               -0.38567223               -0.47637352                1.62337947               -0.05623897                0.03659279                0.97875458
               1.39449150                3.09531122                9.08198480                0.82330624               -0.28084571               -0.29426609                0.94999721               -0.02513823                0.08057098               -0.28786236
               2.39273131                3.05858659                9.00402162                0.08953159               -0.03325534               -0.11886016                0.28366642                0.40242684                2.34415338               -1.56808224
               3.39382639                3.02944945                8.97068726                0.00010000                0.20713048                0.39138131                0.12202709                1.66126057                6.81772739               -0.26525181
               4.39687392                3.01253797                8.98260130                0.00010000                0.33532505                0.25569649               -0.04043824                2.36699951                8.97042798                0.12444574
               5.40053289                2.99520987                8.99391672                0.00010000                0.35697884                0.19022327               -0.15663028                2.46580085                8.79580182                0.79216252
               6.40401349                2.97811681                9.00364337                0.00010000                0.35819511                0.10003752               -0.27405298                2.37728159                8.52343073                1.58461619
               7.40769680                2.96099740                9.01045738                0.10548753                0.28170760                0.08813071               -0.46178814                1.55066957                5.92880415                2.66832591
               8.40964765                2.93175089                8.96890425                0.37666143                0.22185270                0.28817446               -0.61155143                0.44333660                1.85116115                2.35272109
               9.41213385                2.89592828                8.89429812                0.91218512                0.35551588                0.37260173               -1.20042851                0.01973552                0.11618111                0.74199459
              10.41675796                2.86074830                8.81792135                1.00000000                0.46241137                0.48265020               -1.81439133               -0.04605155                0.03532671               -0.44205604
               0.43283381                4.12684277                9.14306768                1.00000000               -0.31624783               -0.40768279                1.41233031               -0.05477191                0.02537243                0.94150077
               1.42967133                4.09272600                9.05806091                0.79460650               -0.20202142               -0.22139472                0.69239226               -0.02423758                0.06232497               -0.29210664
               2.42879338                4.05781606                8.97366218                0.07814210                0.14337158               -0.03533286               -0.02635689                0.52249373                3.59795980               -1.52278846
               3.43253876                4.03287895                8.95949536                0.00010000                0.40598610                0.28214375                0.06116278                1.60842924                8.92867499               -0.19762192
               4.43691310                4.01461121                8.98222028                0.00010000                0.41489906                0.17229286               -0.02213646                2.09472466               10.72828951                0.33683240
               5.44083674                3.99665548                9.00575497                0.00010000                0.34868208                0.10710644               -0.05083656                2.16358655               10.70020636                1.00271052
               6.44388674                3.97916280                9.02950329                0.00010000                0.24317006                0.07178305               -0.06616546                2.17102190               10.70161049                1.85005295
               7.44570014                3.96247031                9.05429456                0.11856157                0.09828481                0.10444623               -0.10549578                1.43412086                7.11861785                2.97391029
               8.44585244                3.93376880                9.00729313                0.39780886                0.07906919                0.12729726               -0.19943115                0.38008938                1.76289452                1.79138799
               9.44728153                3.89906048                8.92517585                0.94016066                0.25485061                0.25472345               -0.84417986                0.01210971                0.00611643                0.57563839
              10.45094945                3.86499627                8.84288989                1.00000000                0.36679241                0.38133934               -1.49306365               -0.04975201                0.00573489               -0.55587924
               0.46548632                5.12311471                9.12526697                1.00000000               -0.24528713               -0.33930129                1.19813781               -0.05273718                0.02953567                0.92559603
               1.46303345                5.09088332                9.03416542                0.76444084               -0.12290465               -0.14602386                0.43234530               -0.01984293                0.07581033               -0.29290675
               2.46302823                5.05787994                8.94386005                0.06634839                0.30831876                0.04961975               -0.33160583                0.53916506                4.85507486               -1.48886566
               3.46919983                5.03509232                8.94847684                0.00010000                0.59818247                0.20018277               -0.08329480                1.48752004               11.06219651               -0.10404317
               4.47499188                5.01598383                8.98308987                0.00010000                0.50266086                0.10355634               -0.03126848                1.82850122               12.54307267                0.44097266
               5.47925304                4.99735200                9.01909949                0.00010000                0.33136154                0.03250602                0.05960179                1.92584940               12.61148949                1.11156997
               6.48161911                4.97955247                9.05686020                0.00010000                0.12600840               -0.00694311                0.17476481                1.96700724               12.74793826                1.92945168
               7.48177321                4.96308633                9.09710299                0.12958856               -0.04799250               -0.01234376                0.30129133                1.25712470                8.04589319                2.86677796
               8.48065926                4.93429684                9.04199721                0.41561553               -0.03123181               -0.00725924                0.15684182                0.29682261                1.63818718                1.57649276
               9.48114858                4.90102275                8.95431073                0.96613781                0.16160452                0.14696300               -0.52132164                0.01196556                0.00885800                0.47331762
              10.48389135                4.86837509                8.86648884                1.00000000                0.27427743                0.30123169               -1.20187186               -0.04676609                0.00941384               -0.63414967
               0.49624184                6.12005674                9.10732616                1.00000000               -0.17325966               -0.27350193                0.98171993               -0.05077368                0.03399824                0.90930410
               1.49450924                6.08980552                9.01016543                0.73273616               -0.04370800               -0.06799021                0.16947327               -0.01544583                0.09233566               -0.30587833
               2.49536768                6.05880846                8.91404930                0.05379826                0.48380152                0.14042559               -0.63871023                0.48683728                6.18424417               -1.49072367
               3.50418527                6.03688261                8.93886588                0.00010000                0.79278865                0.16452343               -0.27717645                1.28862357               13.20312613               -0.05507946
               4.51122345                6.01668234                8.98435682                0.00010000                0.57999074                0.04147005               -0.06780524                1.54597491               14.28821950                0.45799247
               5.51578508                5.99730560                9.03271164                0.00010000                0.31345557               -0.04350504                0.16430169                1.67510551               14.47881512                1.10873787
               6.51749256                5.97902393                9.08391619                0.00010000                0.01565935               -0.10377945                0.42300452                1.74054555               14.69400913                1.87867319
               7.51609827                5.96222343                9.13827926                0.13872079               -0.18200492               -0.15934239                0.70840964                1.06900470                8.93621955                2.73802773
               8.51385246                5.93362361                9.07571794                0.43024709               -0.13278446               -0.12004699                0.48302502                0.21602825                1.55295778                1.52070794
               9.51344258                5.90199974                8.98267041                0.98772954                0.07284953                0.05556092               -0.22438461                0.00826686                0.01867476                0.43822711
              10.51530945                5.87102090                8.88932469                1.00000000                0.18668700                0.23298127               -0.93397346               -0.04466254                0.00943857               -0.66115359
               0.52497329                7.11764467                9.08916418                1.00000000               -0.10004736               -0.20999149                0.76221068               -0.04894108                0.03719454                0.88533237
               1.52397282                7.08952352                8.98593524                0.69968784                0.03572994                0.01366741               -0.09798339               -0.01096882                0.11122597               -0.33095113
               2.52568789                7.06068845                8.88407998                0.04054500                0.65627990                0.24132039               -0.95339097                0.36449051                7.49315886               -1.50651328
               3.53709841                7.03838279                8.92864701                0.00010000                0.99002455                0.13170173               -0.49618575                0.97532807               15.32026579               -0.17673681
               4.54548838                7.01681323                8.98508654                0.00010000                0.66575736               -0.02373365               -0.12398503                1.21752191               16.01225707                0.38394835
               5.55041356                6.99648190                9.04548293                0.00010000                0.30119066               -0.12365828                0.25804660                1.39391359               16.30388348                0.99864436
               6.55151219                6.97747688                9.10977799                0.00010000               -0.09299677               -0.20112022                0.66767572                1.47163465               16.60580887                1.72686449
               7.54855363                6.95989948                9.17807252                0.14612062               -0.31543393               -0.30127922                1.11442317                0.86516402                9.86565653                2.59722902
               8.54520351                6.93189590                9.10911824                0.44200026               -0.23185006               -0.22339927                0.79842254                0.14521926                1.52045042                1.50024641
               9.54391662                6.90213397                9.01079141                0.99862713               -0.01238686               -0.02566178                0.05352426                0.00350930                0.02940162                0.44036249
              10.54495578                6.87303472                8.91195069                1.00000000                0.10391522                0.17337204               -0.68739533               -0.04538013                0.00714231               -0.64977482
               0.55150532                8.11585691                9.07065635                1.00000000               -0.02592365               -0.14989171                0.53966736               -0.04631869                0.04356550                0.85292490
               1.55124608                8.09007887                8.96136249                0.66452396                0.11464454                0.10013017               -0.36912809               -0.00569894                0.13825648               -0.37711720
               2.55379821                8.06363487                8.85387870                0.02639326                0.81604843                0.35235761               -1.27607449                0.15864183                8.71921958               -1.50111484
               3.56756705                8.03951664                8.91639419                0.00010000                1.18382856                0.07380477               -0.71540415                0.53368428               17.37739196               -0.32638037
               4.57747478                8.01620767                8.98435064                0.00010000                0.77163255               -0.11824152               -0.18932506                0.84838968               17.73679391                0.25386256
               5.58299970                7.99483244                9.05630416                0.00010000                0.30164466               -0.20182043                0.33819290                1.06960854               18.07818606                0.77553823
               6.58350767                7.97500153                9.13331626                0.00010000               -0.20085820               -0.28112373                0.90097349                1.14466046               18.52222051                1.40531528
               7.57898254                7.95619785                9.21617265                0.15197785               -0.44926607               -0.43456559                1.52570580                0.63813819               10.89808558                2.32621625
               8.57452235                7.92915563                9.14238373                0.45067702               -0.33042948               -0.32526867                1.11466049                0.08482287                1.57256456                1.44657969
               9.57237395                7.90148650                9.03903425                0.99864084               -0.09609962               -0.10588328                0.32693425                0.00144509                0.05064565                0.46510783
              10.57260036                7.87448834                8.93475263                0.99989178                0.02264118                0.11769570               -0.44792509               -0.04682605                0.00622025               -0.62509001
               0.57560300                9.11464684                9.05172154                1.00000000                0.04778805               -0.09406656                0.31654219               -0.04353372                0.03644661                0.69772117
               1.57608088                9.09152612                8.93616892                0.62703789                0.19099758                0.18998563               -0.64048174               -0.00080632                0.21105204               -0.37807193
               2.57942295                9.06773560                8.82405360                0.01133193                0.95592076                0.46017290               -1.59129803               -0.15880505                9.91998371               -1.19315908
               3.59519930                9.03985889                8.90291057                0.00010000                1.38587117               -0.08605978               -0.90583616                0.09263957               19.33557265               -0.28129701
               4.60714038                9.01444840                8.98186756                0.00010000                0.89062872               -0.18851880               -0.25182755                0.44168940               19.35802087                0.12515670
               5.61301187                8.99244549                9.06392104                0.00010000                0.29498086               -0.26077695                0.40050146                0.64895948               19.70744305                0.43626819
               6.61303999                8.97185441                9.15224604                0.00010000               -0.29247899               -0.34399376                1.10070727                0.68331217               20.40116685                0.81620521
               7.60716229                8.95120817                9.25039356                0.15712510               -0.57143403               -0.54286852                1.91828201                0.37523814               12.10676466                1.55276411
               8.60161131                8.92539052                9.17473034                0.45698131               -0.42747393               -0.42207166                1.42474144                0.03045566                1.82957134                1.06536786
               9.59861281                8.90001631                9.06758487                0.99981808               -0.17978657               -0.19087675                0.60925827                0.00151283                0.12296856                0.42841273
              10.59801558                8.87538863                8.95774718                0.99960760               -0.05972312                0.05840669               -0.19902381               -0.04663595               -0.01029703               -0.52542344
               0.59687607               10.11397558                9.02996162                1.00000000                0.12651152               -0.06712564                0.08055772                0.11760746                0.38383969                0.56471225
               1.59814119               10.09387858                8.91159522                0.80198310                0.27066333                0.23524596               -0.89751229                0.14916805                0.73347783               -0.35148000
               2.60228934               10.07283832                8.80020419                0.50120142                1.22829280                0.51027216               -1.83704989               -0.51751796               11.18577737               -0.91106084
               3.62270705               10.03779544                8.89115843                0.43274430                1.57163132               -0.20634443               -1.04620991               -0.26927669               20.87468023               -0.14420192
               4.63372197               10.01243729                8.97775022                0.42932321                0.79329183               -0.20111068               -0.30377931                0.24923180               20.65936085                0.08566853
               5.63857288                9.98961690                9.06712025                0.45206591                0.23446374               -0.28285926                0.44004847                0.34031918               21.03415928                0.25788805
               6.63841124                9.96812165                9.16336064                0.49827539               -0.28108478               -0.37327550                1.23964160                0.32330372               21.93591929                0.47005069
               7.63295119                9.94534047                9.27284223                0.58045474               -0.60439581               -0.58676911                2.18576240                0.20851653               13.38505004                0.98128886
               8.62632333                9.92071419                9.20036742                0.73065758               -0.52725441               -0.46763295                1.68949161                0.08762599                2.62164713                0.73235747
               9.62240610                9.89766897                9.09506692                1.00000000               -0.27001663               -0.23473374                0.89421745                0.12644261                0.61601511                0.37568176
              10.62092299                9.87565648                8.98247744                0.99999705               -0.14831051                0.02678445                0.07082862                0.08949178                0.25152339               -0.43739091
               0.34723371                0.17685084               10.23747591                1.00000000               -0.55853111               -0.63544972                2.20845815               -0.13578042               -0.62197210                0.67957243
               1.34164840                0.12917647               10.16532843                1.00000000               -0.44672110               -0.46085753                1.63824401               -0.09481663               -0.61797647               -0.03334774
               2.33829929                0.08141891               10.09318611                0.71712347               -0.09318200               -0.31680642                1.06198218                0.08059690               -0.32382001               -0.62974082
               3.33978476                0.03764904               10.02700602                0.52129488                0.50404853               -0.18645404                0.49745116                0.36756450                1.24385663               -0.08342308
               4.34838026                0.00621094                9.98655486                0.45134380                0.86956214               -0.14844177                0.02763947                0.33902189                3.79832866               -0.07211283
               5.35717600               -0.01179791                9.97223687                0.46000002                0.49164167               -0.07041137               -0.33912549                0.15839928                4.92832360               -0.00716470
               6.35821309               -0.03001772                9.95522311                0.53658615               -0.04295557                0.10606972               -0.69524829                0.25112900                3.52727500                0.05020702
               7.35631689               -0.06024426                9.91323937                0.69655807               -0.03407944                0.29020948               -1.12950323                0.25118904                1.28297208                0.08566083
               8.35753150               -0.10108513                9.85133546                0.98189406                0.31325118                0.46325364               -1.63496221                0.08851702               -0.09240966                0.31357200
               9.36258191               -0.14593266                9.78176486                1.00000000                0.60988439                0.61519497               -2.17427037               -0.07561131               -0.46114027                0.17329052
              10.36972919               -0.19084501                9.71241294                1.00000000                0.71472770                0.76703756               -2.70831702               -0.13389179               -0.44645361               -0.43854273
               0.39355027                1.17049634               10.21463515                1.00000000               -0.51340780               -0.60190454                1.99091594               -0.05063002               -0.03033931                0.89068805
               1.38841620                1.12456790               10.14185975                1.00000000               -0.43406493               -0.42497143                1.41936692               -0.01573415                0.03313888               -0.06377129
               2.38486898                1.07825085               10.07026744                0.28366415               -0.36759029               -0.27687339                0.85116124                0.19257766                0.96095314               -0.96684175
               3.38106439                1.03578450               10.01611125                0.00176061               -0.41875112               -0.16632959                0.36826601                0.79565640                2.83859791               -1.16667340
               4.37649395                1.00472653                9.98242011                0.00477458               -0.20950326                0.32207313               -0.03334742                1.69169635                5.15332217                0.28870739
               5.37687433                0.98749797                9.97533411                0.00679355                0.42268016                0.08912450               -0.31154648                2.04310235                6.27623022                0.19253100
               6.38494756                0.97104298                9.96521213                0.01475929                0.87440829               -0.08186214               -0.58303411                1.66390865                4.81113394                0.14115218
               7.39436249                0.94265783                9.92967053                0.24682223                0.81566601                0.32024672               -0.95139890                0.91773806                2.62023125                1.13910222
               8.40126088                0.90354740                9.87603333                0.68090478                0.61716233                0.43739025               -1.39835998                0.29048821                1.14804861                0.86303320
               9.40670574                0.86021929                9.81104333                1.00000000                0.60208696                0.57285489               -1.89867924                0.02557847                0.36145627                0.43612378
              10.41330262                0.81682537                9.74157289                1.00000000                0.65968782                0.71608627               -2.43269917               -0.05085548                0.14209617               -0.46904774
               0.43807800                2.16481275               10.19587204                1.00000000               -0.44987923               -0.53807727                1.79800706               -0.05140460                0.09493253                1.08366204
               1.43357921                2.12067704               10.11774626                0.86863955               -0.35718795               -0.35876421                1.19719202               -0.01758567                0.15178404               -0.20278392
               2.43093424                2.07588145               10.04065824                0.11523506               -0.21784985               -0.19804059                0.61176002                0.19822375                1.20249199               -1.50696216
               3.42922221                2.03432244                9.98360980                0.00010000               -0.02167667                0.15659212                0.12393511                1.58608139                5.13277358               -1.21731839
               4.43050071                2.01265241                9.98532265                0.00010000                0.12496909                0.55038883               -0.02788596                2.87285636                7.74520186                0.33227851
               5.43172159                1.98998458                9.98208924                0.00010000                0.29153476                0.24296262               -0.24367525                3.00451522                7.33805883                0.55048368
               6.43633140                1.96834504                9.97677398                0.00010000                0.52228188               -0.08475711               -0.46477320                2.77226593                6.96501749                0.84666971
               7.44216723                1.94616067                9.96702188                0.09491362                0.47242067                0.18531563               -0.65793973                1.62302997                4.41743475                2.26033798
               8.44577982                1.90766267                9.91161946                0.37553397                0.38241424                0.40537571               -1.08862867                0.37152232                1.59909644                2.18170413
               9.44981552                1.86552443                9.84546669                0.94887701                0.48600479                0.49113610               -1.59309059                0.04851197                0.60260854                0.81162871
              10.45549991                1.82347672                9.77000268                1.00000000                0.56843972                0.61240455               -2.15713135               -0.04231807                0.14256745               -0.43857492
               0.48079359                3.15973480               10.17679116                1.00000000               -0.37978077               -0.47488961                1.59668935               -0.05423152                0.03763772                1.03714258
               1.47699579                3.11739261               10.09146967                0.81087785               -0.28027718               -0.29218136                0.94634603               -0.02245113                0.08455698               -0.32018212
               2.47518805                3.07429004               10.00697739                0.08708317               -0.04903632               -0.11566875                0.30441935                0.41146212                2.59183853               -1.69730257
               3.47601506                3.03891634                9.97188552                0.00010000                0.15504494                0.41139480                0.12013358                1.66265631                7.30337716               -0.17339818
               4.47828895                3.01573430                9.98224504                0.00010000                0.26284677                0.26417082               -0.03205352                2.37487731                9.48615743                0.17634184
               5.48127199                2.99235723                9.99234000                0.00010000                0.29639148                0.19605883               -0.15729706                2.47807310                9.32279593                0.85591627
               6.48421678                2.96934784               10.00080810                0.00010000                0.31167333                0.10632504               -0.28793992                2.38590833                9.00764442                1.66819683
               7.48750546                2.94636415               10.00573705                0.10212974                0.25553932                0.08780389               -0.47462739                1.57205815                6.38196438                2.74858160
               8.48932756                2.91165492                9.96256793                0.36955993                0.21782335                0.31274099               -0.64898414                0.45949536                2.09445433                2.54813629
               9.49186193                2.87004201                9.88207500                0.89525867                0.36120593                0.39517096               -1.23873655                0.01958004                0.13114774                0.82921818
              10.49655168                2.82907346                9.79955046                1.00000000                0.46897548                0.50642208               -1.85538521               -0.04534647                0.03541464               -0.43464354
               0.52167774                4.15531496               10.15704543                1.00000000               -0.31027944               -0.40700387                1.38478049               -0.05311751                0.02360357                0.99483042
               1.51857495                4.11483342               10.06497111                0.78209003               -0.20189904               -0.21840911                0.68912655               -0.02213314                0.06042250               -0.32842434
               2.51763976                4.07356807                9.97352279                0.07555241                0.12280647               -0.02992111               -0.00416139                0.53811561                3.98263603               -1.65130323
               3.52103107                4.04255034                9.95999462                0.00010000                0.34588048                0.29882979                0.04276804                1.61266741                9.61263867               -0.19658126
               4.52455737                4.01793582                9.98199260                0.00010000                0.33192222                0.18855225               -0.02336072                2.09210239               11.36472629                0.37689668
               5.52766952                3.99390575               10.00521434                0.00010000                0.27426404                0.12137687               -0.05537328                2.16873065               11.35846950                1.07254394
               6.53004265                3.97047154               10.02873009                0.00010000                0.18158992                0.08413412               -0.08278046                2.17234878               11.34179721                1.95911786
               7.53130132                3.94791675               10.05302975                0.11471790                0.06246079                0.11904852               -0.13642242                1.45303297                7.70894263                3.15900643
               8.53129187                3.91391749               10.00508882                0.39006782                0.07436274                0.14826549               -0.23734441                0.40139392                2.04532904                1.93736807
               9.53278857                3.87342785                9.91650631                0.92258926                0.26191061                0.27872109               -0.88590249                0.01110953                0.00868044                0.64163164
              10.53653008                3.83360516                9.82770772                1.00000000                0.37415049                0.40932830               -1.54008995               -0.04935678                0.00459197               -0.55828099
               0.56069432                5.15159472               10.13709452                1.00000000               -0.23943157               -0.33764634                1.16918507               -0.05147883                0.02716145                0.97777751
               1.55830001                5.11302443               10.03847208                0.75269552               -0.12304430               -0.14242798                0.42885623               -0.01833929                0.07332349               -0.33137109
               2.55823344                5.07369162                9.94066483                0.06405139                0.28003244                0.05545486               -0.30936473                0.55669230                5.34153681               -1.61665777
               3.56390066                5.04489293                9.94751763                0.00010000                0.52710729                0.21083930               -0.10245397                1.48831828               11.93452857               -0.16854369
               4.56877558                5.01950535                9.98273494                0.00010000                0.41051157                0.12472050               -0.03772400                1.81847263               13.34268943                0.45041575
               5.57211089                4.99478476               10.01964662                0.00010000                0.24385859                0.05383323                0.05251453                1.92177167               13.42917811                1.17676963
               6.57365275                4.97103052               10.05849311                0.00010000                0.05046422                0.01267135                0.15689321                1.96323972               13.56739976                2.05430940
               7.57312017                4.94874512               10.09988672                0.12571877               -0.09042063                0.00840949                0.26344275                1.27230706                8.72833738                3.07551805
               8.57184434                4.91462023               10.04341861                0.40803577               -0.03618622                0.00634379                0.12886303                0.31615706                1.91398647                1.67903835
               9.57239645                4.87561643                9.94891477                0.94909660                0.16827941                0.16659384               -0.55674219                0.01154105                0.01034239                0.51017913
              10.57520993                4.83726003                9.85425622                1.00000000                0.28134828                0.32630966               -1.24416642               -0.04645825                0.00944483               -0.66131348
               0.59778874                6.14856203               10.11698073                1.00000000               -0.16774785               -0.26995115                0.95138623               -0.04947352                0.03203450                0.96002778
               1.59611126                6.11198486               10.01184477                0.72187229               -0.04418202               -0.06435663                0.16646746               -0.01388891                0.09121698               -0.34718453
               2.59690510                6.07467717                9.90779077                0.05193523                0.44362232                0.14483514               -0.61490574                0.50493044                6.75168738               -1.62279135
               3.60498371                6.04676713                9.93598184                0.00010000                0.70649457                0.17383280               -0.29136682                1.29095773               14.25476477               -0.15480374
               4.61103499                6.02043023                9.98362242                0.00010000                0.47980345                0.06553669               -0.07477248                1.53486663               15.27484818                0.44297443
               5.61457978                5.99498242               10.03430188                0.00010000                0.21560484               -0.01684248                0.15738703                1.66256080               15.47401825                1.16298430
               6.61534709                5.97072497               10.08805471                0.00010000               -0.07110120               -0.08079424                0.40850631                1.72869139               15.69806342                2.00236515
               7.61315775                5.94808494               10.14519400                0.13511632               -0.23016971               -0.14256687                0.67816016                1.07403740                9.68916990                2.94552402
               8.61074370                5.91404437               10.08046776                0.42309556               -0.13890809               -0.11345652                0.46700065                0.22947314                1.80422289                1.60107707
               9.61037959                5.87675973                9.98029961                0.97121833                0.07850112                0.06842960               -0.25050928                0.00982315                0.02106277                0.45400232
              10.61231372                5.84013135                9.87982006                1.00000000                0.19341248                0.25196157               -0.96907623               -0.04382994                0.01197255               -0.70783472
               0.63285920                7.14619570               10.09661997                1.00000000               -0.09521088               -0.20471997                0.73143855               -0.04737978                0.03528662                0.93366327
               1.63190709                7.11173730                9.98495410                0.68982049                0.03452883                0.01634767               -0.09839432               -0.00907771                0.11063042               -0.37528141
               2.63354978                7.07658832                9.87470541                0.03920284                0.60298285                0.24195942               -0.92419073                0.38652781                8.13365439               -1.64472429
               3.64396675                7.04836959                9.92363105                0.00010000                0.88539240                0.14414232               -0.49898008                0.98920327               16.54840805               -0.28488878
               4.65125762                7.02081608                9.98380521                0.00010000                0.55503099                0.00476945               -0.12643286                1.21188752               17.19529961                0.35606513
               5.65506737                6.99444791               10.04802117                0.00010000                0.19332175               -0.09142149                0.25418164                1.37403026               17.48625663                1.03999883
               6.65512406                6.96941464               10.11639542                0.00010000               -0.18929222               -0.17639424                0.65879937                1.44553110               17.80011739                1.84074149
               7.65128152                6.94589378               10.18911716                0.14308189               -0.36825206               -0.29047738                1.09540912                0.85475196               10.68320585                2.80381583
               8.64775902                6.91235110               10.11705993                0.43555597               -0.23878002               -0.22178962                0.79016886                0.15158956                1.73749242                1.57349555
               9.64650592                6.87698502               10.01126086                0.98962338               -0.00844677               -0.01912141                0.03843235                0.00669793                0.02990175                0.44431398
              10.64759008                6.84229926                9.90498761                1.00000000                0.10841598                0.18496147               -0.70940665               -0.04321485                0.01112054               -0.70681305
               0.66575794                8.14446763               10.07589094                1.00000000               -0.02208569               -0.14347410                0.50981574               -0.04473616                0.04127436                0.89945391
               1.66553709                8.11231181                9.95769829                0.65643518                0.11227106                0.10075000               -0.36457745               -0.00391068                0.13633215               -0.42234045
               2.66800336                8.07951636                9.84133445                0.02582305                0.75014633                0.34712974               -1.23694428                0.19042411                9.43598464               -1.63699852
               3.68054001                8.04964997                9.90928802                0.00010000                1.05955277                0.09255616               -0.70079645                0.56991265               18.78415952               -0.41568522
               4.68919442                8.02052562                9.98245914                0.00010000                0.64609075               -0.08101113               -0.18299151                0.85220593               19.11270711                0.22679714
               5.69346183                7.99315399               10.05966609                0.00010000                0.18087122               -0.16149650                0.33942483                1.04572368               19.44944257                0.80340227
               6.69281184                7.96719708               10.14229003                0.00010000               -0.30727466               -0.25084365                0.89682870                1.10137775               19.91644741                1.49614984
               7.68731634                7.94227539               10.23136165                0.14994836               -0.50637993               -0.42556363                1.51242885                0.60751324               11.78508579                2.52175147
               8.68268425                7.90960857               10.15349402                0.44571357               -0.33754731               -0.32538206                1.10853268                0.08360040                1.75055959                1.51466756
               9.68056539                7.87637730               10.04225878                0.99863356               -0.09316496               -0.10275371                0.31703345                0.00346938                0.04528175                0.47011305
              10.68082095                7.84383058                9.93023798                1.00000000                0.02555579                0.12336965               -0.45922768               -0.04521470                0.00949654               -0.68047207
               0.69627612                9.14332621               10.05473520                1.00000000                0.05040333               -0.08683878                0.28861377               -0.04229454                0.03324458                0.73730798
               1.69678015                9.11375230                9.92982815                0.62220198                0.18719892                0.18783894               -0.62970964                0.00014829                0.21140579               -0.41557785
               2.70002010                9.08353091                9.80843302                0.01191570                0.87877932                0.44862103               -1.53939997               -0.10862939               10.72612051               -1.28930377
               3.71435574                9.05022071                9.89399972                0.00010000                1.23888161               -0.04815664               -0.87482384                0.14072442               20.91967316               -0.32817360
               4.72479773                9.01919586                9.97940606                0.00010000                0.74773210               -0.14423201               -0.23538305                0.45223391               20.91062411                0.10974801
               5.72931038                8.99121798               10.06793676                0.00010000                0.16162405               -0.21462241                0.40797642                0.62949094               21.25771945                0.45067756
               6.72803021                8.96439776               10.16323664                0.00010000               -0.41450399               -0.30036265                1.10073286                0.63935803               21.99821133                0.86504623
               7.72102030                8.93738251               10.26949946                0.15657553               -0.63505448               -0.52805763                1.90377485                0.33265905               13.07533102                1.67627527
               8.71532912                8.90584345               10.18891944                0.45470019               -0.43334991               -0.42118603                1.41639084                0.02261432                1.98272538                1.10736297
               9.71235330                8.87492995               10.07365192                0.99978269               -0.17749475               -0.18919955                0.60195760                0.00168308                0.11769129                0.43984884
              10.71177922                8.84476665                9.95573451                0.99965361               -0.05740764                0.06149167               -0.20685023               -0.04735863               -0.01179892               -0.56541843
               0.72405989               10.14273085               10.03063662                1.00000000                0.12754670               -0.05953598                0.05633630                0.11215035                0.40327360                0.59717898
               1.72533535               10.11606859                9.90271521                0.80085466                0.26512374                0.23162910               -0.88160971                0.14341646                0.77301166               -0.38062635
               2.72936236               10.08848878                9.78216457                0.50188123                1.11771019                0.49578640               -1.77904322               -0.43486085               12.09496559               -0.97018807
               3.74768956               10.04868684                9.88089541                0.43354539                1.39397338               -0.15338733               -1.00649063               -0.20900778               22.61571234               -0.16476068
               4.75724183               10.01764098                9.97481319                0.42966006                0.65800924               -0.15548773               -0.27954764                0.25314511               22.36648244                0.08116375
               5.76084974                9.98886154               10.07157290                0.45217465                0.10963261               -0.23564432                0.45494130                0.33137883               22.74542990                0.27038237
               6.75943448                9.96118983               10.17578074                0.49840189               -0.41629581               -0.32079326                1.24653160                0.28306232               23.70833154                0.50439099
               7.75252383                9.93171424               10.29465228                0.58070186               -0.69226938               -0.56682661                2.17619006                0.15010381               14.45373913                1.04966040
               8.74558909                9.90118485               10.21722557                0.73056112               -0.54239860               -0.46586010                1.68472984                0.06995088                2.80973135                0.75180259
               9.74167585                9.87259331               10.10399920                1.00000000               -0.26943637               -0.23366365                0.89135389                0.12603351                0.64095271                0.38930451
              10.74020037                9.84506042                9.98318988                1.00000000               -0.14754877                0.02937660                0.06714965                0.08882486                0.26369750               -0.46445006
               0.41576569                0.20781208               11.25943241                1.00000000               -0.55507603               -0.62878704                2.18477391               -0.13183923               -0.66975131                0.72648313
               1.41021493                0.15341064               11.18168520                1.00000000               -0.44701357               -0.45891406                1.63274023               -0.09100180               -0.66947414               -0.03255679
               2.40682542                0.09891163               11.10388013                0.71684950               -0.10412670               -0.31847650                1.07441987                0.08176057               -0.37325937               -0.66608150
               3.40813239                0.04833205               11.03213569                0.52183102                0.47289935               -0.18804771                0.52492543                0.35938970                1.24009071               -0.08794712
               4.41628340                0.00990904               10.98696902                0.45197746                0.82332500               -0.13774328                0.05296564                0.33048340                3.87411929               -0.07605853
               5.42459889               -0.01511057               10.96887627                0.46052300                0.45800411               -0.05181207               -0.33327663                0.15387642                5.04779958               -0.00821732
               6.42544348               -0.04005750               10.94822310                0.53662086               -0.05165664                0.11955637               -0.70485635                0.24611482                3.61624884                0.05168602
               7.42356576               -0.07668621               10.90187414                0.69582733               -0.03026061                0.29814439               -1.14457826                0.24727171                1.30554880                0.08977133
               8.42483827               -0.12375261               10.83491301                0.97991641                0.31850726                0.46871301               -1.65141242                0.08714207               -0.11734867                0.32887737
               9.42993591               -0.17478832               10.75994668                1.00000000                0.61465628                0.62119688               -2.19166442               -0.07518767               -0.49795258                0.18568773
              10.43713140               -0.22589728               10.68526072                1.00000000                0.71954929                0.77355115               -2.72459187               -0.13367772               -0.47842469               -0.46805908
               0.46884874                1.20152421               11.23441975                1.00000000               -0.50936015               -0.59623101                1.96802433               -0.04883034               -0.03512770                0.94863275
               1.46375513                1.14882150               11.15603235                1.00000000               -0.43332102               -0.42324615                1.41490230               -0.01352359                0.02936706               -0.06455808
               2.46018232                1.09572687               11.07885859                0.28267854               -0.37637747               -0.27837794                0.86459478                0.19370180                1.00131207               -1.01538575
               3.45622759                1.04645158               11.01995061                0.00206894               -0.44363842               -0.17006813                0.39612498                0.79641669                2.96043596               -1.22604790
               4.45130955                1.00853161               10.98221087                0.00531836               -0.25533298                0.32044402               -0.01048059                1.66972277                5.37620317                0.31906235
               5.45112093                0.98437131               10.97221881                0.00751294                0.36914542                0.09826852               -0.31122214                2.02084896                6.56147885                0.21680993
               6.45869246                0.96113807               10.95929758                0.01466399                0.83825551               -0.07215152               -0.59916377                1.64883917                5.04406290                0.15173956
               7.46788604                0.92629523               10.92005440                0.24544171                0.80341445                0.32670715               -0.97188187                0.90273699                2.75827384                1.20371278
               8.47476074                0.88093452               10.86196009                0.67665286                0.61851622                0.44287015               -1.41734924                0.28719270                1.21644829                0.91643055
               9.48025636                0.83142365               10.79196807                1.00000000                0.60714179                0.57988316               -1.91714725                0.02604925                0.38552065                0.46308535
              10.48690358                0.78183823               10.71715268                1.00000000                0.66472203                0.72457345               -2.45210085               -0.05061699                0.14961811               -0.49859024
               0.52019450                2.19588746               11.21372804                1.00000000               -0.44527022               -0.53431917                1.77500889               -0.04941322                0.10386485                1.14878677
               1.51574180                2.14494572               11.12969932                0.85766640               -0.35625633               -0.35693893                1.19319256               -0.01510564                0.16810965               -0.21973702
               2.51306938                2.09334407               11.04686900                0.11377840               -0.22429081               -0.19754359                0.62817299                0.19774435                1.27443222               -1.60298637
               3.51125599                2.04493069               10.98501422                0.00010000               -0.06556269                0.15725452                0.15361228                1.56862736                5.41135790               -1.21637581
               4.51175812                2.01631792               10.98511875                0.00010000                0.05767137                0.54316287               -0.01362589                2.83785723                8.15560139                0.38052579
               5.51240941                1.98685480               10.97966795                0.00010000                0.23691130                0.24158932               -0.24023412                2.97431903                7.71472570                0.60329657
               6.51649635                1.95849947               10.97208653                0.00010000                0.47073191               -0.08067138               -0.47151132                2.75350014                7.34553929                0.89580650
               7.52182405                1.92984793               10.96034473                0.09315850                0.44786777                0.18329668               -0.67698689                1.61477653                4.68505868                2.32915277
               8.52545370                1.88510479               10.90064249                0.37083285                0.38645609                0.41548667               -1.10623276                0.36997277                1.71257533                2.33325649
               9.52955317                1.83680935               10.82941290                0.93469039                0.49180937                0.50246924               -1.61606848                0.05036580                0.64828899                0.87489900
              10.53528989                1.78859419               10.74829744                1.00000000                0.57367196                0.62560804               -2.18248905               -0.04092766                0.15916940               -0.45712682
               0.56974396                3.19083783               11.19263258                1.00000000               -0.37475484               -0.47257242                1.57322932               -0.05251025                0.03890559                1.09269606
               1.56599641                3.14168272               11.10091172                0.79893539               -0.27958646               -0.28953084                0.94165332               -0.02006124                0.08954508               -0.35419434
               2.56415223                3.09177599               11.01011001                0.08526025               -0.06850639               -0.11207573                0.31952665                0.41335790                2.82143206               -1.82733826
               3.56462628                3.04959667               10.97308993                0.00010000                0.09951746                0.41922607                0.12485017                1.63423069                7.76776109               -0.10413463
               4.56614258                3.01939487               10.98196023                0.00010000                0.18997349                0.26706641               -0.02447680                2.34181040                9.98452101                0.22165863
               5.56842575                2.98920310               10.99077078                0.00010000                0.23133755                0.19724712               -0.15549435                2.44944991                9.82667872                0.92001059
               6.57076933                2.95952464               10.99788457                0.00010000                0.25752482                0.10803331               -0.29432105                2.35844954                9.47895325                1.75521965
               7.57357625                2.92996116               11.00096484                0.09951823                0.22147256                0.08264178               -0.47780017                1.57079098                6.82171038                2.83476381
               8.57519878                2.88924425               10.95592457                0.36349762                0.20990117                0.32803460               -0.67502412                0.46703157                2.32648537                2.74033395
               9.57777427                2.84147304               10.86952339                0.87918788                0.36582761                0.41220001               -1.26787159                0.01946048                0.14732739                0.91188160
              10.58251534                2.79435039               10.78081364                1.00000000                0.47410615                0.52653479               -1.88887196               -0.04483579                0.03671357               -0.43554605
               0.61745451                4.18643601               11.17076329                1.00000000               -0.30521010               -0.40514402                1.36042921               -0.05156735                0.02256389                1.04388599
               1.61440241                4.13915510               11.07184344                0.76976955               -0.20159603               -0.21502424                0.68492341               -0.02001279                0.06005166               -0.36658220
               2.61342259                4.09110256               10.97357895                0.07349245                0.09596584               -0.02485956                0.01282835                0.54106451                4.34077468               -1.77981415
               3.61632173                4.05331521               10.96035072                0.00010000                0.27826543                0.30687784                0.03392533                1.58753467               10.27108966               -0.20119107
               4.61898790                4.02165925               10.98175306                0.00010000                0.24734540                0.19837295               -0.02259123                2.05293147               11.99122123                0.41152989
               5.62126864                3.99079974               11.00464750                0.00010000                0.19596868                0.12983794               -0.05620406                2.13267842               11.99799784                1.14174395
               6.62290727                3.96066014               11.02784768                0.00010000                0.11258119                0.08947022               -0.09050099                2.13293445               11.96511707                2.07074481
               7.62352026                3.93150076               11.05156611                0.11156282                0.01875945                0.12356384               -0.15092670                1.44217762                8.28863284                3.33856941
               8.62328246                3.89166548               11.00254624                0.38306128                0.06579882                0.16272084               -0.26702625                0.41323702                2.32423277                2.08916227
               9.62483624                3.84505335               10.90745780                0.90507556                0.26779975                0.29799975               -0.92018543                0.01014715                0.01221879                0.70903374
              10.62863846                3.79912489               10.81208809                1.00000000                0.38022213                0.43430458               -1.58078290               -0.04874561                0.00375607               -0.56271367
               0.66327444                5.18273495               11.14865068                1.00000000               -0.23448260               -0.33520848                1.14388309               -0.05027396                0.02530418                1.02464599
               1.66092961                5.13738224               11.04274255                0.74083076               -0.12305133               -0.13876497                0.42500924               -0.01675073                0.07182936               -0.37193414
               2.66081341                5.09127880               10.93767276                0.06214258                0.24453369                0.06047465               -0.29125938                0.55968719                5.80063350               -1.74425328
               3.66582029                5.05573422               10.94642776                0.00010000                0.44516327                0.21789494               -0.11015345                1.46053563               12.77915446               -0.22903953
               4.66971668                5.02336232               10.98233539                0.00010000                0.31290727                0.14061533               -0.03922010                1.77390553               14.13275810                0.45809057
               5.67207843                4.99179986               11.02014978                0.00010000                0.15051615                0.06954954                0.05050615                1.87581207               14.23160260                1.24202937
               6.67272700                4.96131404               11.05999807                0.00010000               -0.03319856                0.02543980                0.14730437                1.91435083               14.36938123                2.18243673
               7.67141446                4.93243244               11.10237184                0.12243716               -0.14080296                0.02013565                0.23867203                1.25664883                9.40810574                3.28683479
               8.66991094                4.89249867               11.04457447                0.40087765               -0.04483254                0.01691758                0.10473004                0.32747171                2.19507702                1.79237725
               9.67051781                4.84743303               10.94317589                0.93140548                0.17431991                0.18401759               -0.58885048                0.01065628                0.01165447                0.55359140
              10.67339734                4.80303649               10.84160551                1.00000000                0.28795293                0.35039655               -1.28465503               -0.04617670                0.00926803               -0.68497252
               0.70715446                6.17973185               11.12635388                1.00000000               -0.16309130               -0.26636082                0.92533098               -0.04838830                0.03017341                1.00514747
               1.70552354                6.13637980               11.01349478                0.71085513               -0.04450525               -0.06089356                0.16339935               -0.01247099                0.09029388               -0.38963306
               2.70626435                6.09231205               10.90175119                0.05038809                0.39626888                0.14857391               -0.59520879                0.50819621                7.29291945               -1.75214748
               3.71344892                6.05767311               10.93303854                0.00010000                0.60680138                0.18223096               -0.29217266                1.26529938               15.27780674               -0.24613133
               4.71840038                6.02447156               10.98286137                0.00010000                0.36921188                0.08677435               -0.07378943                1.49025978               16.25024471                0.42988592
               5.72083316                5.99219073               11.03585938                0.00010000                0.10806642                0.00589054                0.15687718                1.60837202               16.45682275                1.21854779
               6.72056171                5.96116894               11.09208632                0.00010000               -0.16822716               -0.06288254                0.40041108                1.67021495               16.68887209                2.13048259
               7.71746861                5.93190348               11.15184246                0.13202645               -0.28652003               -0.13121478                0.65441485                1.04868305               10.44608012                3.16202492
               8.71483131                5.89200383               11.08505795                0.41624957               -0.14785361               -0.10795577                0.45211409                0.23644697                2.06446273                1.69052856
               9.71451154                5.84873370               10.97766023                0.95391827                0.08383532                0.08140264               -0.27633617                0.00990781                0.02200373                0.47716311
              10.71650801                5.80613282               10.86994317                1.00000000                0.19964702                0.27220243               -1.00538441               -0.04372078                0.01194192               -0.74771475
               0.74901076                7.17740773               11.10379295                1.00000000               -0.09107712               -0.20005417                0.70538723               -0.04625458                0.03336381                0.97687837
               1.74809999                7.13616437               10.98396736                0.67996430                0.03366353                0.01891035               -0.09932645               -0.00758925                0.10997069               -0.41894065
               2.74968403                7.09425028               10.86559617                0.03816360                0.54333913                0.24276145               -0.90046315                0.39391505                8.74962686               -1.77615838
               3.75896677                7.05937884               10.91866740                0.00010000                0.76601100                0.15805771               -0.48973907                0.97620839               17.74592912               -0.38068600
               4.76500425                7.02509781               10.98255788                0.00010000                0.42908617                0.03356073               -0.11936046                1.17446509               18.36310934                0.33339982
               5.76754849                6.99191767               11.05056656                0.00010000                0.07071543               -0.06029200                0.25780552                1.31415434               18.65712638                1.08357967
               6.76641856                6.96005639               11.12295398                0.00010000               -0.29976342               -0.15428184                0.65498381                1.37349150               18.98551255                1.95792268
               7.76155322                6.92980814               11.19998070                0.14048335               -0.43044486               -0.28264503                1.07849942                0.81474027               11.50740877                3.01698626
               8.75780966                6.89033955               11.12492162                0.42943485               -0.24831220               -0.22071781                0.78341134                0.15290235                1.96435641                1.64982430
               9.75658698                6.84906108               11.01156006                0.97318856               -0.00424889               -0.01179987                0.02129298                0.00825332                0.03007904                0.45374743
              10.75772468                6.80848053               10.89776256                1.00000000                0.11377016                0.19995914               -0.73834464               -0.04186073                0.01356630               -0.75634156
               0.78871610                8.17573076               11.08085266                1.00000000               -0.01868872               -0.13802092                0.48471754               -0.04371394                0.03921819                0.94162968
               1.78852921                8.13675801               10.95407094                0.64836856                0.11060401                0.10166412               -0.36187596               -0.00261488                0.13499966               -0.46542143
               2.79092818                8.09716728               10.82913981                0.02550177                0.67981747                0.34345634               -1.20603764                0.20830094               10.13013254               -1.76271723
               3.80212556                8.06083426               10.90237827                0.00010000                0.92113395                0.11545907               -0.67945791                0.58142246               20.15638794               -0.49146213
               4.80935086                8.02514277               10.98069081                0.00010000                0.50160522               -0.04042503               -0.16772800                0.82811000               20.46689201                0.20629823
               5.81215766                7.99098489               11.06309266                0.00010000                0.03951018               -0.11827219                0.34869368                0.98638537               20.80722104                0.83336452
               6.81014106                7.95808330               11.15125283                0.00010000               -0.43387002               -0.21958878                0.89769304                1.01443251               21.30237633                1.58782271
               7.80348026                7.92625058               11.24642122                0.14818053               -0.57523227               -0.41825514                1.50037224                0.54695359               12.67812060                2.71650290
               8.79863641                7.88758948               11.16455438                0.44094848               -0.34723188               -0.32666568                1.10578990                0.07754078                1.93793133                1.58006120
               9.79653562                7.84849770               11.04537492                0.98995824               -0.09022593               -0.09941122                0.30745995                0.00535537                0.04207387                0.47587035
              10.79683190                7.81013200               10.92556807                1.00000000                0.02962704                0.13239115               -0.47917722               -0.04208253                0.01481696               -0.73207786
               0.82608198                9.17464731               11.05749382                1.00000000                0.05291872               -0.08072201                0.26511386               -0.04155293                0.03041730                0.77367474
               1.82661117                9.13819765               10.92357472                0.61679955                0.18459045                0.18669685               -0.62282810                0.00081764                0.21341241               -0.45097250
               2.82977379                9.10111941               10.79326560                0.01253485                0.80042788                0.44020938               -1.49990658               -0.07146775               11.51013578               -1.37712258
               3.84261973                9.06168802               10.88541409                0.00010000                1.08210128               -0.00627057               -0.84298545                0.17085112               22.46466377               -0.36575886
               4.85141582                9.02428931               10.97715990                0.00010000                0.58579719               -0.09482312               -0.21201389                0.44437331               22.43597970                0.09889222
               5.85433567                8.98955222               11.07208057                0.00010000                0.00128537               -0.16163176                0.42315321                0.58657830               22.79152027                0.46608140
               6.85144153                8.95566462               11.17426070                0.00010000               -0.56747769               -0.24810130                1.10587185                0.56241289               23.58375530                0.91325193
               7.84298612                8.92144304               11.28846906                0.15590675               -0.71640871               -0.51112703                1.89182783                0.26212525               14.04742605                1.79692935
               8.83711335                8.88380624               11.20305815                0.45201020               -0.44172778               -0.42257446                1.41524200                0.00822158                2.14475997                1.14544800
               9.83415156                8.84707286               11.07962403                0.99973516               -0.17494610               -0.18686008                0.59427251                0.00236654                0.11518480                0.45005504
              10.83361443                8.81112836               10.95361017                0.99969912               -0.05371334                0.06623646               -0.22199618               -0.04526553               -0.01014159               -0.60376950
               0.86078437               10.17411632               11.03108835                1.00000000                0.12890997               -0.05309928                0.03560368                0.10780093                0.42094442                0.62728357
               1.86207347               10.14049195               10.89396303                0.79910557                0.26120395                0.22942976               -0.87141321                0.13898697                0.81172498               -0.40834633
               2.86600845               10.10597147               10.76462333                0.50248593                1.01496054                0.48520594               -1.73596573               -0.36568926               12.98029428               -1.02445361
               3.88237268               10.06070885               10.87102862                0.43438597                1.21828375               -0.09791703               -0.96863063               -0.16096301               24.31807531               -0.18139838
               4.89037412               10.02324631               10.97215927                0.42997924                0.50706216               -0.10430026               -0.25030490                0.24800067               24.04616820                0.07840394
               5.89251392                9.98775226               11.07621908                0.45220332               -0.04378121               -0.17999633                0.47567439                0.31157314               24.43999947                0.28252712
               6.88949850                9.95312127               11.18829127                0.49840001               -0.59663871               -0.25433451                1.25628316                0.21948603               25.46773892                0.53659839
               7.88058115                9.91602804               11.31636603                0.58072381               -0.81637354               -0.54150057                2.16691729                0.06033860               15.52466818                1.11727421
               8.87317103                9.87913799               11.23406202                0.72994417               -0.56601563               -0.46682502                1.68758128                0.04239071                3.00580810                0.76844614
               9.86926083                9.84476050               11.11289400                1.00000000               -0.26777203               -0.23123606                0.88459499                0.12686432                0.66536282                0.40266680
              10.86781559                9.81145673               10.98382044                1.00000000               -0.14452480                0.03283723                0.05559717                0.08973887                0.27344577               -0.49030207
               0.48933311                0.24140581               12.28117138                1.00000000               -0.55219123               -0.62324424                2.16486315               -0.12853597               -0.71659713                0.77229566
               1.48381119                0.17983103               12.19798323                1.00000000               -0.44747489               -0.45684120                1.62669367               -0.08792202               -0.72003635               -0.03188498
               2.48038361                0.11814036               12.11467451                0.71623920               -0.11567542               -0.31860973                1.08245649                0.08079716               -0.42287099               -0.70212841
               3.48149768                0.06026026               12.03750453                0.52234564                0.43692302               -0.18752559                0.54567321                0.34559969                1.22815057               -0.09185471
               4.48912207                0.01420606               11.98761417                0.45257919                0.76901152               -0.12480188                0.07369708                0.31739436                3.92902168               -0.07938322
               5.49687792               -0.01864734               11.96557134                0.46094399                0.42090630               -0.03101668               -0.32865693                0.14697643                5.14307614               -0.00832673
               6.49754019               -0.05113296               11.94112599                0.53651244               -0.05699814                0.13473084               -0.71537909                0.23720319                3.68995673                0.05390383
               7.49573795               -0.09480934               11.89034780                0.69483434               -0.02141025                0.30708411               -1.16190750                0.23931168                1.32125299                0.09427135
               8.49711199               -0.14860174               11.81830722                0.97727683                0.32686007                0.47482832               -1.67113988                0.08380069               -0.14619437                0.34484672
               9.50227515               -0.20626169               11.73793157                1.00000000                0.62103154                0.62764620               -2.21275807               -0.07457636               -0.53735126                0.19822539
              10.50953262               -0.26399009               11.65792110                1.00000000                0.72574664                0.78069439               -2.74461450               -0.13352612               -0.51244633               -0.50223623
               0.54962253                1.23517337               12.25399564                1.00000000               -0.50578286               -0.59150768                1.94897974               -0.04709312               -0.03935195                1.00492578
               1.54456470                1.17526262               12.17015780                1.00000000               -0.43227823               -0.42140458                1.41001543               -0.01149307                0.02598945               -0.06590303
               2.54097696                1.11495426               12.08755934                0.28136973               -0.38219345               -0.27850269                0.87341925                0.19233825                1.04060354               -1.06273717
               3.53692083                1.05838501               12.02403375                0.00234262               -0.46135740               -0.17023298                0.41720657                0.78528634                3.07174606               -1.28458679
               4.53174981                1.01295805               11.98221050                0.00580638               -0.29518177                0.31537517                0.00799582                1.62472140                5.57299221                0.34630786
               5.53101719                0.98104249               11.96910967                0.00817308                0.31217061                0.10729419               -0.31136162                1.97133564                6.81904814                0.24476647
               6.53799323                0.95021434               11.95322886                0.01450125                0.79241328               -0.05964274               -0.61507135                1.61221089                5.26250405                0.17016353
               7.54686546                0.90826150               11.91023289                0.24397212                0.78414708                0.33213169               -0.99328458                0.87533445                2.89345603                1.27181448
               8.55367617                0.85614654               11.84768635                0.67196564                0.61790533                0.44825343               -1.43859007                0.28022238                1.28589295                0.97266081
               9.55922357                0.80001478               11.77270038                1.00000000                0.61248004                0.58643883               -1.93708650                0.02607501                0.40995889                0.48860757
              10.56592577                0.74381685               11.69253087                1.00000000                0.67022027                0.73316561               -2.47272074               -0.05071259                0.15642688               -0.53425910
               0.60821274                2.22957565               12.23137222                1.00000000               -0.44123070               -0.53099493                1.75548557               -0.04772635                0.11363155                1.21140975
               1.60380044                2.17140294               12.14161011                0.84660796               -0.35523809               -0.35490059                1.18876094               -0.01303925                0.18612787               -0.23835175
               2.60110798                2.11257030               12.05322170                0.11244376               -0.23004044               -0.19604657                0.64033314                0.19570910                1.34559456               -1.69920866
               3.59919963                2.05685560               11.98668204                0.00010000               -0.10744852                0.15560721                0.17679846                1.52712470                5.67471475               -1.22491695
               4.59895901                2.02051357               11.98505014                0.00010000               -0.00756495                0.52875564               -0.00101134                2.75958252                8.54216894                0.42412727
               5.59904833                1.98349854               11.97728456                0.00010000                0.18031964                0.23676963               -0.23683569                2.90123226                8.07250374                0.66067551
               6.60256540                1.94767418               11.96734376                0.00010000                0.41320587               -0.07616312               -0.47723729                2.69716533                7.71058691                0.95518456
               7.60731245                1.91183329               11.95348214                0.09174239                0.41988775                0.17882724               -0.69628803                1.58616799                4.94939912                2.41322670
               8.61096316                1.86036333               11.88949480                0.36658019                0.39069492                0.42056498               -1.12368519                0.36281725                1.82731860                2.48667594
               9.61512634                1.80546709               11.81314532                0.92075911                0.49755323                0.51099792               -1.63685688                0.05028639                0.69358322                0.93497524
              10.62091422                1.75067322               11.72635290                1.00000000                0.57878793                0.63775196               -2.20569731               -0.04040286                0.17657164               -0.48363741
               0.66501344                3.22455347               12.20825575                1.00000000               -0.37041737               -0.47005350                1.55294876               -0.05108749                0.04018615                1.14510805
               1.66130926                3.16816460               12.11030274                0.78732857               -0.27874798               -0.28659962                0.93621388               -0.01801266                0.09515737               -0.39002076
               2.65943848                3.11103333               12.01336792                0.08376031               -0.08946013               -0.10806335                0.32976136                0.40862698                3.04132587               -1.95821292
               3.65952006                3.06149715               11.97438252                0.00010000                0.04300242                0.41665449                0.13654947                1.57894766                8.21729138               -0.04931887
               4.66029853                3.02353316               11.98175551                0.00010000                0.11805823                0.26388467               -0.01596069                2.27033658               10.46855245                0.26295003
               5.66188122                2.98577788               11.98923012                0.00010000                0.16516289                0.19315414               -0.15218615                2.38222295               10.31574563                0.98565965
               6.66360178                2.94869108               11.99492168                0.00010000                0.20092251                0.10493807               -0.29759102                2.29605673                9.94343135                1.84684922
               7.66589967                2.91183804               11.99618105                0.09740306                0.18484651                0.07239198               -0.47993158                1.54648606                7.25304574                2.93010853
               8.66729871                2.86455784               11.94906745                0.35815256                0.20098630                0.33437552               -0.69361419                0.46591817                2.55065227                2.93166280
               9.66991940                2.81023474               11.85671757                0.86384917                0.37033727                0.42444697               -1.29105478                0.01894027                0.16423580                0.99070502
              10.67470546                2.75657189               11.76177303                1.00000000                0.47860576                0.54428994               -1.91728425               -0.04476457                0.03889062               -0.44471619
               0.71996872                4.22017458               12.18425401                1.00000000               -0.30083999               -0.40282086                1.33929029               -0.05020266                0.02197792                1.08920692
               1.71696032                4.16567094               12.07866958                0.75773113               -0.20103731               -0.21150981                0.67992257               -0.01801490                0.06078407               -0.40605851
               2.71594797                4.11040904               11.97377936                0.07174617                0.06592159               -0.01995102                0.02479703                0.53200838                4.68201360               -1.90749851
               3.71827875                4.06518869               11.96067312                0.00010000                0.20685177                0.30635836                0.03455611                1.53416401               10.91177799               -0.20987751
               4.72008501                4.02579126               11.98154077                0.00010000                0.16280556                0.20128457               -0.01803607                1.97915640               12.60999668                0.44425019
               5.72153486                3.98736162               12.00409026                0.00010000                0.11706847                0.13177931               -0.05405079                2.05903586               12.62639128                1.21237781
               6.72242638                3.94977294               12.02692007                0.00010000                0.04202731                0.08747670               -0.09364466                2.05680211               12.57999977                2.18544639
               7.72237541                3.91328113               12.05001122                0.10891113               -0.02707738                0.11837106               -0.15839145                1.40420534                8.86064100                3.51420670
               8.72188483                3.86705084               11.99974830                0.37667352                0.05578455                0.16991125               -0.28913848                0.41590117                2.59892305                2.24434246
               9.72349110                3.81395603               11.89810260                0.88798959                0.27298975                0.31255483               -0.94793263                0.00936358                0.01688706                0.77565198
              10.72734463                3.76155902               11.79609206                1.00000000                0.38535255                0.45668044               -1.61586454               -0.04817202                0.00345836               -0.57180774
               0.77301666                5.21649705               12.15997218                1.00000000               -0.23021534               -0.33259382                1.12215057               -0.04917969                0.02386272                1.06744696
               1.77071451                5.16393441               12.04697226                0.72906548               -0.12278848               -0.13517794                0.42062113               -0.01516151                0.07123446               -0.41377625
               2.77056090                5.11063431               11.93483964                0.06046703                0.20533027                0.06508867               -0.27769857                0.54808314                6.24183976               -1.87088240
               3.77482112                5.06762432               11.94531456                0.00010000                0.35739128                0.22080812               -0.10920300                1.40377243               13.60405305               -0.28448525
               4.77770872                5.02755885               11.98195054                0.00010000                0.21295714                0.15070970               -0.03550495                1.69615958               14.91529816                0.46792251
               5.77908026                4.98841347               12.02065674                0.00010000                0.05547988                0.07874853                0.05248337                1.79190969               15.02459895                1.31023259
               6.77881832                4.95044062               12.06143920                0.00010000               -0.11871854                0.03028845                0.14261969                1.82535336               15.16062248                2.31409737
               7.77670589                4.91420547               12.10466016                0.11959695               -0.19382408                0.02177249                0.22161794                1.21238823               10.08593575                3.49782186
               8.77494184                4.86795606               12.04551321                0.39413874               -0.05536987                0.02284752                0.08563752                0.33053596                2.47984791                1.91420269
               9.77559849                4.81648583               11.93713776                0.91369073                0.17971050                0.19813967               -0.61637564                0.00963898                0.01335841                0.60114123
              10.77853605                4.76570550               11.82856312                1.00000000                0.29375554                0.37304992               -1.32179699               -0.04593099                0.00880556               -0.70782078
               0.82411041                6.21352271               12.13548735                1.00000000               -0.15905805               -0.26312844                0.90325688               -0.04748285                0.02846470                1.04628107
               1.82251983                6.16296738               12.01511276                0.69985769               -0.04453426               -0.05760417                0.15990894               -0.01115625                0.08968844               -0.43271577
               2.82321973                6.11171081               11.89588660                0.04900833                0.34549150                0.15211094               -0.58003070                0.49594212                7.81752176               -1.87916184
               3.82942966                6.06960485               11.93013839                0.00010000                0.49996612                0.18959151               -0.28554379                1.20985704               16.28061715               -0.32871899
               4.83321905                6.02880545               11.98214663                0.00010000                0.25308148                0.10478942               -0.06703395                1.41218363               17.21607481                0.42237389
               5.83449129                5.98893660               12.03743942                0.00010000               -0.00387988                0.02363816                0.16074864                1.51533997               17.43086832                1.27885996
               6.83314145                5.95037871               12.09606293                0.00010000               -0.26917823               -0.05170219                0.39633935                1.56909181               17.67003547                2.26402878
               7.82910773                5.91371658               12.15828230                0.12930248               -0.34631337               -0.12753602                0.63520149                0.99426217               11.20730570                3.38481551
               8.82621518                5.86750779               12.08951004                0.40968798               -0.15866393               -0.10524596                0.44004229                0.23635991                2.33334799                1.78930454
               9.82593445                5.81791882               11.97477289                0.93639473                0.08857460                0.09297220               -0.29948018                0.00901512                0.02269856                0.50685748
              10.82798668                5.76902001               11.85971237                1.00000000                0.20522284                0.29210122               -1.03996977               -0.04386279                0.01179592               -0.78460645
               0.87317765                7.21123448               12.11072772                1.00000000               -0.08743708               -0.19616776                0.68351227               -0.04544863                0.03149642                1.01664424
               1.87230328                7.16278232               11.98296758                0.67013602                0.03323063                0.02143154               -0.10112470               -0.00639270                0.10939428               -0.46210219
               2.87384227                7.11367653               11.85669615                0.03724888                0.48101650                0.24408867               -0.88228660                0.38563941                9.35055236               -1.90274850
               3.88192361                7.07141615               11.91383627                0.00010000                0.63891930                0.17345958               -0.47531374                0.93326106               18.92261482               -0.46617571
               4.88662065                7.02965464               11.98141801                0.00010000                0.29450942                0.06220600               -0.10703546                1.10344540               19.51843283                0.31814624
               5.88781380                6.98888623               12.05317728                0.00010000               -0.06002421               -0.03146605                0.26568792                1.21524359               19.81907101                1.13289057
               6.88542017                6.94940657               12.12949509                0.00010000               -0.41758721               -0.13659470                0.65420993                1.25789320               20.16370295                2.08106866
               7.87946206                6.91165474               12.21068715                0.13815209               -0.49766884               -0.27997437                1.06327105                0.74570225               12.34028176                3.23757379
               8.87546679                6.86585115               12.13272816                0.42350945               -0.25977466               -0.22172624                0.77943700                0.14822606                2.20271324                1.73290172
               9.87426656                6.81834528               12.01168672                0.95654054               -0.00051910               -0.00440425                0.00476903                0.00775532                0.02950905                0.47013658
              10.87545641                6.77154752               11.89022072                1.00000000                0.11898453                0.21606980               -0.76918058               -0.04256007                0.01311704               -0.80226871
               0.92010575                8.20959935               12.08558529                1.00000000               -0.01558233               -0.13352294                0.46365868               -0.04308387                0.03738015                0.98098693
               1.91994993                8.16339602               11.95046077                0.64020773                0.10964686                0.10292171               -0.36112927               -0.00167159                0.13425853               -0.50722854
               2.92229869                8.11659258               11.81721370                0.02522444                0.60834213                0.34142099               -1.18287527                0.21096055               10.81049001               -1.88174151
               3.93211677                8.07307405               11.89569886                0.00010000                0.77595905                0.14195197               -0.65683645                0.56440451               21.50602356               -0.55764825
               4.93781787                8.03004957               11.97910458                0.00010000                0.34637277                0.00253044               -0.14883531                0.77317091               21.80504557                0.19290790
               5.93904423                7.98830727               12.06663996                0.00010000               -0.11435338               -0.07365220                0.36165344                0.89117113               22.15486319                0.86844078
               6.93553080                7.94764682               12.16024389                0.00010000               -0.57335149               -0.18911026                0.90118541                0.88532349               22.68203314                1.68427301
               7.92757720                7.90811709               12.26136909                0.14649978               -0.65208150               -0.41392310                1.48942017                0.45678744               13.58176614                2.91540290
               8.92248917                7.86307326               12.17560982                0.43616545               -0.35920104               -0.33031821                1.10786622                0.06581037                2.13982025                1.64887236
               9.92039318                7.81783074               12.04840798                0.97509785               -0.08790954               -0.09666523                0.29963745                0.00532818                0.04036701                0.48576207
              10.92073098                7.77334141               11.92065443                1.00000000                0.03378058                0.14456879               -0.50463269               -0.04154833                0.01673159               -0.78117485
               0.96472265                9.20856402               12.06003748                1.00000000                0.05539685               -0.07559451                0.24528221               -0.04114331                0.02778983                0.80804540
               1.96527662                9.16484076               11.91737159                0.61080233                0.18303973                0.18645172               -0.61939128                0.00129359                0.21672006               -0.48533691
               2.96838345                9.12050495               11.77843489                0.01301580                0.72390463                0.43458295               -1.47117987               -0.04907990               12.28060558               -1.46007962
               3.97975471                9.07425519               11.87714001                0.00010000                0.92336983                0.03778865               -0.81379047                0.17993242               23.98481237               -0.39734675
               4.98685084                9.02970525               11.97516578                0.00010000                0.41426343               -0.04196317               -0.18712118                0.41574307               23.94262873                0.09233445
               5.98803998                8.98741319               12.07639983                0.00010000               -0.17670121               -0.10361067                0.44096724                0.51963118               24.31350404                0.48433084
               6.98331682                8.94562437               12.18535408                0.00010000               -0.74343093               -0.18930821                1.11312700                0.45372959               25.16185774                0.96412835
               7.97317136                8.90337628               12.30733601                0.15502224               -0.81237327               -0.49256574                1.88236830                0.16448294               15.03167776                1.91999470
               8.96706935                8.85924478               12.21722428                0.44877894               -0.45331923               -0.42636060                1.42205078               -0.01380963                2.32320462                1.18678728
               9.96410498                8.81641197               12.08553737                0.99398552               -0.17326267               -0.18620185                0.59080424                0.00128151                0.11557794                0.45801536
              10.96360410                8.77443890               11.95129459                0.99974143               -0.05008781                0.07462176               -0.24283918               -0.04303634               -0.00900294               -0.64140446
               1.00672942               10.20808746               12.03134869                1.00000000                0.13054606               -0.04765595                0.01781635                0.10443500                0.43730985                0.65601177
               2.00803488               10.16712505               11.88528694                0.79682083                0.25866236                0.22842918               -0.86589182                0.13566453                0.85005277               -0.43561598
               3.01190266               10.12528424               11.74744526                0.50295371                0.92401231                0.47792953               -1.70517149               -0.31283995               13.85133243               -1.07653028
               4.02651512               10.07382982               11.86152280                0.43521441                1.05360341               -0.04253679               -0.93524094               -0.12765572               25.99638345               -0.19619435
               5.03297473               10.02921031               11.96980709                0.43027945                0.35013044               -0.04949351               -0.22117050                0.23265079               25.70680574                0.07685684
               6.03351773                9.98623506               12.08108639                0.45217134               -0.21662143               -0.11781283                0.49722488                0.28029199               26.12182004                0.29498626
               7.02864230                9.94386065               12.20090641                0.49828289               -0.81356441               -0.17637135                1.26616449                0.13408417               27.21764628                0.56853423
               8.01724644                9.89826578               12.33799063                0.58052020               -0.97325048               -0.51105036                2.15799640               -0.05822229               16.61009616                1.18719724
               9.00917729                9.85454605               12.25097719                0.72882585               -0.60108759               -0.46987319                1.69904965                0.00284001                3.21858534                0.79032178
              10.00522469                9.81410670               12.12169110                1.00000000               -0.26804442               -0.23052691                0.87945891                0.12636105                0.69235754                0.40857013
              11.00381640                9.77483385               11.98430183                1.00000000               -0.14082867                0.03949484                0.03814004                0.09394470                0.28979760               -0.51518012
               0.56781004                0.27760949               13.30272967                1.00000000               -0.54989706               -0.61875965                2.14857694               -0.12583352               -0.76215230                0.81661621
               1.56231107                0.20842382               13.21421907                1.00000000               -0.44816690               -0.45472532                1.62048920               -0.08548840               -0.76913210               -0.03140154
               2.55884670                0.13909942               13.12552926                0.71528108               -0.12776631               -0.31744838                1.08688523                0.07780720               -0.47126845               -0.73794090
               3.55975574                0.07343651               13.04304915                0.52277259                0.39751609               -0.18541828                0.56059000                0.32702565                1.21183000               -0.09500056
               4.56679703                0.01912873               12.98844296                0.45313202                0.70964284               -0.11069262                0.08980419                0.30013065                3.96851086               -0.08215905
               5.57394860               -0.02235377               12.96230313                0.46127746                0.38345635               -0.00928094               -0.32621637                0.13779785                5.21791476               -0.00758218
               6.57446615               -0.06318517               12.93391552                0.53626856               -0.05695057                0.15087334               -0.72772327                0.22445635                3.74913484                0.05688275
               7.57280959               -0.11457097               12.87863599                0.69357897               -0.00677689                0.31681477               -1.18153382                0.22736901                1.32958307                0.09927829
               8.57433061               -0.17561394               12.80149022                0.97403456                0.33827030                0.48140881               -1.69323863                0.07852677               -0.17944454                0.36129499
               9.57957500               -0.24036143               12.71569152                1.00000000                0.62864043                0.63434824               -2.23610664               -0.07377917               -0.57950930                0.21162991
              10.58690342               -0.30516155               12.63036843                1.00000000                0.73284271                0.78828019               -2.76657028               -0.13324075               -0.54832532               -0.54014276
               0.63573738                1.27142189               13.27339935                1.00000000               -0.50261532               -0.58769728                1.93339256               -0.04546728               -0.04295773                1.05906196
               1.63071122                1.20387657               13.18423266                1.00000000               -0.43094732               -0.41950384                1.40482379               -0.00965796                0.02307880               -0.06787692
               2.62711843                1.13592493               13.09632698                0.27964044               -0.38499392               -0.27740519                0.87824440                0.18841962                1.07976006               -1.10870093
               3.62301135                1.07158233               13.02829474                0.00258765               -0.47124796               -0.16764634                0.43198327                0.76314854                3.17633474               -1.34187125
               4.61769347                1.01802180               12.98237079                0.00624847               -0.32639098                0.30633650                0.02149073                1.55865264                5.74993595                0.37207792
               5.61648353                0.97755342               12.96599158                0.00878155                0.25629210                0.11508193               -0.31359091                1.89595168                7.05343321                0.27665515
               6.62281931                0.93832357               12.94699616                0.01423433                0.74070711               -0.04522453               -0.63248619                1.55440556                5.46756874                0.19641720
               7.63129767                0.88859718               12.90018871                0.24229830                0.75958998                0.33676370               -1.01663019                0.83639877                3.02528191                1.34313372
               8.63801111                0.82920015               12.83318829                0.66671096                0.61566708                0.45355727               -1.46208151                0.26955765                1.35639601                1.03213591
               9.64361101                0.76598205               12.75322634                1.00000000                0.61800127                0.59265466               -1.95830309                0.02564214                0.43525351                0.51412711
              10.65037114                0.70272125               12.66769826                1.00000000                0.67601288                0.74204230               -2.49411484               -0.05094303                0.16283114               -0.57461823
               0.70199135                2.26585554               13.24883775                1.00000000               -0.43764780               -0.52818477                1.73904878               -0.04636369                0.12424787                1.27111977
               1.69761487                2.20003374               13.15347454                0.83535252               -0.35410075               -0.35268629                1.18386056               -0.01140354                0.20586792               -0.25872890
               2.69490934                2.13355131               13.05967567                0.11106658               -0.23465133               -0.19354259                0.64849520                0.19151865                1.41680234               -1.79552173
               3.69292185                2.07008358               12.98855019                0.00010000               -0.14551759                0.15184412                0.19375225                1.46386640                5.92736303               -1.23602169
               4.69199898                2.02525546               12.98509852                0.00010000               -0.06779897                0.50707148                0.00940559                2.64184242                8.91134918                0.46595981
               5.69156587                1.97994787               12.97493123                0.00010000                0.12557588                0.22785851               -0.23478151                2.78729271                8.41558398                0.72365414
               6.69451050                1.93591034               12.96254178                0.00010000                0.35475598               -0.07191295               -0.48413520                2.60420750                8.06215805                1.02553862
               7.69866099                1.89216431               12.94641897                0.09047812                0.39131964                0.17185396               -0.71757883                1.53702923                5.21067213                2.51137449
               8.70233690                1.83345720               12.87816878                0.36248335                0.39528745                0.42119306               -1.14227139                0.34957752                1.94483704                2.64513593
               9.70656674                1.77149166               12.79667576                0.90682012                0.50346373                0.51739052               -1.65699621                0.04822475                0.73960475                0.99412695
              10.71240617                1.70967929               12.70418349                1.00000000                0.58394337                0.64978301               -2.22788171               -0.04068191                0.19484791               -0.51652383
               0.76645371                3.26085820               13.22369156                1.00000000               -0.36663221               -0.46759130                1.53558718               -0.04995652                0.04131618                1.19447443
               1.76278739                3.19682284               13.11963600                0.77592744               -0.27773715               -0.28346682                0.93008918               -0.01631241                0.10111924               -0.42761901
               2.76089897                3.13205408               13.01670524                0.08240345               -0.11014284               -0.10352216                0.33555036                0.39731750                3.25835270               -2.09001761
               3.76058453                3.07461921               12.97582092                0.00010000               -0.01164651                0.40510194                0.15228630                1.49915891                8.65741976               -0.00212383
               4.76066603                3.02816323               12.98164102                0.00010000                0.04949821                0.25468817               -0.00701716                2.16315465               10.93959414                0.30315126
               5.76157449                2.98211059               12.98772705                0.00010000                0.10104949                0.18364030               -0.14868249                2.27866869               10.79413524                1.05445307
               6.76268702                2.93688531               12.99193275                0.00010000                0.14584499                0.09706008               -0.30070079                2.19997393               10.40304396                1.94432356
               7.76449139                2.89203426               12.99136620                0.09559482                0.14941412                0.05707388               -0.48527248                1.49912816                7.68004921                3.03638580
               8.76567531                2.83762401               12.94205228                0.35325934                0.19310111                0.33246829               -0.70800872                0.45641259                2.77091649                3.12509975
               9.76835342                2.77632986               12.84370230                0.84905289                0.37534671                0.43272665               -1.31077575                0.01781895                0.18149024                1.06717361
              10.77318224                2.71571691               12.74246796                1.00000000                0.48288258                0.56096707               -1.94254359               -0.04516921                0.04154494               -0.46145417
               0.82906294                4.25650372               13.19754910                1.00000000               -0.29701939               -0.40038271                1.32118477               -0.04903988                0.02163428                1.13146665
               1.82609274                4.19436441               13.08544189                0.74597510               -0.20018095               -0.20796538                0.67416332               -0.01616958                0.06224514               -0.44647577
               2.82505932                4.13148087               12.97407489                0.07018076                0.03515658               -0.01500804                0.03198037                0.51150789                5.01439243               -2.03406297
               3.82679588                4.07818562               12.96104184                0.00010000                0.13556890                0.29800211                0.04126424                1.45371366               11.54145593               -0.22234804
               4.82777070                4.03034922               12.98139234                0.00010000                0.08106437                0.19758446               -0.01076554                1.87247387               13.22166144                0.47738317
               5.82841716                3.98362067               13.00356649                0.00010000                0.04078071                0.12723784               -0.05040280                1.95047903               13.24707805                1.28601001
               6.82858631                3.93785155               13.02597478                0.00010000               -0.02561556                0.07839124               -0.09542338                1.94670580               13.19022342                2.30407821
               7.82790485                3.89330578               13.04839828                0.10660845               -0.07083838                0.10417697               -0.16476267                1.34113978                9.42862727                3.68871350
               8.82716954                3.84010657               12.99676347                0.37076557                0.04626809                0.16984843               -0.30535779                0.40977041                2.87139990                2.40221984
               9.82883021                3.78014620               12.88849915                0.87144772                0.27795749                0.32278511               -0.97059914                0.00868585                0.02254023                0.84084894
              10.83272869                3.72089863               12.77977080                1.00000000                0.38984797                0.47714284               -1.64633214               -0.04773192                0.00363535               -0.58665366
               0.88975154                5.25285054               13.17109369                1.00000000               -0.22646914               -0.33008924                1.10373845               -0.04820084                0.02273273                1.10723268
               1.88748684                5.19266353               13.05115497                0.71750947               -0.12218135               -0.13171155                0.41555939               -0.01356492                0.07140304               -0.45636741
               2.88730791                5.13175392               12.93211879                0.05893852                0.16518037                0.06957207               -0.26878663                0.52227761                6.67263217               -1.99618747
               3.89079045                5.08057925               12.94424370                0.00010000                0.26862756                0.21957011               -0.10358440                1.31831779               14.41634339               -0.33610292
               4.89268046                5.03211492               12.98162529                0.00010000                0.11456488                0.15511734               -0.02856076                1.58631211               15.69160873                0.48133437
               5.89308175                4.98465535               13.02119945                0.00010000               -0.03722152                0.08133599                0.05656220                1.67276370               15.81093569                1.38280879
               6.89193603                4.93845313               13.06285046                0.00010000               -0.20112920                0.02710377                0.13994764                1.69978413               15.94485458                2.44973835
               7.88905917                4.89411780               13.10680420                0.11707556               -0.24528632                0.01335109                0.20784122                1.14153022               10.76399935                3.70819570
               8.88703030                4.84102098               13.04628722                0.38777584               -0.06620489                0.02342032                0.07144694                0.32529480                2.76885780                2.04302874
               9.88773507                4.78278556               12.93084838                0.89628969                0.18462117                0.20878467               -0.63934154                0.00858824                0.01568987                0.65119901
              10.89072273                4.72525977               12.81516957                1.00000000                0.29876592                0.39422296               -1.35491040               -0.04576609                0.00839835               -0.73237582
               0.94847294                6.24990193               13.14441902                1.00000000               -0.15548740               -0.26039298                0.88475831               -0.04670414                0.02693907                1.08458052
               1.94691807                6.19173017               13.01669296                0.68898554               -0.04418954               -0.05446126                0.15574839               -0.00985121                0.08951921               -0.47614727
               2.94758915                6.13287231               12.89015058                0.04772461                0.29415805                0.15571434               -0.56949780                0.46826601                8.33237967               -2.00419491
               3.95280123                6.08257702               12.92732767                0.00010000                0.39158449                0.19578036               -0.27622431                1.12430061               17.27046407               -0.40401971
               4.95542084                6.03345157               12.98152069                0.00010000                0.13664955                0.11939337               -0.05758260                1.30109007               18.17439161                0.42122633
               5.95553422                5.98524739               13.03907435                0.00010000               -0.11506512                0.03597965                0.16655580                1.38565662               18.39830264                1.34526179
               6.95311954                5.93839362               13.10001310                0.00010000               -0.36833044               -0.04781632                0.39384509                1.42860697               18.64391397                2.40354287
               7.94816761                5.89357281               13.16454649                0.12683072               -0.40559339               -0.13224884                0.61794444                0.91239905               11.97438846                3.61261715
               8.94500767                5.84057498               13.09385879                0.40337722               -0.17022126               -0.10615819                0.43143945                0.22915662                2.61196540                1.89729335
               9.94476319                5.78432189               12.97167062                0.91898734                0.09286484                0.10215799               -0.31933805                0.00788269                0.02366350                0.54180365
              10.94686497                5.72878309               12.84914377                1.00000000                0.21017815                0.31166653               -1.07233845               -0.04406478                0.01138656               -0.82031082
               1.00516097                7.24764268               13.11746319                1.00000000               -0.08415270               -0.19305961                0.66526207               -0.04484849                0.02974694                1.05401594
               2.00431944                7.19157431               12.98194486                0.66035544                0.03327055                0.02396241               -0.10397833               -0.00532913                0.10909607               -0.50499075
               3.00582638                7.13486821               12.84795044                0.03637441                0.41888819                0.24606967               -0.86947478                0.36156429                9.94295572               -2.02599181
               4.01269721                7.08449486               12.90916113                0.00010000                0.51027550                0.19002668               -0.46032044                0.85942513               20.08632769               -0.54361311
               5.01603189                7.03450279               12.98041718                0.00010000                0.15778103                0.09007946               -0.09325253                0.99849527               20.66450155                0.31029734
               6.01585283                6.98537494               13.05588032                0.00010000               -0.19245678               -0.00581120                0.27478079                1.07877066               20.97431831                1.18919040
               7.01218276                6.93749681               13.13603818                0.00010000               -0.53635182               -0.12419252                0.65408259                1.10154648               21.33627250                2.21155427
               8.00512579                6.89147282               13.22124612                0.13597047               -0.56592019               -0.28315191                1.04793799                0.64915237               13.18428605                3.46631927
               9.00086435                6.83889781               13.14051036                0.41769412               -0.27205942               -0.22520837                0.77821607                0.13710817                2.45454288                1.82514431
               9.99968460                6.78482872               13.01165544                0.93985497                0.00273354                0.00201984               -0.00980838                0.00652222                0.02952175                0.49330210
              11.00091902                6.73149310               12.88237894                1.00000000                0.12344198                0.23257713               -0.79851668               -0.04313044                0.01268029               -0.84620800
               1.05971273                8.24604074               13.09012584                1.00000000               -0.01267627               -0.12989326                0.44601867               -0.04270283                0.03574906                1.01843085
               2.05958597                8.19220942               12.94684836                0.63190893                0.10935802                0.10452172               -0.36227226               -0.00091628                0.13415590               -0.54843677
               3.06189989                8.13779370               12.80548231                0.02489816                0.53845937                0.34090267               -1.16670103                0.19796169               11.48319534               -1.99657198
               4.07035515                8.08637756               12.88924154                0.00010000                0.63053888                0.17111461               -0.63632242                0.51736683               22.84207879               -0.61718346
               5.07451067                8.03525316               12.97771411                0.00010000                0.18802306                0.04653512               -0.13021372                0.68651510               23.13230253                0.18596064
               6.07411561                7.98513117               13.07032572                0.00010000               -0.27290398               -0.02912663                0.37477366                0.76106189               23.49562670                0.90972687
               7.06905259                7.93590977               13.16927654                0.00010000               -0.71829794               -0.16060705                0.90456956                0.71691691               24.05771074                1.78763409
               8.05974966                7.88790977               13.27620963                0.14480313               -0.73293271               -0.41257087                1.47768431                0.33923626               14.50098591                3.12202841
               9.05439393                7.83607081               13.18671171                0.43124383               -0.37256538               -0.33616012                1.11417399                0.04821245                2.35979835                1.72622064
              10.05229835                7.78436229               13.05136767                0.95985732               -0.08601578               -0.09393416                0.29225610                0.00360178                0.04004999                0.50196751
              11.05267362                7.73343464               12.91547542                1.00000000                0.03752693                0.15798902               -0.53070074               -0.04271886                0.01625531               -0.82924363
               1.11196955                9.24504482               13.06239946                1.00000000                0.05786051               -0.07133069                0.22851399               -0.04094108                0.02525361                0.84112749
               2.11254816                9.19366474               12.91118690                0.60425365                0.18239658                0.18697512               -0.61889828                0.00167154                0.22109768               -0.51939358
               3.11561748                9.14168626               12.76384200                0.01329690                0.65184679                0.43132151               -1.45156005               -0.04241214               13.04356788               -1.54040013
               4.12558509                9.08791715               12.86913828                0.00010000                0.76955493                0.08209198               -0.78925005                0.16652966               25.49038975               -0.42521234
               5.13100858                9.03543349               12.97341747                0.00010000                0.24161800                0.01238349               -0.16430395                0.36556165               25.43731690                0.08939120
               6.13041745                8.98479241               13.08089991                0.00010000               -0.36330429               -0.04261586                0.45770606                0.42932828               25.82800382                0.50609760
               7.12374249                8.93428467               13.19652324                0.00010000               -0.93339864               -0.12612333                1.11949878                0.31618010               26.73664386                1.01956048
               8.11174948                8.88322140               13.32611643                0.15388367               -0.91832064               -0.47235065                1.87292132                0.04262871               16.03619495                2.04904517
               9.10537608                8.83217461               13.23149917                0.44497315               -0.46783341               -0.43161079                1.43523702               -0.04115206                2.52531210                1.23620547
              10.10239281                8.78295004               13.09144011                0.98073771               -0.17280683               -0.18689225                0.59100839               -0.00183654                0.11958025                0.46950093
              11.10191995                8.73465288               12.94875339                0.99978236               -0.04728649                0.08520070               -0.26552101               -0.04389259               -0.00907971               -0.68096554
               1.16165406               10.24461413               13.03144468                1.00000000                0.13238940               -0.04306917                0.00254718                0.10193103                0.45267623                0.68392466
               2.16297796               10.19594893               12.87664519                0.79409074                0.25725881                0.22841839               -0.86413539                0.13328043                0.88830420               -0.46300685
               3.16679924               10.14642013               12.73051990                0.50327144                0.84802804                0.47338742               -1.68441745               -0.27830081               14.71467915               -1.12790028
               4.17993852               10.08801940               12.85232380                0.43600414                0.90737021                0.01022463               -0.90776952               -0.11062278               27.66090527               -0.21047032
               5.18494664               10.03550083               12.96773586                0.43056048                0.19562428                0.00673370               -0.19538663                0.20677903               27.35484594                0.07599254
               6.18385100                9.98427885               13.08616357                0.45209507               -0.39997258               -0.05135551                0.51624516                0.23767906               27.79469811                0.30802640
               7.17694719                9.93338730               13.21361456                0.49806728               -1.05693581               -0.08973626                1.27361145                0.02966483               28.96208757                0.60125655
               8.16271229                9.87846275               13.35952596                0.58010661               -1.15524683               -0.47586497                2.14801361               -0.20115473               17.71959893                1.26208350
               9.15384225                9.82743859               13.26804301                0.72725350               -0.64644682               -0.47360173                1.71507839               -0.04529838                3.45972287                0.81981070
              10.14978335                9.78062444               13.13048318                0.99772267               -0.27260797               -0.23256002                0.88504864                0.12405691                0.72876416                0.41629535
              11.14839010                9.73513865               12.98458324                1.00000000               -0.13932550                0.04857735                0.01745621                0.09843589                0.31312284               -0.54487209
               0.65111126                0.31639877               14.32414292                1.00000000               -0.54822987               -0.61522498                2.13582845               -0.12374656               -0.80612636                0.85913331
               1.64562896                0.23917582               14.23039302                1.00000000               -0.44915524               -0.45262057                1.61452826               -0.08366515               -0.81632323               -0.03119564
               2.64212815                0.16178610               14.13641222                0.71399856               -0.14041884               -0.31522688                1.08857003                0.07285642               -0.51730328               -0.77362335
               3.64282058                0.08786908               14.04871633                0.52308655                0.35550782               -0.18225401                0.57089231                0.30436878                1.19412318               -0.09726153
               4.64923831                0.02470722               13.98941026                0.45362918                0.64715354               -0.09631798                0.10172363                0.27909011                3.99664579               -0.08436959
               5.65576365               -0.02617588               13.95904701                0.46153575                0.34758581                0.01233693               -0.32629959                0.12649323                5.27498814               -0.00604058
               6.65619003               -0.07615659               13.92657152                0.53590149               -0.05043698                0.16730110               -0.74206744                0.20807841                3.79434070                0.06063150
               7.65475491               -0.13592920               13.86671713                0.69207896                0.01387707                0.32703941               -1.20309322                0.21163452                1.33033705                0.10486903
               8.65646757               -0.20477199               13.78444244                0.97025767                0.35259179                0.48826838               -1.71696909                0.07141212               -0.21730606                0.37806668
               9.66180675               -0.27709873               13.69320944                1.00000000                0.63723622                0.64118051               -2.26082554               -0.07283935               -0.62448052                0.22637122
              10.66921229               -0.34945261               13.60258969                1.00000000                0.74055422                0.79620322               -2.78950859               -0.13276231               -0.58588437               -0.58119092
               0.72709675                1.31024652               14.29266349                1.00000000               -0.49981063               -0.58464675                1.92083799               -0.04404768               -0.04595723                1.11072526
               1.72209864                1.23464961               14.19825427                1.00000000               -0.42933326               -0.41753980                1.39934750               -0.00808861                0.02066573               -0.07052949
               2.71851008                1.15863384               14.10512422                0.27748137               -0.38474663               -0.27522455                0.87951962                0.18185755                1.11946604               -1.15323195
               3.71440371                1.08604654               14.03267342                0.00281051               -0.47291954               -0.16300498                0.44118900                0.73068304                3.27692837               -1.39753534
               4.70905169                1.02374404               13.98264031                0.00665248               -0.34716095                0.29276574                0.03012326                1.47337930                5.91162387                0.39816877
               5.70746049                0.97394749               13.96283785                0.00934318                0.20478887                0.12060144               -0.31854514                1.79627364                7.26792588                0.31311061
               6.71314747                0.92551642               13.94057913                0.01384877                0.68592353               -0.02975280               -0.65195824                1.47622512                5.66005036                0.23062181
               7.72117896                0.86734119               13.88990029                0.24037207                0.73094899                0.34062425               -1.04198266                0.78691197                3.15357821                1.41754422
               8.72776645                0.80011069               13.81844472                0.66085630                0.61198508                0.45870217               -1.48744651                0.25537153                1.42812911                1.09510133
               9.73341866                0.72931308               13.73353432                1.00000000                0.62360501                0.59861997               -1.98054358                0.02478564                0.46178428                0.54053151
              10.74023855                0.65850943               13.64264858                1.00000000                0.68198871                0.75128266               -2.51605477               -0.05119407                0.16904666               -0.61874491
               0.80142413                2.30470584               14.26615319                1.00000000               -0.43442534               -0.52574573                1.72517914               -0.04537495                0.13558374                1.32787711
               1.79707988                2.23082502               14.16528732                0.82384813               -0.35278792               -0.35023718                1.17827803               -0.01024494                0.22721089               -0.28078879
               2.79436837                2.15628161               14.06619161                0.10956859               -0.23779211               -0.19000397                0.65261654                0.18472420                1.48862096               -1.89177792
               3.79232404                2.08460898               13.99055709                0.00010000               -0.17817102                0.14582405                0.20470425                1.38049452                6.17317418               -1.24466360
               4.79080495                2.03056254               13.98523825                0.00010000               -0.12036438                0.47791581                0.01713265                2.48798732                9.26806447                0.50894333
               5.78991675                1.97623615               13.97258893                0.00010000                0.07579368                0.21421023               -0.23486900                2.63487590                8.74650950                0.79356225
               6.79232083                1.92324836               13.95766105                0.00010000                0.29910698               -0.06859368               -0.49328796                2.47615871                8.40129895                1.10744922
               7.79589889                1.87088328               13.93913057                0.08924814                0.36411429                0.16226281               -0.74131609                1.46779297                5.46901765                2.62214915
               8.79960311                1.80440205               13.86664937                0.35836624                0.40024212                0.41772266               -1.16237507                0.33024440                2.06626321                2.81096253
               9.80390373                1.73487367               13.78000540                0.89272514                0.50963046                0.52208694               -1.67723927                0.04429316                0.78711694                1.05398561
              10.80979572                1.66557305               13.68179527                1.00000000                0.58919912                0.66230366               -2.24968297               -0.04173833                0.21412144               -0.55455523
               0.87395089                3.29973161               14.23896749                1.00000000               -0.36329153               -0.46520251                1.52082471               -0.04908984                0.04212864                1.24123254
               1.87031797                3.22764487               14.12890452                0.76462569               -0.27651407               -0.28012837                0.92320012               -0.01491506                0.10715641               -0.46676243
               2.86842061                3.15483376               14.02007893                0.08108388               -0.12926479               -0.09836939                0.33705263                0.37928291                3.47736706               -2.22271261
               3.86773268                3.08896303               13.97742825                0.00010000               -0.06181641                0.38549846                0.16901913                1.39674933                9.09275645                0.04261094
               4.86718428                3.03330236               13.98161516                0.00010000               -0.01302417                0.23960554                0.00118835                2.02286541               11.39885973                0.34475565
               5.86747219                2.97823169               13.98625647                0.00010000                0.04196169                0.16866391               -0.14626362                2.14097132               11.26391001                1.12782941
               6.86802351                2.92414455               13.98890766                0.00010000                0.09544682                0.08442200               -0.30550965                2.07164889               10.85779099                2.04861923
               7.86938113                2.87058645               13.98647560                0.09395681                0.11787188                0.03670593               -0.49542441                1.42904868                8.10568341                3.15419290
               8.87038095                2.80846514               13.93490728                0.34862002                0.18762019                0.32291236               -0.72042833                0.43886107                2.99094340                3.32341926
               9.87313353                2.73975482               13.83050206                0.83461761                0.38120460                0.43766281               -1.32866925                0.01606015                0.19880986                1.14292883
              10.87800504                2.67175550               13.72292215                1.00000000                0.48715082                0.57756405               -1.96591677               -0.04601620                0.04438579               -0.48464452
               0.94461582                4.29540179               14.21067771                1.00000000               -0.29363872               -0.39799141                1.30591057               -0.04804004                0.02138061                1.17139909
               1.94167943                4.22522245               14.09215284                0.73446043               -0.19899720               -0.20444385                0.66767313               -0.01440317                0.06413031               -0.48751665
               2.94063587                4.15431422               13.97441897                0.06871156                0.00554934               -0.00994415                0.03467907                0.48003523                5.34385355               -2.15938328
               3.94179042                4.09231895               13.96149841                0.00010000                0.06788595                0.28267030                0.05060862                1.34746166               12.16574153               -0.23858130
               4.94199359                4.03535465               13.98132546                0.00010000                0.00517835                0.18774121               -0.00272814                1.73456698               13.82680867                0.51227822
               5.94189398                3.97960943               14.00308220                0.00010000               -0.02972720                0.11650418               -0.04702739                1.80918780               13.86158371                1.36364374
               6.94139905                3.92493680               14.02501160                0.00010000               -0.08673586                0.06262559               -0.09823443                1.80475611               13.79693839                2.42742764
               7.94015927                3.87161740               14.04671596                0.10453464               -0.10935427                0.08173616               -0.17350427                1.25457468                9.99602190                3.86466022
               8.93921196                3.81086030               13.99364114                0.36520208                0.03876560                0.16280863               -0.31751356                0.39516993                3.14465660                2.56319855
               9.94093458                3.74362693               13.87869062                0.85542639                0.28310370                0.32917597               -0.98962085                0.00802150                0.02892272                0.90497596
              10.94487404                3.67712433               13.76316542                1.00000000                0.39394583                0.49647541               -1.67318119               -0.04743114                0.00418427               -0.60726323
               1.01334876                5.29177178               14.18204695                1.00000000               -0.22312836               -0.32784878                1.08837387               -0.04730430                0.02183373                1.14482364
               2.01111747                5.22355599               14.05528345                0.70618714               -0.12119728               -0.12839545                0.40977849               -0.01188410                0.07221253               -0.49940262
               3.01092481                5.15463487               13.92946391                0.05750545                0.12620060                0.07405198               -0.26434339                0.48285887                7.09850101               -2.12007595
               4.01364148                5.09461643               13.94324287                0.00010000                0.18301672                0.21440382               -0.09652699                1.20503594               15.22194090               -0.38560975
               5.01458514                5.03705718               13.98137932                0.00010000                0.02161585                0.15417227               -0.02084530                1.44559738               16.46306830                0.49840739
               6.01407380                4.98056178               14.02178799                0.00010000               -0.12372432                0.07757674                0.06055703                1.52054139               16.59209439                1.46020173
               7.01211066                4.92539706               14.06423815                0.00010000               -0.27623399                0.01625290                0.13671854                1.54039698               16.72393080                2.58968826
               8.00854912                4.87222117               14.10881699                0.11477499               -0.29179195               -0.00451995                0.19384894                1.04573967               11.44498915                3.91866300
               9.00627482                4.81172132               14.04694215                0.38172154               -0.07595938                0.01851069                0.06125645                0.31177810                3.06392145                2.17798961
              10.00702993                4.74633834               13.92435093                0.87933038                0.18934024                0.21604533               -0.65840654                0.00759246                0.01870034                0.70282108
              11.01006162                4.68168501               13.80146492                1.00000000                0.30316903                0.41400494               -1.38419757               -0.04562947                0.00815295               -0.75993396
               1.08010131                6.28884481               14.15318252                1.00000000               -0.15226553               -0.25819006                0.86942407               -0.04600203                0.02561501                1.12080685
               2.07857866                6.22265454               14.01822772                0.67827896               -0.04343510               -0.05144396                0.15077972               -0.00845291                0.08988927               -0.51982107
               3.07923261                6.15579526               13.88449664                0.04650007                0.24450834                0.15950434               -0.56351258                0.42563961                8.84232131               -2.12761056
               4.08346882                6.09660703               13.92461390                0.00010000                0.28637919                0.20067925               -0.26734202                1.00923878               18.25322474               -0.47393434
               5.08496019                6.03843810               13.98099498                0.00010000                0.02480552                0.13049935               -0.04827715                1.15801400               19.12747505                0.42585208
               6.08396493                5.98116096               14.04077054                0.00010000               -0.22063004                0.04284473                0.17177330                1.22145636               19.36069351                1.41780137
               7.08054759                5.92526186               14.10393983                0.00010000               -0.46075643               -0.05114220                0.39041499                1.25175995               19.61197832                2.54898151
               8.07474981                5.87152700               14.17064118                0.12452485               -0.46086172               -0.14515882                0.60004663                0.80475667               12.74958205                3.84463931
               9.07133036                5.81123051               14.09813883                0.39727215               -0.18135334               -0.11101004                0.42590895                0.21471758                2.90219426                2.01384548
              10.07112274                5.74794784               13.96838613                0.90185954                0.09688758                0.10879668               -0.33609061                0.00661966                0.02514034                0.58088785
              11.07326811                5.68540443               13.83826560                1.00000000                0.21453719                0.33033542               -1.10173748               -0.04427218                0.01089260               -0.85668581
               1.14480925                7.28660798               14.12403296                1.00000000               -0.08112890               -0.19065569                0.65012610               -0.04436755                0.02816410                1.08961443
               2.14399796                7.22252711               13.98088801                0.65062926                0.03379326                0.02653501               -0.10798008               -0.00425505                0.10927112               -0.54784417
               3.14548512                7.15782496               13.83930665                0.03550355                0.35927332                0.24871582               -0.86173481                0.32198548               10.53126566               -2.14701911
               4.15118343                7.09863002               13.90462986                0.00010000                0.38531884                0.20730986               -0.44758631                0.75499690               21.24306796               -0.61503955
               5.15319149                7.03966717               13.97955296                0.00010000                0.02478697                0.11651978               -0.08099136                0.86040983               21.80447245                0.30887010
               6.15167917                6.98141867               14.05867290                0.00010000               -0.32058390                0.01606297                0.28229516                0.90682192               22.12476803                1.25236636
               7.14677981                6.92437422               14.14257674                0.00010000               -0.65017853               -0.11737089                0.65205024                0.90764233               22.50430782                2.34952850
               8.13867560                6.86931800               14.23164591                0.13386043               -0.63157394               -0.29198222                1.03025931                0.52694218               14.04186614                3.70303181
               9.13414834                6.80950112               14.14829248                0.41192960               -0.28435924               -0.23108250                0.77911047                0.11965069                2.72241626                1.92728964
              10.13298841                6.74851427               14.01149055                0.92322731                0.00573327                0.00687898               -0.02221564                0.00491632                0.03017373                0.52216582
              11.13426300                6.68829172               13.87425039                1.00000000                0.12745891                0.24888344               -0.82616077               -0.04363160                0.01213065               -0.89003606
               1.20737570                8.28503170               14.09450566                1.00000000               -0.00991216               -0.12701247                0.43126828               -0.04246531                0.03431945                1.05445721
               2.20727658                8.22318525               13.94321533                0.62346325                0.10968585                0.10644676               -0.36518845               -0.00020211                0.13476771               -0.58955341
               3.20956941                8.16076958               13.79387968                0.02448901                0.47249863                0.34171976               -1.15675713                0.16931452               12.15242582               -2.10896957
               4.21672655                8.10075323               13.88297241                0.00010000                0.49051599                0.20193325               -0.61994912                0.44012585               24.17106228               -0.67221050
               5.21937973                8.04076849               13.97650030                0.00010000                0.03338883                0.09020730               -0.11466940                0.56865246               24.45287541                0.18433833
               6.21739433                7.98148222               14.07413543                0.00010000               -0.42893094                0.01393094                0.38512766                0.59805356               24.83213344                0.95712997
               7.21080112                7.92291444               14.17833528                0.00010000               -0.86162875               -0.13483294                0.90505804                0.51292515               25.43089386                1.89846582
               8.20016175                7.86568736               14.29092278                0.14303432               -0.81370099               -0.41385730                1.46263083                0.19690789               15.43950174                3.33771153
               9.19452710                7.80660886               14.19789330                0.42612793               -0.38656423               -0.34317638                1.12259020                0.02508172                2.60032811                1.81409357
              10.19243047                7.74808542               14.05425310                0.94428842               -0.08432523               -0.09138935                0.28534141                0.00135926                0.04118132                0.52529381
              11.19284059                7.69038210               13.91004042                1.00000000                0.04101255                0.17100269               -0.55570191               -0.04368466                0.01599986               -0.87771273
               1.26765285                9.28406773               14.06460776                1.00000000                0.06031850               -0.06780865                0.21432561               -0.04085796                0.02274629                0.87330511
               2.26825604                9.22465605               13.90499363                0.59722133                0.18252855                0.18815380               -0.62091171                0.00203933                0.22641524               -0.55361897
               3.27130342                9.16465935               13.74940369                0.01337326                0.58654988                0.43004290               -1.43962234               -0.05195685               13.80316152               -1.61951921
               4.27998704                9.10266868               13.86135501                0.00010000                0.62660625                0.12480753               -0.77050900                0.13013400               26.98855305               -0.45090257
               5.28383555                9.04147132               13.97187970                0.00010000                0.07536284                0.06624477               -0.14600855                0.29403727               26.92507179                0.08926320
               6.28149429                8.98169729               14.08555395                0.00010000               -0.55011844                0.01930206                0.47050420                0.31724544               27.33831034                0.53135114
               7.27283318                8.92167756               14.20774406                0.00010000               -1.12874810               -0.06056491                1.12210447                0.15320543               28.31072464                1.08020641
               8.25891933                8.86104085               14.34479444                0.15248885               -1.02906337               -0.44994900                1.86026136               -0.09958751               17.06592879                2.18560900
               9.25225191                8.80263759               14.24592902                0.44061685               -0.48384828               -0.43771403                1.45112591               -0.07334622                2.75484408                1.29397332
              10.24924236                8.74668648               14.09735754                0.96649937               -0.17279806               -0.18694690                0.59158867               -0.00482697                0.12727903                0.48995537
              11.24879595                8.69171177               13.94598417                0.99982012               -0.04464134                0.09473053               -0.28786225               -0.04556426               -0.00997849               -0.72308146
               1.32538191               10.28367553               14.03139963                1.00000000                0.13438326               -0.03922045               -0.01054583                0.10018482                0.46725669                0.71132970
               2.32672574               10.22694832               13.86800423                0.79099817                0.25678684                0.22922743               -0.86542661                0.13171573                0.92671215               -0.49084849
               3.33051764               10.16937044               13.71375691                0.50344862                0.78957634                0.47110843               -1.67192510               -0.26352521               15.57478740               -1.17939939
               4.34251727               10.10324938               13.84336741                0.43674589                0.78571137                0.05806970               -0.88697050               -0.11082962               29.31868089               -0.22502572
               5.34623187               10.04209339               13.96589935                0.43082485                0.05078633                0.06220684               -0.17507392                0.17057637               28.99508039                0.07537288
               6.34353299                9.98186826               14.09141130                0.45198732               -0.58551027                0.01709715                0.53025806                0.18435766               29.46163414                0.32166797
               7.33452167                9.92170314               14.22637864                0.49776930               -1.31615108                0.00255797                1.27627898               -0.09014564               30.70401964                0.63524912
               8.31720997                9.85668838               14.38095090                0.57950557               -1.35535645               -0.43524709                2.13419503               -0.36336383               18.85811643                1.34341960
               9.30741454                9.79785458               14.28527876                0.72528405               -0.69751122               -0.47830075                1.73302610               -0.10083263                3.73684954                0.85490028
              10.30325975                9.74434648               14.13939208                0.99097882               -0.27678992               -0.23400062                0.89273887                0.12284438                0.77518517                0.43563440
              11.30187874                9.69227671               13.98465095                1.00000000               -0.13810086                0.05649366               -0.00319679                0.10130135                0.33435929               -0.57921179
               0.73918732                0.35775103               15.34544624                1.00000000               -0.54720097               -0.61248980                2.12647858               -0.12242836               -0.84816113                0.89960352
               1.73371531                0.27207740               15.24650963                1.00000000               -0.45049957               -0.45057252                1.60931589               -0.08255548               -0.86104436               -0.03139091
               2.73017733                0.18620293               15.14730066                0.71243104               -0.15375710               -0.31220317                1.08883346                0.06611253               -0.55978958               -0.80924869
               3.73064017                0.10357710               15.05446700                0.52328157                0.31109639               -0.17862373                0.57803806                0.27828010                1.17722479               -0.09844218
               4.73639926                0.03098122               14.99047743                0.45407165                0.58234648               -0.08240404                0.11010197                0.25455723                4.01595217               -0.08594894
               5.74228710               -0.03005627               14.95577714                0.46172911                0.31417954                0.03299830               -0.32896579                0.11316269                5.31617702               -0.00380601
               6.74268285               -0.08998776               14.91907417                0.53542510               -0.03708452                0.18342369               -0.75829908                0.18832139                3.82624963                0.06511726
               7.74154541               -0.15883991               14.85457413                0.69035610                0.04046655                0.33745381               -1.22613252                0.19235460                1.32365999                0.11105992
               8.74349218               -0.23605716               14.76715083                0.96601343                0.36963630                0.49523976               -1.74174391                0.06255561               -0.25974279                0.39499776
               9.74893813               -0.31648377               14.67047501                1.00000000                0.64665267                0.64804921               -2.28634848               -0.07182925               -0.67220732                0.24274898
              10.75642523               -0.39690314               14.57457826                1.00000000                0.74870982                0.80439160               -2.81294766               -0.13210420               -0.62493269               -0.62498460
               0.82363666                1.35162613               15.31181611                1.00000000               -0.49728614               -0.58209722                1.91090753               -0.04307279               -0.04845971                1.15979260
               1.81866380                1.26757167               15.21221961                1.00000000               -0.42740287               -0.41548409                1.39340205               -0.00699293                0.01874719               -0.07393788
               2.81508861                1.18308090               15.11391737                0.27492288               -0.38149883               -0.27209437                0.87764597                0.17269227                1.16053703               -1.19661582
               3.81103383                1.10179086               15.03711852                0.00301896               -0.46635467               -0.15708087                0.44628674                0.68874003                3.37574902               -1.45106466
               4.80576151                1.03015718               14.98297326                0.00702435               -0.35653029                0.27391238                0.03501182                1.37060144                6.06152226                0.42606228
               5.80390322                0.97027371               14.95962067                0.00986081                0.15981854                0.12283842               -0.32591865                1.67377220                7.46498569                0.35455048
               6.80895788                0.91184647               14.93395699                0.01334446                0.63002153               -0.01407182               -0.67323552                1.37864533                5.84064459                0.27265288
               7.81650365                0.84453463               14.87934905                0.23818219                0.69908897                0.34359458               -1.06889264                0.72781891                3.27839009                1.49486529
               8.82293966                0.76889524               14.80343936                0.65442044                0.60695918                0.46355250               -1.51416171                0.23786224                1.50129235                1.16162237
               9.82864283                0.68999672               14.71361547                1.00000000                0.62919499                0.60437046               -2.00352772                0.02352902                0.48982554                0.56834810
              10.83552356                0.61114078               14.61737717                1.00000000                0.68807288                0.76088762               -2.53841109               -0.05141328                0.17521543               -0.66600385
               0.90643477                2.34610908               15.28334133                1.00000000               -0.43140945               -0.52338952                1.71348414               -0.04485828                0.14721705                1.38198688
               1.90212068                2.26376772               15.17704010                0.81206539               -0.35113912               -0.34748026                1.17138461               -0.00963798                0.24969202               -0.30418901
               2.89941199                2.18076105               15.07272800                0.10791421               -0.23909942               -0.18542173                0.65194950                0.17508674                1.56179939               -1.98779072
               3.89733869                2.10043548               14.99264428                0.00010000               -0.20417789                0.13696235                0.21072937                1.27840120                6.41603182               -1.24744542
               4.89532843                2.03645947               14.98544117                0.00010000               -0.16327178                0.44069732                0.02245120                2.30092583                9.61609665                0.55510325
               5.89407325                1.97240050               14.97023385                0.00010000                0.03332052                0.19500944               -0.23727188                2.44641505                9.06684223                0.87119200
               6.89599484                1.90973080               14.95267602                0.00010000                0.24898820               -0.06696656               -0.50497123                2.31486531                8.72868072                1.20090102
               7.89905302                1.84803198               14.93159265                0.08798391                0.33962415                0.14990471               -0.76721208                1.37924461                5.72467335                2.74388099
               8.90278733                1.77321389               14.85492128                0.35412846                0.40550813                0.41026904               -1.18385724                0.30498590                2.19237118                2.98561957
               9.90716318                1.69560364               14.76313098                0.87840572                0.51607690                0.52532502               -1.69786238                0.03863101                0.83662251                1.11566251
              10.91310886                1.61831461               14.65918983                1.00000000                0.59456829                0.67565445               -2.27142929               -0.04359284                0.23450496               -0.59672036
               0.98742223                3.34115834               15.25410805                1.00000000               -0.36031484               -0.46284204                1.50853248               -0.04835173                0.04244224                1.28607301
               1.98381908                3.26062207               15.13810000                0.75334005               -0.27498228               -0.27662873                0.91547499               -0.01362291                0.11297623               -0.50695156
               2.98192258                3.17937247               15.02344629                0.07973906               -0.14578256               -0.09264115                0.33427623                0.35434368                3.70171959               -2.35565442
               3.98090343                3.10453011               14.97920130                0.00010000               -0.10537847                0.35819441                0.18482360                1.27320916                9.52725368                0.08839397
               4.97981501                3.03897113               14.98166478                0.00010000               -0.06716163                0.21855763                0.00782548                1.85192186               11.84768980                0.38923687
               5.97956019                2.97417390               14.98480178                0.00010000               -0.00956503                0.14807639               -0.14582872                1.97127262               11.72610175                1.20651171
               6.97962371                2.91050714               14.98582256                0.00010000                0.05226275                0.06694041               -0.31303243                1.91276464               11.30696823                2.16007345
               7.98060545                2.84753272               14.98145772                0.09239713                0.09220046                0.01128107               -0.51063368                1.33681059                8.53207237                3.28307280
               8.98146772                2.77710062               14.92764372                0.34409320                0.18546438                0.30608860               -0.73219284                0.41356015                3.21376972                3.52877926
               9.98431474                2.70050322               14.81712891                0.82039480                0.38810226                0.43966003               -1.34570732                0.01372262                0.21603314                1.21945887
              10.98922976                2.62465386               14.70314962                1.00000000                0.49150283                0.59479976               -1.98818131               -0.04724081                0.04722069               -0.51300083
               1.06654027                4.33685224               15.22366731                1.00000000               -0.29061857               -0.39580676                1.29336000               -0.04706031                0.02114356                1.20962689
               2.06363409                4.25823514               15.09879535                0.72312037               -0.19747241               -0.20107352                0.66059627               -0.01244777                0.06626875               -0.52892360
               3.06259083                4.17890822               14.97476847                0.06728249               -0.02149388               -0.00488702                0.03350497                0.43800751                5.67465447               -2.28333041
               4.06320421                4.10759937               14.96205401                0.00010000                0.00661236                0.26107261                0.06014308                1.21664146               12.78910314               -0.25865849
               5.06272307                4.04083062               14.98133778                0.00010000               -0.06207583                0.17212116                0.00434757                1.56721806               14.42619665                0.54937929
               6.06196269                3.97536203               15.00262594                0.00010000               -0.09158779                0.09985725               -0.04547292                1.63717984               14.47058490                1.44556751
               7.06089132                3.91106961               15.02401010                0.00010000               -0.13834729                0.04057650               -0.10376890                1.63287541               14.40004186                2.55580262
               8.05919575                3.84825760               15.04492820                0.10259834               -0.14016469                0.05165591               -0.18648016                1.14577805               10.56582253                4.04371604
               9.05808802                3.77933567               14.99041320                0.35986529                0.03443207                0.14912284               -0.32717481                0.37231564                3.42189361                2.72811648
              10.05988439                3.70439684               14.86870673                0.83983799                0.28873712                0.33216249               -1.00619395                0.00732579                0.03578435                0.96885134
              11.06386277                3.63021061               14.74630718                1.00000000                0.39783760                0.51535213               -1.69731713               -0.04722087                0.00498433               -0.63292755
               1.14371521                5.33324220               15.19286116                1.00000000               -0.22010762               -0.32600874                1.07580155               -0.04643226                0.02113392                1.18071507
               2.14151414                5.25660060               15.05935054                0.69507330               -0.11983543               -0.12529735                0.40332693               -0.00999131                0.07362714               -0.54278976
               3.14131851                5.17927473               14.92683192                0.05612930                0.08998587                0.07845670               -0.26392969                0.43047673                7.52338512               -2.24269216
               4.14331386                5.10975156               14.94231316                0.00010000                0.10391034                0.20559906               -0.09017284                1.06510021               16.02541613               -0.43465728
               5.14339671                5.04241355               14.98120838                0.00010000               -0.06245245                0.14821766               -0.01445625                1.27550630               17.23097732                0.51850025
               6.14206481                4.97617105               15.02241059                0.00010000               -0.20055341                0.06782402                0.06247793                1.33728303               17.36891899                1.54212383
               7.13938564                4.91131867               15.06558483                0.00010000               -0.34049278               -0.00174729                0.13080651                1.34959662               17.49857331                2.73387612
               8.13525495                4.84856584               15.11068118                0.11261726               -0.33054269               -0.03104626                0.17704218                0.92644554               12.13176509                4.12996858
               9.13277479                4.78008308               15.04751235                0.37589851               -0.08343207                0.00829444                0.05389748                0.28996136                3.36756170                2.31865545
              10.13358631                4.70714647               14.91768025                0.86281811                0.19415125                0.22015918               -0.67443885                0.00663330                0.02236813                0.75571373
              11.13665782                4.63496091               14.78748562                1.00000000                0.30715056                0.43266497               -1.41013079               -0.04550117                0.00809664               -0.79090078
               1.21889484                6.33033207               15.16180750                1.00000000               -0.14930991               -0.25651845                0.85684717               -0.04534008                0.02450471                1.15537461
               2.21740174                6.25572920               15.01970855                0.66773025               -0.04227174               -0.04853885                0.14495920               -0.00688362                0.09089232               -0.56378632
               3.21804940                6.18047736               14.87888032                0.04531094                0.19828267                0.16350277               -0.56178139                0.36867443                9.35071047               -2.24983948
               4.22136739                6.11171135               14.92198083                0.00010000                0.18821548                0.20419999               -0.26076665                0.86580127               19.23331467               -0.54036267
               5.22181371                6.04379498               14.98055515                0.00010000               -0.07820768                0.13806543               -0.04134127                0.98443736               20.07732551                0.43505864
               6.21980324                5.97671851               15.04250982                0.00010000               -0.31626259                0.04431614                0.17417180                1.02496390               20.31914196                1.49575380
               7.21548846                5.91103466               15.10782140                0.00010000               -0.54214923               -0.06133714                0.38377647                1.04142155               20.57503768                2.69975828
               8.20896025                5.84763668               15.17654742                0.12232250               -0.50909221               -0.16569879                0.57913859                0.67296590               13.53543824                4.08009649
               9.20530662                5.77950155               15.10237697                0.39132225               -0.19105122               -0.11969692                0.42258137                0.19282957                3.20639008                2.13824406
              10.20513923                5.70880003               14.96494881                0.88505816                0.10086306                0.11292966               -0.35020496                0.00531082                0.02724243                0.62325090
              11.20732388                5.63886391               14.82710902                1.00000000                0.21846485                0.34783244               -1.12810395               -0.04440426                0.01045051               -0.89464291
               1.29201415                7.32811183               15.13046571                1.00000000               -0.07829784               -0.18884886                0.63762476               -0.04395369                0.02677748                1.12376478
               2.29123117                7.25562982               14.97978526                0.64094753                0.03478450                0.02917711               -0.11315382               -0.00307428                0.11008310               -0.59090521
               3.29270984                7.18254478               14.83071574                0.03461830                0.30405444                0.25199566               -0.85869406                0.26738284               11.11844491               -2.26670718
               4.29731226                7.11383556               14.90020940                0.00010000                0.26842297                0.22484232               -0.43873666                0.62092326               22.39713136               -0.68226070
               5.29807830                7.04517486               14.97879735                0.00010000               -0.09939310                0.14091010               -0.07242738                0.69066274               22.94090960                0.31250421
               6.29532440                6.97705737               15.06152622                0.00010000               -0.43911971                0.03371069                0.28589978                0.70185682               23.27179084                1.32153787
               7.28929591                6.91009193               15.14907918                0.00010000               -0.75385121               -0.11614436                0.64577420                0.67945753               23.66827542                2.49427636
               8.28024738                6.84525186               15.24185131                0.13177090               -0.69139378               -0.30606051                1.00808009                0.38093165               14.91555934                3.94667824
               9.27546803                6.77768914               15.15609257                0.40617501               -0.29586012               -0.23927047                0.78130150                0.09583822                3.00903348                2.03884225
              10.27433017                6.70940507               15.01121112                0.90669757                0.00869679                0.01005730               -0.03291363                0.00320204                0.03163812                0.55587201
              11.27564197                6.64191756               14.86585573                1.00000000                0.13117937                0.26413466               -0.85158249               -0.04399595                0.01156899               -0.93447862
               1.36297979                8.32655509               15.09875120                1.00000000               -0.00724839               -0.12474424                0.41893784               -0.04230577                0.03308598                1.08932124
               2.36290730                8.25631274               14.93954459                0.61487363                0.11057682                0.10868170               -0.36975221                0.00057668                0.13617550               -0.63095767
               3.36519132                8.18551727               14.78234717                0.02398931                0.41242380                0.34369322               -1.15234777                0.12524704               12.82093623               -2.22017375
               4.37115578                8.11620819               14.87684255                0.00010000                0.36069162                0.23342715               -0.60887900                0.33318956               25.49741417               -0.72433839
               5.37240515                8.04661318               14.97542072                0.00010000               -0.11162355                0.13224195               -0.10416652                0.42086532               25.76985245                0.18680427
               6.36892331                7.97739272               15.07802828                0.00010000               -0.57610183                0.05430981                0.39039529                0.40467483               26.16610399                1.00989044
               7.36088312                7.90871177               15.18737770                0.00010000               -0.99708167               -0.11232453                0.90021094                0.27716668               26.80211152                2.01629711
               8.34898167                7.84151546               15.30546224                0.14116688               -0.89064714               -0.41731976                1.44180062                0.03200444               16.39981784                3.56214507
               9.34307017                7.77471614               15.20916351                0.42080019               -0.40034101               -0.35102630                1.13126335               -0.00362322                2.86407199                1.91221759
              10.34097485                7.70900117               15.05707450                0.92844445               -0.08255976               -0.08974472                0.27911348               -0.00082392                0.04375580                0.55455268
              11.34141898                7.64414660               14.90436138                1.00000000                0.04441264                0.18315800               -0.57929393               -0.04419919                0.01594461               -0.92673670
               1.43165274                9.32561695               15.06668598                1.00000000                0.06277874               -0.06490618                0.20230620               -0.04083868                0.02023442                0.90478276
               2.43228052                9.25780346               14.89876866                0.58978077                0.18332944                0.18990002               -0.62508481                0.00246619                0.23261146               -0.58832731
               3.43531933                9.18941865               14.73504955                0.01326186                0.52998106                0.43042210               -1.43420628               -0.07794316               14.56212224               -1.69837955
               4.44288015                9.11850410               14.85372810                0.00010000                0.49958779                0.16429473               -0.75818944                0.07074822               28.48404428               -0.47547810
               5.44531108                9.04781970               14.97049730                0.00010000               -0.07804220                0.11778965               -0.13389527                0.20193371               28.40933483                0.09117717
               6.44131930                8.97814357               15.09031000                0.00010000               -0.72972925                0.08023964                0.47717892                0.18534179               28.84649056                0.55967247
               7.43071650                8.90784544               15.21896533                0.00010000               -1.32181038                0.00556754                1.11850250               -0.03166166               29.88508982                1.14589721
               8.41488309                8.83690547               15.36332165                0.15085429               -1.14033181               -0.42486179                1.84149494               -0.25920018               18.12365018                2.32961033
               9.40790986                8.77066861               15.26052169                0.43576291               -0.49999271               -0.44395163                1.46645284               -0.11137013                3.01257712                1.36011505
              10.40488324                8.70761017               15.10327188                0.95144706               -0.17213672               -0.18665563                0.59034251               -0.00739443                0.13749249                0.51540125
              11.40446713                8.64558072               14.94299614                0.99985154               -0.04161139                0.10371239               -0.30939794               -0.04591786               -0.01065446               -0.76577218
               1.49779000               10.32525696               15.03123376                1.00000000                0.13649289               -0.03599835               -0.02176897                0.09910340                0.48121245                0.73839841
               2.49915493               10.26011074               14.85933666                0.78761371                0.25709079                0.23072830               -0.86923780                0.13087760                0.96546463               -0.51933013
               3.50293181               10.19412571               14.69708140                0.50350449                0.75073815                0.47070658               -1.66630274               -0.26958373               16.43456978               -1.23151784
               4.51416969               10.11949409               14.83458439                0.43743802                0.69362752                0.09899883               -0.87320960               -0.12888274               30.97431430               -0.24031483
               5.51680436               10.04896897               14.96423438                0.43107466               -0.07826420                0.11492714               -0.16164829                0.12449940               30.63080633                0.07466815
               6.51260440                9.97899751               15.09676874                0.45185766               -0.76581902                0.08539478                0.53739934                0.12121800               31.12467757                0.33577810
               7.50148798                9.90882313               15.23914014                0.49740413               -1.58149561                0.09776873                1.27210493               -0.22181559               32.44461178                0.67071652
               8.48097449                9.83301823               15.40220986                0.57874281               -1.56749585               -0.38872379                2.11396882               -0.54016076               20.02921832                1.43056101
               9.47013807                9.76583711               15.30270353                0.72297558               -0.75298152               -0.48315021                1.75048029               -0.16468795                4.04837760                0.89683274
              10.46591486                9.70526806               15.14833795                0.98364332               -0.27892654               -0.23421140                0.89450613                0.12234903                0.82651496                0.45886902
              11.46455954                9.64622085               14.98451930                0.99999913               -0.13553271                0.06401316               -0.02332355                0.10451983                0.35665088               -0.61392504
               0.83202124                0.40165110               16.36667249                1.00000000               -0.54675928               -0.61038230                2.11979860               -0.12237441               -0.88773134                0.93817363
               1.82655365                0.30712805               16.26257934                1.00000000               -0.45231231               -0.44876572                1.60561073               -0.08230228               -0.90239512               -0.03229631
               2.82297500                0.21236771               16.15818889                0.71062397               -0.16826722               -0.30935290                1.08920724                0.05814985               -0.59792387               -0.84494518
               3.82318831                0.12059721               16.06027709                0.52336577                0.26361101               -0.17492315                0.58303249                0.24889458                1.16127279               -0.09823874
               4.82824722                0.03799660               15.99161229                0.45445910                0.51510770               -0.06950510                0.11538999                0.22646257                4.02738029               -0.08703227
               5.83349046               -0.03393907               15.95246769                0.46186423                0.28354053                0.05208548               -0.33420844                0.09777661                5.34303612               -0.00106905
               6.83391803               -0.10461989               15.91140554                0.53485017               -0.01695058                0.19875153               -0.77618726                0.16545679                3.84589226                0.07026277
               7.83315145               -0.18325785               15.84219448                0.68843673                0.07269005                0.34778258               -1.25019650                0.16983459                1.31008053                0.11782557
               8.83537183               -0.26944909               15.74960756                0.96136469                0.38918641                0.50217810               -1.76707370                0.05206456               -0.30648066                0.41191089
               9.84093518               -0.35852466               15.64748247                1.00000000                0.65676557                0.65487397               -2.31227540               -0.07083175               -0.72251429                0.26095683
              10.84850714               -0.44755011               15.54633074                1.00000000                0.75719633                0.81278853               -2.83663912               -0.13131184               -0.66523858               -0.67120832
               0.92532055                1.39554728               16.33088164                1.00000000               -0.49482288               -0.57987366                1.90363204               -0.04320374               -0.05052151                1.20649095
               1.92037233                1.30264039               16.22612231                1.00000000               -0.42493182               -0.41335991                1.38653048               -0.00698495                0.01756734               -0.07831662
               2.91682192                1.20927418               16.12267714                0.27201555               -0.37547592               -0.26854144                0.87422912                0.16163824                1.20401232               -1.23887486
               3.91286281                1.11884798               16.04159915                0.00322116               -0.45209671               -0.15099585                0.45028734                0.63852795                3.47471096               -1.50226270
               4.90777998                1.03730155               15.98334055                0.00736689               -0.35431680                0.24882382                0.03800208                1.25119478                6.20178350                0.45609356
               5.90577647                0.96658178               15.95631948                0.01033520                0.12260006                0.12089777               -0.33483914                1.52971804                7.64605221                0.40061545
               6.91023198                0.89736763               15.92711442                0.01272608                0.57439624                0.00103483               -0.69567649                1.26279041                6.00983670                0.32193117
               7.91726440                0.82021998               15.86852244                0.23573682                0.66469478                0.34550454               -1.09672691                0.66003550                3.39981412                1.57479779
               8.92352588                0.73557269               15.78816148                0.64744775                0.60064868                0.46795877               -1.54168446                0.21722420                1.57604620                1.23161469
               9.92927737                0.64802408               15.69346377                1.00000000                0.63467940                0.60990719               -2.02697782                0.02187679                0.51956636                0.59787866
              10.93621947                0.56057778               15.59188036                1.00000000                0.69420991                0.77081464               -2.56109814               -0.05158176                0.18142299               -0.71589677
               1.01697095                2.39005363               16.30042288                1.00000000               -0.42838937               -0.52100931                1.70461367               -0.04451356                0.15840453                1.43381141
               2.01268705                2.29886085               16.18871501                0.79998288               -0.34853831               -0.34449067                1.16179252               -0.00949069                0.27220134               -0.32832269
               3.01000018                2.20699688               16.07923060                0.10608213               -0.23777780               -0.17969931                0.64392239                0.16241057                1.63739319               -2.08220351
               4.00793150                2.11757729               15.99477167                0.00010000               -0.22314364                0.12365968                0.21560484                1.15863223                6.65962916               -1.24337298
               5.00553731                2.04297308               15.98568727                0.00010000               -0.19563764                0.39444705                0.02624822                2.08296031                9.95748462                0.60467892
               6.00401874                1.96847888               15.96784349                0.00010000               -0.00008323                0.16940314               -0.24174522                2.22438553                9.37721695                0.95615506
               7.00553564                1.89540081               15.94756163                0.00010000                0.20641758               -0.06778408               -0.51899573                2.12241567                9.04480905                1.30501761
               8.00814709                1.82365224               15.92378633                0.08664283                0.31882840                0.13461912               -0.79466238                1.27231501                5.97797553                2.87467101
               9.01191221                1.73991009               15.84297223                0.34971824                0.41102665                0.39880590               -1.20635744                0.27402533                2.32362776                3.16984413
              10.01636763                1.65367348               15.74604815                0.86384214                0.52279482                0.52720806               -1.71889424                0.03135097                0.88842057                1.17988051
              11.02236811                1.56786618               15.63636668                1.00000000                0.60004789                0.69001816               -2.29327439               -0.04630122                0.25608208               -0.64214761
               1.10681584                3.38512710               16.26913814                1.00000000               -0.35765801               -0.46062083                1.49875336               -0.04706902                0.04219526                1.32939702
               2.10323926                3.29575058               16.14721402                0.74201511               -0.27310751               -0.27337057                0.90745408               -0.01151554                0.11842950               -0.54744223
               3.10135369                3.20568020               16.02676446                0.07832947               -0.15900033               -0.08674486                0.32853286                0.32203566                3.93412776               -2.48759375
               4.10005925                3.12132117               15.98112472                0.00010000               -0.14080470                0.32283196                0.19897848                1.12909849                9.96427752                0.13641172
               5.09853760                3.04519049               15.98177167                0.00010000               -0.11114025                0.19127784                0.01267998                1.65284836               12.28715384                0.43647382
               6.09783645                2.96996984               15.98333989                0.00010000               -0.05153287                0.12165417               -0.14786506                1.77180394               12.18107077                1.29018027
               7.09750694                2.89601195               15.98264701                0.00010000                0.01824846                0.04448834               -0.32371054                1.72522476               11.74975613                2.27817558
               8.09820142                2.82291236               15.97626293                0.09085205                0.07391027               -0.01919919               -0.53056915                1.22311899                8.96083431                3.42166818
               9.09898515                2.74354881               15.92026342                0.33958196                0.18734358                0.28219560               -0.74401888                0.38074858                3.44183689                3.74262715
              10.10194829                2.65856824               15.80358791                0.80627207                0.39614466                0.43895710               -1.36243159                0.01089968                0.23309436                1.29796498
              11.10690804                2.57437814               15.68315853                1.00000000                0.49597478                0.61317959               -2.00980665               -0.04877318                0.04993332               -0.54523617
               1.19478260                4.38084121               16.23654491                1.00000000               -0.28789554               -0.39406023                1.28343928               -0.04593527                0.02102900                1.24628964
               2.19190364                4.29339344               16.10536477                0.71189403               -0.19561469               -0.19817917                0.65320700               -0.00996165                0.06884433               -0.57067763
               3.19087030                4.20526198               15.97508907                0.06585962               -0.04502360               -0.00055099                0.02951980                0.38583448                6.00979946               -2.40604820
               4.19100317                4.12403393               15.96270127                0.00010000               -0.04623521                0.23376507                0.06857656                1.06253695               13.41463716               -0.28310935
               5.18994560                4.04679863               15.98141241                0.00010000               -0.11849015                0.15096634                0.00928031                1.37238488               15.02049189                0.58817347
               6.18863337                3.97091197               16.00217274                0.00010000               -0.14239875                0.07752636               -0.04686673                1.43656114               15.07428819                1.53126440
               7.18709762                3.89629058               16.02293623                0.00010000               -0.17803779                0.01256647               -0.11312402                1.43304421               14.99891862                2.68881703
               8.18507261                3.82326826               16.04298636                0.10073256               -0.16131619                0.01444805               -0.20459256                1.01594566               11.14059830                4.22644849
               9.18387130                3.74555400               15.98709765                0.35465798                0.03418401                0.12909221               -0.33554748                0.34131050                3.70618142                2.89781300
              10.18575629                3.66245262               15.85856674                0.82457720                0.29507702                0.33211476               -1.02123528                0.00657540                0.04294595                1.03341223
              11.18977284                3.58012978               15.72921908                1.00000000                0.40165494                0.53435015               -1.71948277               -0.04704630                0.00593165               -0.66259318
               1.28079268                5.37724589               16.20356298                1.00000000               -0.21734255               -0.32467297                1.06569182               -0.04555438                0.02064379                1.21499873
               2.27861926                5.29178700               16.06334999                0.68412116               -0.11813959               -0.12246725                0.39631011               -0.00783398                0.07571312               -0.58668382
               3.27842989                5.20566918               15.92418532                0.05478323                0.05770423                0.08263356               -0.26693433                0.36568578                7.95002707               -2.36456346
               4.27977334                5.12599647               15.94143942                0.00010000                0.03386829                0.19348020               -0.08577070                0.89988813               16.82989811               -0.48483153
               5.27910726                5.04820982               15.98109020                0.00010000               -0.13488063                0.13758343               -0.01090521                1.07780062               17.99627105                0.54049131
               6.27707573                4.97152037               16.02303755                0.00010000               -0.26478626                0.05242199                0.06077372                1.12508059               18.14179522                1.62770617
               7.27381153                4.89626328               16.06685428                0.00010000               -0.39094105               -0.02639515                0.12060733                1.12970330               18.26883948                2.88173855
               8.26925691                4.82320132               16.11235783                0.11054269               -0.35922727               -0.06547260                0.15558630                0.78488840               12.82711185                4.34238150
               9.26662699                4.74613065               16.04802010                0.37023094               -0.08764447               -0.00694131                0.04823401                0.25973436                3.68262704                2.46483683
              10.26750402                4.66521053               15.91086215                0.84669101                0.19929096                0.22146765               -0.68831521                0.00568668                0.02664630                0.80998251
              11.27061281                4.58506514               15.77326230                1.00000000                0.31087866                0.45058417               -1.43333552               -0.04534623                0.00821689               -0.82502371
               1.36478930                6.37434776               16.17031946                1.00000000               -0.14656214               -0.25531593                0.84658099               -0.04471493                0.02361064                1.18843702
               2.36332368                6.29094410               16.02112691                0.65730681               -0.04073772               -0.04570111                0.13830614               -0.00513800                0.09260532               -0.60820780
               3.36397454                6.20691466               15.87326101                0.04413975                0.15683059                0.16773997               -0.56384849                0.29797094                9.85981874               -2.37140437
               4.36646029                6.12790353               15.91939857                0.00010000                0.10015831                0.20633022               -0.25753637                0.69533760               20.21372496               -0.60510103
               5.36597771                6.04955030               15.98016815                0.00010000               -0.16893844                0.14209351               -0.03834534                0.78212392               21.02533623                0.44738933
               6.36308152                5.97196041               16.04425397                0.00010000               -0.39834841                0.04053006                0.17200859                0.79848957               21.27426313                1.57794559
               7.35801074                5.89576267               16.11161536                0.00010000               -0.60892600               -0.07799152                0.37209953                0.80035512               21.53333467                2.85486938
               8.35090300                5.82195880               16.18222396                0.12017262               -0.54769854               -0.19322883                0.55322722                0.51844934               14.33463322                4.31810478
               9.34705677                5.74541517               16.10659046                0.38547350               -0.19837322               -0.13196162                0.42051211                0.16326878                3.52730212                2.26972354
              10.34693554                5.66688198               15.96138203                0.86856095                0.10499633                0.11477458               -0.36233487                0.00401397                0.03006629                0.66839068
              11.34915670                5.58914146               15.81570352                1.00000000                0.22211622                0.36423210               -1.15173814               -0.04443341                0.01013566               -0.93440749
               1.44670571                7.37213957               16.13678545                1.00000000               -0.07561065               -0.18749458                0.62728388               -0.04359227                0.02559551                1.15663617
               2.44594960                7.29087297               15.97862493                0.63128757                0.03620842                0.03192971               -0.11947465               -0.00175760                0.11164596               -0.63440759
               3.44742987                7.20902397               15.82213277                0.03371050                0.25474244                0.25588191               -0.85990470                0.19828636               11.70638446               -2.38577655
               4.45104445                7.13012307               15.89585513                0.00010000                0.16314954                0.24221154               -0.43462666                0.45843514               23.55130718               -0.74688555
               5.45069286                7.05105169               15.97810441                0.00010000               -0.21056477                0.16271601               -0.06904537                0.49106240               24.07554876                0.31973529
               6.44683315                6.97233097               16.06439090                0.00010000               -0.54363141                0.04679263                0.28381747                0.46648284               24.41612337                1.39544683
               7.43982024                6.89470345               16.15549223                0.00010000               -0.84298773               -0.12042200                0.63335925                0.42022038               24.82814920                2.64459797
               8.42997340                6.81933674               16.25180751                0.12966948               -0.74255227               -0.32494443                0.97957757                0.21286372               15.80784828                4.19581905
               9.42496919                6.74349142               16.16391851                0.40039711               -0.30576927               -0.24955395                0.78385414                0.06543958                3.31724675                2.15881000
              10.42385801                6.66750603               16.01083228                0.89026843                0.01179907                0.01168672               -0.04236730                0.00152701                0.03400356                0.59362246
              11.42520517                6.59234979               15.85721874                1.00000000                0.13471602                0.27827438               -0.87474175               -0.04417306                0.01112324               -0.97965287
               1.52645065                8.37059786               16.10288442                1.00000000               -0.00465271               -0.12293725                0.40858863               -0.04219450                0.03203788                1.12317796
               2.52640412                8.29158269               15.93582028                0.60614430                0.11197602                0.11122254               -0.37583825                0.00147606                0.13844163               -0.67292881
               3.52869017                8.21203229               15.77083272                0.02340202                0.35985776                0.34667791               -1.15283201                0.06608174               13.49042884               -2.33108035
               4.53360128                8.13274776               15.87079483                0.00010000                0.24504452                0.26471064               -0.60370124                0.19740276               26.82389944               -0.77482898
               5.53359106                8.05280462               15.97441697                0.00010000               -0.24209290                0.17147553               -0.10000840                0.24479893               27.08519697                0.19215008
               6.52875942                7.97289626               16.08194334                0.00010000               -0.70908402                0.09096544                0.38886054                0.18362676               27.49837943                1.06695158
               7.51940938                7.89335423               16.19633950                0.00010000               -1.11935609               -0.09351886                0.88811382                0.01333692               28.17107650                2.14011314
               8.50637230                7.81545992               16.31975879                0.13919031               -0.96065506               -0.42256532                1.41325367               -0.15337822               17.38409096                3.79425506
               9.50019628                7.74042409               16.22051856                0.41526368               -0.41322926               -0.35957756                1.13913676               -0.03800849                3.15355455                2.01938956
              10.49810771                7.66711571               16.05983537                0.91237920               -0.08052803               -0.08874851                0.27299922               -0.00286994                0.04750594                0.58846142
              11.49858572                7.59470695               15.89845454                1.00000000                0.04780055                0.19443101               -0.60132746               -0.04441777                0.01601809               -0.97591881
               1.60389216                9.36968083               16.06865388                1.00000000                0.06525270               -0.06249705                0.19207994               -0.04085511                0.01770050                0.93569344
               2.60454469                9.29309742               15.89249193                0.58199702                0.18471356                0.19215166               -0.63114892                0.00299894                0.23966883               -0.62372326
               3.60758643                9.21595753               15.72071957                0.01298861                0.48377414                0.43220504               -1.43436925               -0.12044965               15.32214270               -1.77760343
               4.61422017                9.13541729               15.84619122                0.00010000                0.39269574                0.19913715               -0.75256500               -0.01135228               29.97974289               -0.49968917
               5.61544035                9.05448120               15.96920179                0.00010000               -0.21320478                0.16539823               -0.12904454                0.09027900               29.89218493                0.09444039
               6.60995608                8.97415028               16.09509753                0.00010000               -0.89585161                0.13850423                0.47615319                0.03566172               30.35350866                0.59048038
               7.59752332                8.89283307               16.23011411                0.00010000               -1.50600521                0.07068056                1.10681637               -0.23507264               31.45959323                1.21601254
               8.57983597                8.81088544               16.38162434                0.14900451               -1.24850455               -0.39683669                1.81441285               -0.43372758               19.21094885                2.48055011
               9.57255323                8.73629987               16.27525807                0.43047824               -0.51591069               -0.44982730                1.47952239               -0.15483306                3.29970365                1.43329615
              10.56951776                8.66573106               16.10916439                0.93575922               -0.17094407               -0.18619952                0.58749718               -0.00974513                0.14904758                0.54473921
              11.56913434                8.59623841               15.93979621                0.99987763               -0.03834149                0.11224701               -0.33027948               -0.04609803               -0.01133509               -0.80880898
               1.67880035               10.36934792               16.03096425                1.00000000                0.13870430               -0.03329046               -0.03142889                0.09859907                0.49468156                0.76524674
               2.68018740               10.29542572               15.85061948                0.78399599                0.25804806                0.23282984               -0.87519627                0.13069422                1.00475483               -0.54856006
               3.68396131               10.22067639               15.68043085                0.50345819                0.73315851                0.47188615               -1.66646421               -0.29727276               17.29583400               -1.28453566
               4.69485057               10.13673051               15.82590322                0.43808417                0.63511664                0.13132193               -0.86660697               -0.16515095               32.63052577               -0.25657816
               5.69666365               10.05611259               15.96266639                0.43131299               -0.18648905                0.16313889               -0.15603299                0.06912163               32.26405111                0.07364006
               6.69112079                9.97566634               16.10215928                0.45171199               -0.93454370                0.15160614                0.53629770                0.04923364               32.78485649                0.35019885
               7.67797277                9.89476784               16.25182073                0.49698333               -1.84449204                0.19347760                1.25941624               -0.36221236               34.18417520                0.70748778
               8.65423094                9.80752318               16.42323027                0.57784246               -1.78593876               -0.33622537                2.08539821               -0.72751769               21.23408224                1.52316674
               9.64225400                9.73142755               16.32028836                0.72038723               -0.81283342               -0.48723235                1.76486488               -0.23649582                4.39409699                0.94419277
              10.63797428                9.66339172               16.15728220                0.97585955               -0.28024696               -0.23393350                0.89330989                0.12186873                0.88092982                0.48463614
              11.63664906                9.59695189               15.98418448                0.99999143               -0.13252173                0.07134824               -0.04368402                0.10748816                0.37949551               -0.64924442
               0.92961901                0.44809621               17.38784221                1.00000000               -0.54679918               -0.60906452                2.11461599               -0.12248139               -0.92444122                0.97649673
               1.92415102                0.34434552               17.27862185                1.00000000               -0.45489540               -0.44758546                1.60350756               -0.08157193               -0.94054419               -0.03673327
               2.92052110                0.24032752               17.16908481                0.70862028               -0.18544002               -0.30658218                1.08931607                0.04822498               -0.63317131               -0.88221684
               3.92044222                0.13896819               17.06612765                0.52334753                0.21175780               -0.17171741                0.58655221                0.21507029                1.14456282               -0.09640002
               4.92475626                0.04578407               16.99278523                0.45479616                0.44561806               -0.05799958                0.11773361                0.19458894                4.03155720               -0.08813670
               5.92935458               -0.03778122               16.94909297                0.46194526                0.25588268                0.06914492               -0.34186022                0.08036333                5.35732737                0.00198829
               6.92987391               -0.12000028               16.90355042                0.53418974                0.00952080                0.21292873               -0.79540192                0.13987002                3.85474687                0.07597757
               7.92954499               -0.20913932               16.82957020                0.68634211                0.11003305                0.35780556               -1.27484761                0.14446340                1.29046690                0.12511418
               8.93207457               -0.30492677               16.73180936                0.95636524                0.41098396                0.50896446               -1.79254153                0.04007341               -0.35705141                0.42861570
               9.93776467               -0.40322722               16.62422950                1.00000000                0.66746772                0.66158406               -2.33829380               -0.06992671               -0.77512939                0.28112180
              10.94542393               -0.50142654               16.51784548                1.00000000                0.76592527                0.82134363               -2.86043173               -0.13043915               -0.70652766               -0.71956694
               1.03214488                1.44200556               17.34988875                1.00000000               -0.49252398               -0.57837023                1.89874528               -0.04361079               -0.05348964                1.25216586
               2.02721964                1.33986967               17.23995022                1.00000000               -0.42264351               -0.41179822                1.38113984               -0.00689515                0.01784080               -0.08627852
               3.02369201                1.23726169               17.13140195                0.26884938               -0.36775017               -0.26489256                0.87558497                0.14817231                1.25153010               -1.28477689
               4.01986464                1.13725102               17.04612426                0.00342203               -0.43075797               -0.14628709                0.45597697                0.57873822                3.57423467               -1.55199223
               5.01507685                1.04520408               16.98373330                0.00767914               -0.34071268                0.21689258                0.04073916                1.11546288                6.33232739                0.48680476
               6.01305039                0.96291023               16.95292389                0.01076563                0.09374029                0.11422056               -0.34445156                1.36567951                7.81148838                0.45010429
               7.01695166                0.88212901               16.92004346                0.01199970                0.52012437                0.01494202               -0.71862503                1.13013928                6.16786590                0.37744332
               8.02345288                0.79443873               16.85741451                0.23305273                0.62837981                0.34621159               -1.12487870                0.58453979                3.51793285                1.65692909
               9.02951926                0.70016287               16.77260567                0.63998954                0.59312064                0.47178065               -1.56952919                0.19366824                1.65250076                1.30489093
              10.03531529                0.60338862               16.67307591                1.00000000                0.63997958                0.61521667               -2.05063889                0.01982469                0.55112832                0.62928333
              11.04231885                0.50678690               16.56615520                1.00000000                0.70035604                0.78100134               -2.58404436               -0.05169579                0.18771319               -0.76798822
               1.13301859                2.43652880               17.31743361                1.00000000               -0.42616061               -0.51906578                1.69920408               -0.04345037                0.16630827                1.48319473
               2.12875698                2.33610956               17.20027595                0.78763128               -0.34576985               -0.34230987                1.15120172               -0.00787147                0.29217913               -0.35339763
               3.12610319                2.23502966               17.08560645                0.10408273               -0.23411930               -0.17497851                0.63066989                0.14676592                1.71904915               -2.17681387
               4.12407460                2.13604245               16.99695637                0.00010000               -0.23484427                0.10388631                0.22359465                1.02046888                6.90707735               -1.23540211
               5.12140631                2.05012192               16.98596614                0.00010000               -0.21656802                0.33856940                0.02895136                1.83633981               10.29124811                0.65595174
               6.11974324                1.96450319               16.96539895                0.00010000               -0.02290595                0.13690134               -0.24799243                1.97162574                9.67761843                1.04677817
               7.12094819                1.88029856               16.94229611                0.00010000                0.17293444               -0.07164766               -0.53504913                1.90129292                9.35014897                1.41811944
               8.12320193                1.79778491               16.91569940                0.08520712                0.30249322                0.11636570               -0.82302727                1.14815662                6.22931244                3.01237154
               9.12699805                1.70450884               16.83079413                0.34511480                0.41676061                0.38324380               -1.22947126                0.23762082                2.46025374                3.36381373
              10.13153714                1.60907711               16.72875309                0.84904521                0.52976967                0.52776619               -1.74025559                0.02254390                0.94264645                1.24707392
              11.13759345                1.51419349               16.61332435                1.00000000                0.60563077                0.70549232               -2.31528229               -0.04994459                0.27889314               -0.69006528
               1.23211437                3.43162425               17.28408312                1.00000000               -0.35530199               -0.45878065                1.49131795               -0.04495111                0.04236532                1.37031599
               2.22856135                3.33302347               17.15624908                0.73062127               -0.27099692               -0.27119672                0.90015496               -0.00761467                0.12462361               -0.58750165
               3.22669444                3.23376212               17.03001695                0.07683741               -0.16897979               -0.08316329                0.32281745                0.28262003                4.17647583               -2.61783163
               4.22518176                3.13932875               16.98318087                0.00010000               -0.16757609                0.27900152                0.21171082                0.96561755               10.40554693                0.18401348
               5.22334291                3.05197547               16.98191838                0.00010000               -0.14377463                0.15768212                0.01577965                1.42873172               12.71776068                0.48486879
               6.22230627                2.96564825               16.98184448                0.00010000               -0.08235587                0.08932362               -0.15267873                1.54509985               12.62871377                1.37758141
               7.22169580                2.88069605               16.97934835                0.00010000               -0.00502685                0.01700589               -0.33769361                1.51128399               12.18546403                2.40163555
               8.22220573                2.79676605               16.97084633                0.08927780                0.06418381               -0.05466223               -0.55469308                1.08880291                9.39330236                3.56793763
               9.22297947                2.70782775               16.91276334                0.33502123                0.19378932                0.25132031               -0.75625704                0.34055583                3.67711168                3.96570994
              10.22608152                2.61394394               16.78988028                0.79217221                0.40538621                0.43568671               -1.37912428                0.00768689                0.24999358                1.37933025
              11.23108720                2.52089674               16.66295349                1.00000000                0.50056820                0.63307413               -2.03106601               -0.05055617                0.05245545               -0.58015774
               1.32932113                4.42735319               17.24933609                1.00000000               -0.28543134               -0.39283151                1.27572807               -0.04477183                0.02119313                1.28106637
               2.32646681                4.33068562               17.11185949                0.70071835               -0.19354062               -0.19593431                0.64574280               -0.00710394                0.07231684               -0.61337413
               3.32545032                4.23336640               16.97535887                0.06442005               -0.06466036                0.00246944                0.02359296                0.32360220                6.35118476               -2.52911262
               4.32517361                4.14162248               16.96342554                0.00010000               -0.08944405                0.20144400                0.07533209                0.88671721               14.04395806               -0.31313760
               5.32366143                4.05327557               16.98152339                0.00010000               -0.16244811                0.12460883                0.01133580                1.15241343               15.60997435                0.62730337
               6.32192465                3.96628966               17.00168860                0.00010000               -0.18026804                0.04978448               -0.05196887                1.20967351               15.67259967                1.61954088
               7.32005607                3.88063868               17.02174761                0.00010000               -0.20391764               -0.02108733               -0.12697077                1.20741774               15.59282149                2.82542823
               8.31784629                3.79669167               17.04083635                0.09888639               -0.17123986               -0.02950876               -0.22817578                0.86611045               11.72264734                4.41246491
               9.31663128                3.70953524               16.98370225                0.34950285                0.03877927                0.10296282               -0.34351176                0.30213576                4.00034499                3.07289766
              10.31862188                3.61779084               16.84828203                0.80954067                0.30227187                0.32934459               -1.03542197                0.00576236                0.05030607                1.09949614
              11.32267671                3.52685497               16.71191752                1.00000000                0.40548362                0.55396229               -1.74027350               -0.04685409                0.00695027               -0.69512116
               1.42455408                5.42376762               17.21417500                1.00000000               -0.21480103               -0.32374277                1.05752076               -0.04473208                0.02036750                1.24756463
               2.42240607                5.32910478               17.06727674                0.67326600               -0.11622299               -0.11977620                0.38883905               -0.00553122                0.07853752               -0.63138561
               3.42222962                5.23381151               16.92149323                0.05344141                0.03004332                0.08677089               -0.27267002                0.28883212                8.38017151               -2.48664526
               4.42300694                5.14335763               16.94059775                0.00010000               -0.02528072                0.17855673               -0.08405129                0.71086362               17.63725778               -0.53777308
               5.42172400                5.05446764               16.98099028                0.00010000               -0.19351550                0.12264938               -0.01119534                0.85449576               18.75937389                0.56295656
               6.41913663                4.96664394               17.02362607                0.00010000               -0.31409287                0.03172041                0.05435234                0.88616547               18.91074718                1.71566818
               7.41544215                4.88027431               17.06799698                0.00010000               -0.42526268               -0.05722863                0.10500540                0.88305122               19.03437236                3.03224529
               8.41063137                4.79617587               17.11379291                0.10850198               -0.37595687               -0.10712847                0.12827820                0.62221093               13.53373368                4.55561463
               9.40792301                4.70988700               17.04847703                0.36464841               -0.08771676               -0.02688154                0.04329789                0.22091341                4.01209340                2.61640456
              10.40887704                4.62053083               16.90391394                0.83086571                0.20494253                0.22034350               -0.70082731                0.00473012                0.03149453                0.86587787
              11.41202186                4.53197599               16.75881891                1.00000000                0.31448240                0.46821749               -1.45446129               -0.04513967                0.00848346               -0.86172969
               1.51775216                6.42087834               17.17873912                1.00000000               -0.14398631               -0.25440077                0.83811320               -0.04417262                0.02291924                1.22010462
               2.51631230                6.32829010               17.02247468                0.64695884               -0.03890222               -0.04282433                0.13086767               -0.00329058                0.09507760               -0.65328807
               3.51697411                6.23510182               16.86760335                0.04296775                0.12112277                0.17230129               -0.56918428                0.21406178               10.37102146               -2.49291798
               4.51873475                6.14519362               16.91683010                0.00010000                0.02454593                0.20719801               -0.25819584                0.49932851               21.19617004               -0.66980197
               5.51746503                6.05572855               16.97978825                0.00010000               -0.24467311                0.14265517               -0.04031509                0.55299777               21.97220973                0.46132129
               6.51384129                5.96692407               17.04594999                0.00010000               -0.46399323                0.03164989                0.16405083                0.54439868               22.22619785                1.66296989
               7.50818517                5.87949411               17.11526339                0.00010000               -0.65817364               -0.10072790                0.35403962                0.53125796               22.48666117                3.01303424
               8.50067782                5.79454910               17.18761197                0.11803785               -0.57452917               -0.22712327                0.52080231                0.34250971               15.14989279                4.55764045
               9.49669459                5.70899761               17.11078722                0.37967447               -0.20251618               -0.14748830                0.41884382                0.12569014                3.86791914                2.40755643
              10.49662749                5.62219771               16.95770212                0.85231304                0.10945092                0.11466710               -0.37316449                0.00273453                0.03365352                0.71597144
              11.49888360                5.53621932               16.80407426                1.00000000                0.22561111                0.37987446               -1.17313237               -0.04435640                0.00997686               -0.97585700
               1.60884710                7.41867960               17.14301139                1.00000000               -0.07303280               -0.18640574                0.61862831               -0.04329810                0.02460816                1.18839841
               2.60811678                7.32824830               16.97739577                0.62162444                0.03801153                0.03485338               -0.12688468               -0.00032665                0.11401914               -0.67854610
               3.60960734                7.23725754               16.81351765                0.03277064                0.21249956                0.26035253               -0.86485939                0.11522630               12.29614732               -2.50486428
               4.61236677                7.14750159               16.89151687                0.00010000                0.07230867                0.25909515               -0.43563173                0.26889871               24.70710928               -0.81034360
               5.61105351                7.05732075               16.97741644                0.00010000               -0.30538600                0.18151199               -0.07177742                0.26354538               25.20927458                0.32914433
               6.60625905                6.96727694               17.06720257                0.00010000               -0.63056144                0.05505269                0.27480991                0.20330420               25.55791076                1.47269880
               7.59844228                6.87825975               17.16174637                0.00010000               -0.91404952               -0.13009734                0.61342232                0.13302457               25.98346304                2.79907630
               8.58797806                6.79163341               17.26144286                0.12753009               -0.78270424               -0.34826799                0.94330848                0.02420485               16.72128881                4.44894031
               9.58278819                6.70693724               17.17176965                0.39457138               -0.31340185               -0.26166197                0.78602690                0.02804343                3.65007884                2.28608186
              10.58171002                6.62282417               17.01036378                0.87392542                0.01516615                0.01202863               -0.05109230               -0.00011271                0.03725921                0.63466977
              11.58309152                6.53957348               16.84836089                1.00000000                0.13814975                0.29157152               -0.89595859               -0.04419951                0.01082039               -1.02560094
               1.69774881                8.41715022               17.10692298                1.00000000               -0.00209848               -0.12143114                0.39980366               -0.04212849                0.03115808                1.15619390
               2.69772783                8.32898716               16.93202782                0.59728135                0.11382691                0.11407500               -0.38331969                0.00250418                0.14159568               -0.71565630
               3.70002535                8.24030887               16.75929053                0.02273463                0.31608461                0.35054559               -1.15758959               -0.00780474               14.16180261               -2.44235431
               4.70404952                8.15037552               16.86476853                0.00010000                0.14676182                0.29501735               -0.60461780                0.03379677               28.15193994               -0.82470738
               5.70296059                8.05935879               16.97342055                0.00010000               -0.35405752                0.20691729               -0.10298050                0.04222860               28.39987139                0.19927340
               6.69696837                7.96802512               17.08580549                0.00010000               -0.82356965                0.12301444                0.37936184               -0.06242603               28.82904326                1.12718269
               7.68648919                7.87689216               17.20513998                0.00010000               -1.22419712               -0.07876487                0.86738983               -0.27510583               29.53697162                2.26867248
               8.67248443                7.78758374               17.33372732                0.13710338               -1.02122532               -0.42942096                1.37567580               -0.35738687               18.39449899                4.03269195
               9.66606469                7.70376437               17.23194625                0.40953002               -0.42477155               -0.36862497                1.14559088               -0.07848831                3.47153658                2.13423188
              10.66398900                7.62243829               17.06253448                0.89613898               -0.07818425               -0.08830229                0.26669378               -0.00487939                0.05220039                0.62603644
              11.66450100                7.54205075               16.89233483                1.00000000                0.05120067                0.20505591               -0.62200108               -0.04448975                0.01621405               -1.02540203
               1.78433065                9.41625098               17.07052757                1.00000000                0.06775664               -0.06045361                0.18328969               -0.04089994                0.01513365                0.96617287
               2.78500821                9.33052980               16.88614569                0.57393006                0.18661187                0.19486374               -0.63888801                0.00365338                0.24757964               -0.65993212
               3.78806289                9.24426845               16.70636217                0.01257918                0.44922810                0.43517792               -1.43930362               -0.17942290               16.08412517               -1.85761624
               4.79399278                9.15340193               16.83867680                0.00010000                0.30927962                0.22815104               -0.75365498               -0.11571049               31.47710125               -0.52407890
               5.79424848                9.06145909               16.96791641                0.00010000               -0.32578067                0.20768938               -0.13208551               -0.03979854               31.37458363                0.09846146
               6.78747716                8.96973723               17.09983306                0.00010000               -1.04334641                0.19264271                0.46637550               -0.12979091               31.85945130                0.62315782
               7.77338155                8.87668445               17.24110165                0.00010000               -1.67595294                0.13337320                1.08572665               -0.45404694               33.03327934                1.28982403
               8.75395810                8.78304499               17.39960991                0.14696625               -1.35088356               -0.36570224                1.77753655               -0.62078169               20.32926464                2.63741086
               9.74636388                8.69956474               17.29011214                0.42483006               -0.53160239               -0.45519952                1.49001980               -0.20417335                3.61819814                1.51237260
              10.74332606                8.62105813               17.11502183                0.91958549               -0.16935431               -0.18565598                0.58349131               -0.01208953                0.16156866                0.57700407
              11.74297679                8.54367460               16.93639055                0.99989960               -0.03492635                0.12043330               -0.35052648               -0.04615881               -0.01202453               -0.85229840
               1.86837318               10.41594115               17.03060518                1.00000000                0.14102421               -0.03098306               -0.03984281                0.09858245                0.50778936                0.79198460
               2.86978342               10.33288444               16.84183274                0.78019341                0.25957863                0.23546444               -0.88303673                0.13108480                1.04476110               -0.57859835
               3.87356475               10.24901243               16.66375211                0.50332935                0.73806223                0.47439755               -1.67152570               -0.34710804               18.15956810               -1.33862441
               4.88454467               10.15493854               16.81725225                0.43868952                0.61322824                0.15366078               -0.86710012               -0.21980294               34.28861557               -0.27391935
               5.88582932               10.06351258               16.96111372                0.43154033               -0.26987397                0.20534911               -0.15876913                0.00505595               33.89576024                0.07212985
               6.87914719                9.97187798               17.10749469                0.45155583               -1.08644116                0.21407476                0.52600527               -0.03064531               34.44240153                0.36476118
               7.86410050                9.87955962               17.26432846                0.49651607               -2.09793408                0.28751705                1.23701350               -0.50851966               35.92200733                0.74539073
               8.83718851                9.78026969               17.44391783                0.57682778               -2.00662081               -0.27752968                2.04691592               -0.92192155               22.47372367                1.62045526
               9.82396808                9.69466038               17.33800083                0.71757068               -0.87755817               -0.49043529                1.77619256               -0.31680610                4.77477991                0.99573275
              10.81963734                9.61872517               17.16620415                0.96774652               -0.28115966               -0.23329616                0.89037272                0.12108047                0.93774891                0.51252169
              11.81834489                9.54445942               16.98364562                0.99998345               -0.12924576                0.07848194               -0.06390968                0.11023448                0.40298506               -0.68531510
               1.03197314                0.49708796               18.40896481                1.00000000               -0.54729692               -0.60887587                2.11084985               -0.11966345               -0.96049485                1.01526975
               2.02650017                0.38373665               18.29464949                1.00000000               -0.45836853               -0.44759202                1.60209975               -0.07836767               -0.97935927               -0.04523913
               3.02280577                0.27008908               18.17997521                0.70646563               -0.20605186               -0.30320750                1.08880514                0.03423697               -0.66862930               -0.91760476
               4.02237913                0.15867598               18.07200813                0.52323617                0.15536365               -0.16965705                0.58987240                0.17613521                1.12736173               -0.09530423
               5.02591304                0.05433774               17.99396697                0.45508389                0.37463418               -0.04809982                0.11766080                0.15952958                4.02934151               -0.08942581
               6.02987182               -0.04156115               17.94563049                0.46197960                0.23113457                0.08390378               -0.35140016                0.06121803                5.36106225                0.00518816
               7.03053573               -0.13608641               17.89549750                0.53345370                0.04150157                0.22572225               -0.81551546                0.11214212                3.85444208                0.08215717
               8.03070185               -0.23644420               17.81669753                0.68409640                0.15178799                0.36735493               -1.29966743                0.11675007                1.26586178                0.13286353
               9.03357149               -0.34246940               17.71375673                0.95105818                0.43473103                0.51551350               -1.81780267                0.02675770               -0.41085628                0.44491912
              10.03939647               -0.45059505               17.60071660                1.00000000                0.67865712                0.66812021               -2.36414627               -0.06918165               -0.82970882                0.30332940
              11.04714464               -0.55856090               17.48912211                1.00000000                0.77481668                0.83000420               -2.88419387               -0.12953343               -0.74849389               -0.76976850
               1.14412782                1.49099920               18.36885654                1.00000000               -0.49118849               -0.57824036                1.89475489               -0.04188314               -0.05607647                1.29811942
               2.13921594                1.37926073               18.25374511                1.00000000               -0.42246739               -0.41213040                1.38267543               -0.00422883                0.02259309               -0.10099584
               3.13567847                1.26705700               18.14018884                0.26550834               -0.35998906               -0.26217329                0.88749372                0.13068236                1.30339930               -1.34404409
               4.13201616                1.15697941               18.05071869                0.00361893               -0.40257847               -0.14316702                0.46297762                0.50669778                3.67061774               -1.60235247
               5.12762690                1.05385674               17.98415533                0.00795952               -0.31600407                0.17846442                0.04382937                0.96525632                6.45209527                0.51567081
               6.12569607                0.95927789               17.94943045                0.01115122                0.07358871                0.10275048               -0.35441614                1.18416966                7.96117187                0.50145629
               7.12909868                0.86617081               17.91274192                0.01117252                0.46823842                0.02723615               -0.74164849                0.98269489                6.31491400                0.43791338
               8.13506084                0.76722935               17.84602486                0.23014678                0.59079082                0.34560255               -1.15287363                0.50241983                3.63285901                1.74080155
               9.14091450                0.66268574               17.75677090                0.63209613                0.58447802                0.47490450               -1.59731116                0.16744541                1.73074609                1.38120850
              10.14675040                0.55608616               17.65245099                1.00000000                0.64503288                0.62028192               -2.07429233                0.01736409                0.58459376                0.66263490
              11.15381515                0.44973915               17.54019947                1.00000000                0.70647497                0.79137450               -2.60716938               -0.05175975                0.19410145               -0.82187443
               1.25461243                2.48552315               18.33440696                1.00000000               -0.42546367               -0.51841372                1.69518258               -0.04274126                0.17030551                1.53062063
               2.25035780                2.37549404               18.21173905                0.77511807               -0.34558481               -0.34218631                1.14639644               -0.00477852                0.30990782               -0.38314775
               3.24770074                2.26484561               18.09184399                0.10199836               -0.23222218               -0.17429304                0.62582201                0.12957700                1.81230764               -2.28577153
               4.24571335                2.15581264               17.99924357                0.00010000               -0.23905217                0.07764302                0.23373195                0.86570085                7.15995889               -1.22724420
               5.24291969                2.05790703               17.98626630                0.00010000               -0.22361046                0.27369384                0.03045304                1.56417600               10.61556301                0.70615004
               6.24124114                1.96049386               17.96288364                0.00010000               -0.03407626                0.09769665               -0.25600562                1.69179835                9.96816302                1.14069620
               7.24223817                1.86445831               17.93686064                0.00010000                0.14970881               -0.07888301               -0.55290619                1.65448417                9.64532001                1.53803017
               8.24423532                1.77046785               17.90732578                0.08366457                0.29127151                0.09524076               -0.85182490                1.00810076                6.47924896                3.15481521
               9.24806360                1.66702869               17.81838280                0.34030989                0.42275128                0.36345758               -1.25285482                0.19608372                2.60231199                3.56734391
              10.25269034                1.56181059               17.71124304                0.83403643                0.53699327                0.52698755               -1.76183723                0.01227553                0.99932209                1.31748105
              11.25880346                1.45726659               17.59006104                1.00000000                0.61131187                0.72213321               -2.33747035               -0.05462081                0.30293879               -0.73976670
               1.36333123                3.48063093               18.29896450                1.00000000               -0.35333200               -0.45762467                1.48573709               -0.04403146                0.04379412                1.40820731
               2.35979791                3.37241700               18.16521712                0.71915820               -0.26899074               -0.26978711                0.89360153               -0.00451881                0.13309547               -0.62852756
               3.35795141                3.26357114               18.03322080                0.07528238               -0.17645762               -0.08210845                0.31712343                0.23712405                4.42866344               -2.74909803
               4.35626876                3.15853227               17.98535894                0.00010000               -0.18611043                0.22708337                0.22397452                0.78819679               10.85021988                0.22685216
               5.35422921                3.05933062               17.98208727                0.00010000               -0.16439991                0.11828883                0.01675555                1.18309419               13.13958140                0.53268592
               6.35298076                2.96123182               17.98028632                0.00010000               -0.10074194                0.05136694               -0.16053428                1.29412608               13.06882585                1.46696475
               7.35221437                2.86459315               17.97589314                0.00010000               -0.01641413               -0.01539006               -0.35502900                1.27352449               12.61371815                2.52866572
               8.35265248                2.76913417               17.96516907                0.08764943                0.06395314               -0.09484369               -0.58243414                0.93486710                9.83061051                3.71932905
               9.35349343                2.66995489               17.90513828                0.33036743                0.20527685                0.21347856               -0.76907223                0.29303320                3.92117075                4.19822900
              10.35675801                2.56662591               17.77600543                0.77804096                0.41586522                0.42991462               -1.39593054                0.00418606                0.26677549                1.46414469
              11.36181073                2.46418181               17.64253721                1.00000000                0.50527211                0.65476680               -2.05212315               -0.05253967                0.05476145               -0.61671563
               1.47015966                4.47637066               18.26205947                1.00000000               -0.28324547               -0.39183855                1.26935753               -0.04397029                0.02158494                1.31399413
               2.46732721                4.37009830               18.11827962                0.68954924               -0.19158559               -0.19364492                0.63840096               -0.00466751                0.07668427               -0.65771806
               3.46632795                4.26320344               17.97556093                0.06295336               -0.08046972                0.00603199                0.01630055                0.25084573                6.69963402               -2.65493079
               4.46571781                4.16035431               17.96420791                0.00010000               -0.12229611                0.16520920                0.07978057                0.69110295               14.67767485               -0.35031098
               5.46388203                4.06027280               17.98163913                0.00010000               -0.19283394                0.09367361                0.01002117                0.91020503               16.19454411                0.66505765
               6.46186113                3.96152120               18.00113337                0.00010000               -0.20378584                0.01702637               -0.06130365                0.95904602               16.26527840                1.70890829
               7.45980631                3.86415051               18.02039681                0.00010000               -0.21451055               -0.06003742               -0.14568244                0.95837773               16.18106147                2.96413778
               8.45757092                3.76857098               18.03842285                0.09702542               -0.16868946               -0.07980879               -0.25724818                0.69734078               12.31394101                4.60051916
               9.45643252                3.67129826               17.98022741                0.34433925                0.04881117                0.07094461               -0.35169151                0.25461490                4.30691570                3.25367975
              10.45854714                3.57040889               17.83785830                0.79464463                0.31041717                0.32410485               -1.04923921                0.00488398                0.05783113                1.16772868
              11.46264086                3.47036193               17.69441361                1.00000000                0.40937188                0.57459987               -1.76014191               -0.04660522                0.00798679               -0.72946146
               1.57499655                5.47279416               18.22471340                1.00000000               -0.21247765               -0.32286022                1.05065247               -0.04416005                0.02028255                1.27865936
               2.57287178                5.36854410               18.07112677                0.66245116               -0.11421170               -0.11694947                0.38097993               -0.00342934                0.08209915               -0.67711359
               3.57271232                5.26369178               17.91873192                0.05208734                0.00748384                0.09142203               -0.28054803                0.20019760                8.81453691               -2.60974026
               4.57302145                5.16183645               17.93975839                0.00010000               -0.07229518                0.16170317               -0.08550298                0.49966488               18.44818877               -0.59490956
               5.57126642                5.06120409               17.98086629                0.00010000               -0.23687400                0.10388813               -0.01597825                0.60779403               19.52028483                0.58441453
               6.56828397                4.96157235               18.02412459                0.00010000               -0.34671387                0.00610499                0.04250953                0.62287537               19.67550826                1.80453266
               7.56433214                4.86339240               18.06895439                0.00010000               -0.44162184               -0.09382689                0.08329922                0.61206625               19.79458615                3.18404873
               8.55945154                4.76753799               18.11492340                0.10646069               -0.37921586               -0.15546599                0.09441159                0.43937474               14.25411961                4.76875187
               9.55674782                4.67137378               18.04888606                0.35909305               -0.08297553               -0.05122936                0.03832628                0.17312512                4.35890398                2.77318842
              10.55779203                4.57310800               17.89684561                0.81525196                0.21123592                0.21713416               -0.71262432                0.00372214                0.03688452                0.92363432
              11.56097254                4.47567381               17.74417307                1.00000000                0.31805131                0.48602028               -1.47409687               -0.04486558                0.00886087               -0.90036472
               1.67777657                6.46991346               18.18708173                1.00000000               -0.14155770               -0.25352367                0.83092008               -0.04378696                0.02239657                1.25070271
               2.67636099                6.36775931               18.02374426                0.63663687               -0.03685108               -0.03975977                0.12270687               -0.00148110                0.09829069               -0.69918221
               3.67703955                6.26503188               17.86187733                0.04177935                0.09189029                0.17738681               -0.57725239                0.11742313               10.88491049               -2.61503605
               4.67819880                6.16358837               17.91423465                0.00010000               -0.03687682                0.20706602               -0.26303043                0.27925342               22.18126623               -0.73584577
               5.67630201                6.06235057               17.97936185                0.00010000               -0.30342357                0.13990891               -0.04785781                0.29905823               22.91802016                0.47541462
               6.67213033                5.96164330               18.04753499                0.00010000               -0.51100117                0.01785534                0.14951493                0.26504367               23.17467267                1.74935419
               7.66608199                5.86227397               18.11869615                0.00010000               -0.68766462               -0.12920082                0.32870290                0.23677167               23.43444252                3.17282039
               8.65837704                5.76546166               18.19264000                0.11588696               -0.58784907               -0.26688949                0.48082591                0.14620291               15.98391121                4.79747531
               9.65432501                5.67027368               18.11496734                0.37387934               -0.20277373               -0.16598778                0.41688648                0.07959694                4.23137570                2.55106201
              10.65432156                5.57475157               17.95391874                0.83624947                0.11434682                0.11295243               -0.38330355                0.00142921                0.03800602                0.76573947
              11.65661194                5.48008234               17.79224087                1.00000000                0.22903835                0.39516932               -1.19283339               -0.04418275                0.00996708               -1.01878271
               1.77842911                7.46772368               18.14915802                1.00000000               -0.07053865               -0.18539484                0.61121355               -0.04310035                0.02379297                1.21934370
               2.77772373                7.36774891               17.97608724                0.61192638                0.04013026                0.03801702               -0.13530226                0.00116633                0.11721369               -0.72344550
               3.77923172                7.26723952               17.80483558                0.03179003                0.17820552                0.26544010               -0.87303571                0.01874157               12.88812656               -2.62453821
               4.78128784                7.16597777               17.88714249                0.00010000               -0.00195332                0.27526592               -0.44184444                0.05370013               25.86499385               -0.87385021
               5.77919265                7.06400227               17.97666886                0.00010000               -0.38131981                0.19697773               -0.08113023                0.01005990               26.34222472                0.33944221
               6.77366144                6.96192945               18.06988709                0.00010000               -0.69717225                0.05830648                0.25811321               -0.08516775               26.69678583                1.55191722
               7.76524921                6.86080839               18.16776067                0.00010000               -0.96427762               -0.14507891                0.58502656               -0.17921282               27.13339999                2.95623204
               8.75437589                6.76220020               18.27067368                0.12533748               -0.80996788               -0.37574774                0.89827347               -0.18376920               17.65853898                4.70455899
               9.74904985                6.66805403               18.17963905                0.38867350               -0.31819690               -0.27537162                0.78730881               -0.01691559                4.01078203                2.41963031
              10.74801195                6.57536705               18.00981043                0.85764011                0.01887495                0.01134112               -0.05952045               -0.00176280                0.04138671                0.67839475
              11.74942735                6.48357719               17.83929956                1.00000000                0.14153979                0.30434558               -0.91564898               -0.04411798                0.01066224               -1.07244675
               1.87686412                8.46620556               18.11088049                1.00000000                0.00043664               -0.12008039                0.39220135               -0.04211640                0.03042519                1.18861242
               2.87686849                8.36851965               17.92815389                0.58828710                0.11606970                0.11724802               -0.39206426                0.00365436                0.14564279               -0.75924700
               3.87918551                8.27034069               17.74768093                0.02198953                0.28207826                0.35520515               -1.16602510               -0.09599274               14.83533419               -2.55450551
               4.88251005                8.16909369               17.85870248                0.00010000                0.06830084                0.32371101               -0.61157476               -0.15652232               29.48190026               -0.87480581
               5.88055153                8.06629012               17.97235736                0.00010000               -0.44445976                0.23774946               -0.11346437               -0.18505766               29.71401326                0.20721503
               6.87362086                7.96280943               18.08953058                0.00010000               -0.91622728                0.14973914                0.36120662               -0.33096558               30.15757766                1.18950361
               7.86222699                7.85937239               18.21368729                0.00010000               -1.30824227               -0.06836603                0.83715416               -0.58499392               30.89865887                2.40071533
               8.84745601                7.75794670               18.34727231                0.13490856               -1.07035706               -0.43785297                1.32811159               -0.57856270               19.43340528                4.27607578
               9.84081984                7.66476624               18.24343038                0.40361205               -0.43464370               -0.37806427                1.15037273               -0.12564455                3.82121093                2.25554826
              10.83876314                7.57497839               18.06516925                0.87975970               -0.07552709               -0.08827921                0.26007972               -0.00691171                0.05777359                0.66650958
              11.83930930                7.48616925               17.88601452                1.00000000                0.05461652                0.21522269               -0.64155489               -0.04446169                0.01651820               -1.07550137
               1.97295861                9.46532208               18.07231967                1.00000000                0.07030771               -0.05865820                0.17560202               -0.04097528                0.01252717                0.99639567
               2.97366169                9.37009387               17.87971417                0.56562153                0.18896062                0.19800037               -0.64811511                0.00443741                0.25635095               -0.69701787
               3.97673782                9.27434362               17.69193349                0.01205323                0.42731330                0.43916655               -1.44829251               -0.25471106               16.84836565               -1.93869853
               4.98220796                9.17245199               17.83111812                0.00010000                0.25189685                0.25037686               -0.76128428               -0.24175730               32.97646695               -0.54905111
               5.98177576                9.06875726               17.96656008                0.00010000               -0.41240483                0.24352198               -0.14329030               -0.18714394               32.85661601                0.10275437
               6.97395986                8.96492424               18.10442504                0.00010000               -1.16818555                0.24144395                0.44723459               -0.30914880               33.36374227                0.65713706
               7.95841205                8.85944107               18.25182864                0.00010000               -1.82745370                0.19248225                1.05439629               -0.68591484               34.60479007                1.36657504
               8.93741078                8.75344314               18.41717507                0.14476376               -1.44533889               -0.33151244                1.72995561               -0.81856411               21.48049310                2.79922560
               9.92950527                8.66049274               18.30505847                0.41887764               -0.54700351               -0.46007155                1.49806702               -0.25991215                3.97099250                1.59635391
              10.92647071                8.57360147               18.12083422                0.90305260               -0.16744353               -0.18504419                0.57857854               -0.01448832                0.17497383                0.61162204
              11.92615640                8.48788165               17.93278568                0.99991826               -0.03143122                0.12831011               -0.37008923               -0.04615616               -0.01272790               -0.89650730
               2.06650103               10.46503240               18.03016740                1.00000000                0.14346556               -0.02896803               -0.04732390                0.09896801                0.52065527                0.81873791
               3.06793569               10.37247965               17.83295874                0.77624095                0.26160664                0.23857879               -0.89255460                0.13198105                1.08567711               -0.60947415
               4.07173317               10.27912402               17.64700034                0.50313222                0.76627896                0.47803954               -1.68074298               -0.41938729               19.02614195               -1.39386626
               5.08326127               10.17410122               17.80856121                0.43925881                0.63016212                0.16492315               -0.87447333               -0.29284142               35.94877107               -0.29236503
               6.08433641               10.07116056               17.95949101                0.43176126               -0.32535977                0.24033036               -0.17008444               -0.06708125               35.52602452                0.07004069
               7.07675407                9.96763830               18.11267939                0.45139147               -1.21733133                0.27140688                0.50596040               -0.11750468               36.09687215                0.37932903
               8.05998978                9.86322204               18.27656100                0.49600999               -2.33605103                0.37809740                1.20407636               -0.65831925               37.65701897                0.78423061
               9.03003305                9.75131646               18.46416859                0.57571636               -2.22632548               -0.21266855                1.99768545               -1.12063446               23.74970328                1.72165742
              10.01546327                9.65556481               18.35581222                0.71457141               -0.94742948               -0.49279272                1.78480724               -0.40614742                5.19283436                1.05067178
              11.01108446                9.57127751               18.17508965                0.95939241               -0.28187264               -0.23239617                0.88622230                0.11990666                0.99674431                0.54214737
              12.00982582                9.48873545               17.98290629                0.99997585               -0.12586428                0.08538017               -0.08363825                0.11273606                0.42709425               -0.72226242
               1.13903976                0.54861814               19.43005921                1.00000000               -0.54863259               -0.60923356                2.10887449               -0.11621912               -0.99923828                1.05178321
               2.13355344                0.42524949               19.31066384                1.00000000               -0.46249468               -0.44893040                1.60248813               -0.07492272               -1.02115587               -0.05044473
               3.12978987                0.30154815               19.19086091                0.70416554               -0.22778732               -0.30361254                1.09091019                0.01922966               -0.70536003               -0.94306254
               4.12899769                0.17964099               19.07792510                0.52303978                0.09654294               -0.16724547                0.59360308                0.13481556                1.10863789               -0.09789070
               5.13172073                0.06361883               18.99513845                0.45532678                0.30237988               -0.04006682                0.11653620                0.12270886                4.02057262               -0.09081195
               6.13504529               -0.04527738               18.94206496                0.46197047                0.20874937                0.09635786               -0.36213312                0.04095366                5.35563521                0.00832594
               7.13589572               -0.15284598               18.88724011                0.53265094                0.07788533                0.23701138               -0.83606772                0.08301338                3.84638302                0.08869268
               8.13660300               -0.26513673               18.80357685                0.68171299                0.19713291                0.37632388               -1.32431045                0.08727149                1.23731527                0.14098729
               9.13983837               -0.38205672               18.69545331                0.94548197                0.46010644                0.52176918               -1.84257947                0.01233285               -0.46725453                0.46063120
              10.14580512               -0.50062942               18.57694658                1.00000000                0.69023275                0.67442946               -2.38960154               -0.06864883               -0.88586303                0.32764313
              11.15364303               -0.61897663               18.46016160                1.00000000                0.78379051                0.83871130               -2.90777798               -0.12863178               -0.79080181               -0.82151962
               1.26124622                1.54252581               19.38778385                1.00000000               -0.49070156               -0.57924422                1.89226289               -0.04052397               -0.05141706                1.34258807
               2.25633921                1.42076019               19.26760373                0.99772808               -0.42299024               -0.41374514                1.38773593               -0.00245588                0.03541325               -0.11857833
               3.25278642                1.29851203               19.14915183                0.26195173               -0.35143499               -0.26329389                0.90117603                0.11316512                1.35529002               -1.40854750
               4.24931051                1.17796854               19.05538382                0.00380066               -0.36897081               -0.13918336                0.47035074                0.42799579                3.75968443               -1.65653823
               5.24540700                1.06321816               18.98460989                0.00820806               -0.28116379                0.13470806                0.04629060                0.80372141                6.56130282                0.54121521
               6.24368723                0.95568620               18.94583557                0.01149208                0.06242617                0.08693110               -0.36491808                0.98864166                8.09531921                0.55326247
               7.24665553                0.84952413               18.90521049                0.01024803                0.41969241                0.03769640               -0.76459750                0.82285221                6.45153149                0.50207857
               8.25208108                0.73862651               18.83435704                0.22704011                0.55262630                0.34368704               -1.18042829                0.41492949                3.74485545                1.82592753
               9.25770805                0.62316097               18.74065945                0.62381473                0.57487563                0.47725289               -1.62474998                0.13885081                1.81088108                1.46029668
              10.26357859                0.50611487               18.63159007                1.00000000                0.64979351                0.62508604               -2.09775123                0.01448659                0.62002748                0.69795350
              11.27070392                0.38941048               18.51401182                1.00000000                0.71253289                0.80185254               -2.63037040               -0.05177903                0.20059397               -0.87717850
               1.38176052                2.53703326               19.35133726                1.00000000               -0.42424186               -0.51949612                1.69177897               -0.04392697                0.17756881                1.57743531
               2.37751810                2.41697459               19.22320387                0.76246065               -0.34578479               -0.34239250                1.14620135               -0.00616161                0.33138307               -0.42104201
               3.37484483                2.29628227               19.09812289                0.09984967               -0.23333160               -0.17243961                0.63007028                0.11111017                1.91203383               -2.41136867
               4.37285147                2.17685732               19.00163101                0.00010000               -0.23836668                0.04664548                0.24462501                0.70199526                7.41382800               -1.22195594
               5.37007749                2.06631299               18.98657520                0.00010000               -0.21696593                0.20190965                0.03028541                1.27020395               10.93108391                0.75325123
               6.36851215                1.95646124               18.96027884                0.00010000               -0.03325209                0.05258109               -0.26598849                1.38923145               10.24917711                1.23576573
               7.36941245                1.84790795               18.93123798                0.00010000                0.13762968               -0.08954639               -0.57249310                1.38538275                9.93127651                1.66255795
               8.37126475                1.74173701               18.89866291                0.08201133                0.28572903                0.07145263               -0.88074282                0.85360569                6.72842307                3.29983286
               9.37512703                1.62748834               18.80573704                0.33530637                0.42903009                0.33933738               -1.27624881                0.14968807                2.74980521                3.78000225
              10.37984535                1.51187230               18.69351635                0.81884389                0.54446001                0.52483542               -1.78353310                0.00057926                1.05839256                1.39120162
              11.38601623                1.39706042               18.56657494                1.00000000                0.61708836                0.73996905               -2.35982075               -0.06044090                0.32818086               -0.79061197
               1.50048502                3.53213589               19.31379786                1.00000000               -0.35180590               -0.45745412                1.48116315               -0.04475515                0.04450462                1.44511211
               2.49696696                3.41391234               19.17412111                0.70760210               -0.26795660               -0.26764907                0.88788745               -0.00458571                0.14169508               -0.67405526
               3.49512589                3.29506323               19.03635941                0.07367010               -0.18236335               -0.07628004                0.31090894                0.18294954                4.69087282               -2.88784647
               4.49331970                3.17890145               18.98766036                0.00010000               -0.19593642                0.16797418                0.23513152                0.59952756               11.29903111                0.26348527
               5.49120716                3.06725635               18.98225349                0.00010000               -0.17213943                0.07423516                0.01507744                0.91928719               13.55201762                0.57847442
               6.48987691                2.95673782               18.97863379                0.00010000               -0.10598743                0.00841537               -0.17167712                1.02186142               13.50152383                1.55668639
               7.48908741                2.84773320               18.97224777                0.00010000               -0.01520518               -0.05238804               -0.37569974                1.01465578               13.03451756                2.65734629
               8.48957280                2.74005556               18.95919765                0.08594698                0.07395585               -0.13946474               -0.61332558                0.76221394               10.27386818                3.87312954
               9.49056653                2.62994772               18.89738189                0.32559236                0.22226474                0.16863623               -0.78255390                0.23815614                4.17528617                4.43997701
              10.49401810                2.51661158               18.76196167                0.76384452                0.42761670                0.42164695               -1.41292209                0.00045492                0.28351190                1.55276396
              11.49911886                2.40420986               18.62191102                1.00000000                0.51007652                0.67847294               -2.07306565               -0.05469212                0.05684106               -0.65399422
               1.61731251                4.52788418               19.27472324                1.00000000               -0.28134696               -0.39086707                1.26369969               -0.04385845                0.02217375                1.34590534
               2.61449904                4.41162161               19.12462751                0.67833326               -0.18989002               -0.19072333                0.63119346               -0.00324657                0.08164068               -0.70356358
               3.61351471                4.29475667               18.97568488                0.06143864               -0.09250702                0.01185370                0.00796712                0.16790226                7.05460137               -2.78317229
               4.61264890                4.18021681               18.96502115                0.00010000               -0.14439257                0.12656227                0.08134807                0.47788305               15.31567771               -0.39612651
               5.61062686                4.06779769               18.98172381                0.00010000               -0.20881845                0.05884294                0.00488838                0.64845419               16.77416548                0.70009146
               6.60847253                3.95662955               19.00046253                0.00010000               -0.21195169               -0.02024241               -0.07520720                0.68721372               16.85207345                1.79785251
               7.60638783                3.84686018               19.01883397                0.00010000               -0.20890110               -0.10386316               -0.16938454                0.68829106               16.76313987                3.10324134
               8.60429451                3.73894772               19.03569138                0.09511996               -0.15268433               -0.13609052               -0.29164858                0.51050858               12.91626671                4.78881888
               9.60333414                3.63086106               18.97666842                0.33912159                0.06488970                0.03315646               -0.36051354                0.19849338                4.62815166                3.44019141
              10.60559230                3.52030524               18.82729724                0.77981672                0.31958437                0.31657492               -1.06302570                0.00392140                0.06554779                1.23852014
              11.60972583                3.41062988               18.67671468                1.00000000                0.41335221                0.59657857               -1.77941471               -0.04627191                0.00901358               -0.76472014
               1.73213299                5.52431854               19.23518805                1.00000000               -0.21034517               -0.32182034                1.04458369               -0.04394164                0.02028469                1.30912077
               2.73002954                5.41009787               19.07489634                0.65162939               -0.11221254               -0.11378120                0.37279434               -0.00173837                0.08623133               -0.72400663
               3.72988874                5.29530031               18.91588227                0.05070506               -0.00966007                0.09703789               -0.29011032                0.10010200                9.25297971               -2.73448464
               4.72983633                5.18143269               18.93888769                0.00010000               -0.10626181                0.14378963               -0.09046203                0.26797791               19.26244415               -0.65706440
               5.72776350                5.06843321               18.98067071                0.00010000               -0.26388220                0.08182931               -0.02566034                0.33992623               20.27870700                0.60357637
               6.72455869                4.95633297               19.02447626                0.00010000               -0.36142167               -0.02404500                0.02485219                0.33753162               20.43566099                1.89282714
               7.72053507                4.84565594               19.06966296                0.00010000               -0.43882962               -0.13579762                0.05515770                0.31909792               20.54879186                3.33560142
               8.71578210                4.73733375               19.11568114                0.10438856               -0.36780940               -0.20996981                0.05364861                0.23726265               14.99060698                4.98041534
               9.71317888                4.63061085               19.04924355                0.35351399               -0.07271932               -0.07975988                0.03275486                0.11592741                4.72591774                2.93496624
              10.71432771                4.52294308               18.88966146                0.79977829                0.21826329                0.21212212               -0.72419273                0.00261780                0.04280352                0.98340080
              11.71754414                4.41614143               18.72933697                1.00000000                0.32164333                0.50436507               -1.49270847               -0.04452213                0.00930847               -0.94034436
               1.84487502                6.52144777               19.19535752                1.00000000               -0.13925100               -0.25254153                0.82458716               -0.04360154                0.02200614                1.28079980
               2.84348251                6.40934599               19.02492881                0.62630351               -0.03465444               -0.03640573                0.11389682                0.00018061                0.10217956               -0.74594526
               3.84418193                6.29669743               18.85605831                0.04055782                0.06965211                0.18314302               -0.58756344                0.00862446               11.40140299               -2.73828403
               4.84487555                6.18309260               18.91156949                0.00010000               -0.08284160                0.20620344               -0.27215198                0.03669416               23.16869847               -0.80428413
               5.84252510                6.06943428               18.97883109                0.00010000               -0.34375579                0.13404314               -0.06127889                0.02229768               23.86236027                0.48842628
               6.83800044                5.95614865               19.04894029                0.00010000               -0.53780476               -0.00066377                0.12798812               -0.03728943               24.11909469                1.83567744
               7.83176901                5.84414423               19.12183745                0.00010000               -0.69577908               -0.16313456                0.29560706               -0.08058500               24.37584570                3.33270098
               8.82408486                5.73474832               19.19722849                0.11369956               -0.58628213               -0.31207357                0.43264740               -0.06950025               16.83928003                5.03619382
               9.82004336                5.62926586               19.11912494                0.36804944               -0.19853902               -0.18720244                0.41412789                0.02437787                4.62088414                2.69964617
              10.82011408                5.52454768               18.95003604                0.82030589                0.11976560                0.10992423               -0.39322793                0.00004211                0.04311632                0.81749095
              11.82243868                5.42071718               18.78021759                1.00000000                0.23245990                0.41047343               -1.21132029               -0.04393233                0.01007921               -1.06298501
               1.95546453                7.51926771               19.15523566                1.00000000               -0.06810378               -0.18434770                0.60467807               -0.04302070                0.02311824                1.24989512
               2.95478349                7.40936976               18.97468972                0.60217036                0.04250426                0.04146547               -0.14462636                0.00265913                0.12119264               -0.76916089
               3.95631461                7.29896317               18.79605693                0.03076372                0.15249396                0.27117077               -0.88392498               -0.09057420               13.48217593               -2.74527531
               4.95783337                7.18555676               18.88267998                0.00010000               -0.05806045                0.29055868               -0.45319536               -0.18567750               27.02458641               -0.93836909
               5.95515340                7.07111408               18.97579384                0.00010000               -0.43652090                0.20887955               -0.09729002               -0.26747051               27.47394969                0.34951768
               6.94910295                6.95631970               19.07236484                0.00010000               -0.74148528                0.05643011                0.23334700               -0.39656381               27.83196685                1.63181745
               7.94032370                6.84239325               19.17344690                0.00010000               -0.99162441               -0.16528656                0.54764172               -0.51378927               28.27688069                3.11463675
               8.92927046                6.73109228               19.27940833                0.12307953               -0.82283084               -0.40722305                0.84375172               -0.41009311               18.62225932                4.96110958
               9.92386708                6.62686680               19.18751583                0.38268735               -0.31966107               -0.29049713                0.78737369               -0.07010577                4.40281438                2.55858894
              10.92287724                6.52514156               19.00917337                0.84138884                0.02297100                0.00985072               -0.06797321               -0.00348220                0.04638111                0.72431127
              11.92432650                6.42435090               18.83004791                1.00000000                0.14492600                0.31687164               -0.93418802               -0.04395884                0.01062947               -1.12030973
               2.06381052                8.51776082               19.11476700                1.00000000                0.00297221               -0.11878641                0.38546094               -0.04216844                0.02981496                1.22075130
               3.06384024                8.41017529               18.92418654                0.57916094                0.11864645                0.12074128               -0.40193197                0.00489767                0.15055653               -0.80373882
               4.06618345                8.30212085               18.73597002                0.02117121                0.25854275                0.36059531               -1.17757741               -0.19799447               15.51081882               -2.66792139
               5.06901110                8.18890377               18.85253703                0.00010000                0.01146522                0.35027063               -0.62434562               -0.37234080               30.81332339               -0.92576628
               6.06641275                8.07361187               18.97115126                0.00010000               -0.51105532                0.26332292               -0.13153506               -0.43530180               31.02711600                0.21517248
               7.05878999                7.95727725               19.09302962                0.00010000               -0.98460571                0.17057295                0.33407430               -0.61964334               31.48302421                1.25293589
               8.04672064                7.84083850               19.22188306                0.00010000               -1.36902721               -0.06255026                0.79690242               -0.91348856               32.25472628                2.53508294
               9.03140944                7.72660386               19.36028955                0.13260611               -1.10643351               -0.44795325                1.26985240               -0.81574528               20.50348744                4.52305872
              10.02459197                7.62345592               19.25495370                0.39752260               -0.44245574               -0.38784081                1.15340314               -0.18008347                4.20623115                2.38236462
              11.02256033                7.52474469               19.06773608                0.86326786               -0.07255731               -0.08856998                0.25306888               -0.00901142                0.06421304                0.70928561
              12.02314082                7.42705461               18.87950373                1.00000000                0.05804912                0.22508928               -0.66017532               -0.04436756                0.01691907               -1.12648133
               2.16979220                9.51689199               19.07403961                1.00000000                0.07292125               -0.05701796                0.16872284               -0.04108618                0.00987420                1.02657300
               3.17052141                9.41178458               18.87318338                0.55710528                0.19170215                0.20152567               -0.65865375                0.00534365                0.26598228               -0.73499996
               4.17362624                9.30617507               18.67739632                0.01142649                0.41870565                0.44402823               -1.46070081               -0.34603682               17.61470221               -2.02105568
               5.17889553                9.19256217               18.82345111                0.00010000                0.22238215                0.26506435               -0.77512900               -0.38881059               34.47736478               -0.57488832
               6.17807389                9.07638053               18.96505060                0.00010000               -0.47060365                0.27198397               -0.16265053               -0.35060656               34.33769185                0.10693203
               7.16948345                8.95973116               19.10877775                0.00010000               -1.26732839                0.28392996                0.41846748               -0.50068228               34.86533555                0.69191678
               8.15272732                8.84114224               19.26218958                0.00010000               -1.95726586                0.24705013                1.01234311               -0.92834538               36.17254839                1.44556790
               9.13033814                8.72213322               19.43420902                0.14241713               -1.53013699               -0.29440342                1.67098867               -1.02551722               22.66715247                2.96517444
              10.12212458                8.61910998               19.32007348                0.41266805               -0.56199065               -0.46447972                1.50384977               -0.32256584                4.36165507                1.68447610
              11.11909832                8.52337016               19.12659340                0.88625338               -0.16526323               -0.18437247                0.57291705               -0.01697331                0.18925690                0.64812512
              12.11881931                8.42885269               18.92898877                0.99993405               -0.02790087                0.13591727               -0.38892444               -0.04611328               -0.01343664               -0.94160862
               2.27320360               10.51662046               19.02965871                1.00000000                0.14604276               -0.02715284               -0.05415754                0.09967487                0.53338510                0.84564697
               3.27466403               10.41420581               18.82398164                0.77216596                0.26407624                0.24212242               -0.90356546                0.13330892                1.12766658               -0.64119762
               4.27848512               10.31100141               18.63013725                0.50287842                0.81826988                0.48263363               -1.69347475               -0.51414943               19.89546646               -1.45033100
               5.29102942               10.19420506               18.79976278                0.43979644                0.68732562                0.16428880               -0.88837766               -0.38410325               37.61036692               -0.31188576
               6.29223164               10.07905155               18.95771203                0.43197454               -0.35073946                0.26710161               -0.18994581               -0.14668548               37.15425861                0.06732364
               7.28401463                9.96295585               19.11761390                0.45122174               -1.32399819                0.32246950                0.47591758               -0.21048423               37.74735314                0.39379378
               8.26575167                9.84577950               19.28840999                0.49547081               -2.55416360                0.46372599                1.16012514               -0.80956773               39.38788105                0.82380976
               9.23293136                9.72071579               19.48387154                0.57452490               -2.44239832               -0.14174243                1.93698711               -1.32133623               25.06435273                1.82619181
              10.21690371                9.61416633               19.37369697                0.71142389               -1.02266008               -0.49436555                1.79103052               -0.50501481                5.65153041                1.10845396
              11.21247816                9.52105724               19.18392860                0.95086817               -0.28250984               -0.23129190                0.88120520                0.11831520                1.05780154                0.57320280
              12.21125351                9.42977296               18.98197286                0.99996890               -0.12246520                0.09202696               -0.10265184                0.11499067                0.45181169               -0.76013436
               1.25077910                0.60267435               20.45114230                1.00000000               -0.55037477               -0.61014334                2.10881843               -0.11457430               -1.03774692                1.08788941
               2.24527535                0.46884799               20.32669925                1.00000000               -0.46708925               -0.44988565                1.60489470               -0.07333114               -1.06275993               -0.05567525
               3.24143732                0.33464599               20.20179341                0.70171452               -0.25005011               -0.30219135                1.09517765                0.00432397               -0.74356934               -0.96597775
               4.24027435                0.20180073               20.08388019                0.52275896                0.03736564               -0.16579979                0.59735861                0.09437566                1.08520604               -0.10074138
               5.24218463                0.07357863               19.99629769                0.45552623                0.23042533               -0.03343333                0.11507507                0.08482978                4.00446689               -0.09294718
               6.24488286               -0.04893584               19.93838783                0.46192064                0.18834407                0.10651016               -0.37355023                0.02030225                5.34126667                0.01136153
               7.24595151               -0.17025331               19.87877615                0.53178781                0.11760523                0.24678256               -0.85673472                0.05318266                3.83157450                0.09544798
               8.24723496               -0.29518484               19.79021132                0.67920758                0.24525823                0.38466809               -1.34855948                0.05661623                1.20575478                0.14939608
               9.25085668               -0.42366905               19.67690514                0.93966847                0.48679761                0.52769974               -1.86666440               -0.00297463               -0.52557825                0.47556802
              10.25697091               -0.55332916               19.55292457                1.00000000                0.70209401                0.68046180               -2.41444655               -0.06836607               -0.94317736                0.35410118
              11.26489856               -0.68269172               19.43096655                1.00000000                0.79276403                0.84739563               -2.93100820               -0.12775762               -0.83311368               -0.87451959
               1.38345972                1.59657291               20.40670180                1.00000000               -0.49034982               -0.58082509                1.89198912               -0.03980478               -0.04451510                1.38588585
               2.37855622                1.46434913               20.28149983                0.98334653               -0.42277671               -0.41460854                1.39069246               -0.00121818                0.05159179               -0.13836718
               3.37500419                1.33162408               20.15821236                0.25814568               -0.34022171               -0.26176679                0.90901518                0.09352796                1.40777694               -1.47350660
               4.37175179                1.20014273               20.06012571                0.00396304               -0.33014875               -0.13518776                0.47661700                0.34417349                3.84443294               -1.71118514
               5.36840121                1.07324430               19.98508114                0.00842495               -0.23749675                0.08749074                0.04691197                0.63477246                6.66020529                0.56334106
               6.36700185                0.95212926               19.94213209                0.01179038                0.06033125                0.06733927               -0.37641739                0.78246287                8.21536571                0.60482826
               7.36960784                0.83221451               19.89744997                0.00923941                0.37535718                0.04627531               -0.78753570                0.65303506                6.57872347                0.56883907
               8.37450900                0.70866185               19.82241630                0.22374487                0.51456278                0.34043688               -1.20743799                0.32315977                3.85439508                1.91191082
               9.37989909                0.58160794               19.72427590                0.61518422                0.56447946                0.47876735               -1.65166762                0.10815991                1.89306151                1.54189779
              10.38579858                0.45347546               19.61049597                1.00000000                0.65422222                0.62960912               -2.12085268                0.01118379                0.65748736                0.73522598
              11.39298354                0.32578224               19.48759206                1.00000000                0.71849505                0.81234311               -2.65351044               -0.05175466                0.20718548               -0.93353656
               1.51443057                2.59105785               20.36824254                1.00000000               -0.42307461               -0.52128642                1.68986351               -0.04444775                0.18488159                1.62284570
               2.51019983                2.46055582               20.23466307                0.74959517               -0.34581496               -0.34184359                1.14505739               -0.00665772                0.35412677               -0.46331582
               3.50751428                2.32941065               20.10444540                0.09760456               -0.23311146               -0.16859267                0.63302492                0.08832945                2.01647917               -2.54233605
               4.50553760                2.19909697               20.00413607                0.00010000               -0.23103650                0.01345508                0.25504825                0.52606523                7.66706890               -1.22018436
               5.50289355                2.07532844               19.98687201                0.00010000               -0.19878498                0.12535995                0.02805101                0.96044466               11.23653928                0.79694387
               6.50156190                1.95241095               19.95756387                0.00010000               -0.02069583                0.00262955               -0.27820079                1.06794278               10.52133257                1.33057861
               7.50247963                1.83067219               19.92541078                0.00010000                0.13714140               -0.10352092               -0.59381373                1.09729910               10.20927388                1.78979615
               8.50430473                1.71162390               19.88971092                0.08024565                0.28633158                0.04532168               -0.90967930                0.68604087                6.97774115                3.44553440
               9.50820626                1.58590629               19.79285783                0.33010987                0.43577828                0.31075511               -1.29949515                0.09875807                2.90269267                4.00123307
              10.51302029                1.45926302               19.67557238                0.80349207                0.55218190                0.52124160               -1.80524864               -0.01253056                1.11974747                1.46825531
              11.51924990                1.33355515               19.54286462                1.00000000                0.62296049                0.75899715               -2.38227124               -0.06752211                0.35455015               -0.84199763
               1.64357482                3.58614719               20.32858776                1.00000000               -0.35045656               -0.45796328                1.47724745               -0.04529161                0.04463148                1.48151490
               2.64007026                3.45751226               20.18297487                0.69592805               -0.26726039               -0.26520103                0.88294928               -0.00482035                0.14977731               -0.72284322
               3.63822962                3.32825222               20.03943898                0.07198917               -0.18574800               -0.06967575                0.30514707                0.12058157                4.96151192               -3.03277389
               4.63635530                3.20041183               19.99006157                0.00010000               -0.19667441                0.10537408                0.24332644                0.39770540               11.75131306                0.29246691
               5.63429613                3.07575150               19.98238881                0.00010000               -0.16691701                0.02644841                0.01030742                0.64002186               13.95518494                0.62127543
               6.63301696                2.95218185               19.97685278                0.00010000               -0.09776337               -0.03875816               -0.18628257                0.73115718               13.92695626                1.64535507
               7.63234086                2.83014409               19.96837915                0.00010000               -0.00106227               -0.09360259               -0.39963580                0.73735247               13.44816865                2.78590082
               8.63299571                2.70956828               19.95290255                0.08415727                0.09471351               -0.18800177               -0.64691927                0.57180115               10.72415807                4.02667418
               9.63423513                2.58782304               19.88948720                0.32067699                0.24517030                0.11670715               -0.79675380                0.17577222                4.44050331                4.69046225
              10.63789912                2.46390029               19.74774698                0.74956600                0.44068571                0.41082402               -1.43011705               -0.00346574                0.30029328                1.64535399
              11.64304885                2.34096218               19.60107589                1.00000000                0.51497261                0.70432168               -2.09389180               -0.05699261                0.05870113               -0.69121282
               1.77079460                4.58189858               20.28733346                1.00000000               -0.27962128               -0.39024445                1.25869314               -0.04413638                0.02258983                1.37784411
               2.76799838                4.45525179               20.13090349                0.66704447               -0.18841323               -0.18747946                0.62403780               -0.00247601                0.08659872               -0.75124858
               3.76702633                4.32801714               19.97572027                0.05986690               -0.10029760                0.01882190               -0.00120597                0.07518054                7.41499765               -2.91429239
               4.76599243                4.20120445               19.96583487                0.00010000               -0.15511866                0.08674984                0.07962069                0.24834360               15.95726924               -0.45078640
               5.76392396                4.07585741               19.98173690                0.00010000               -0.20999939                0.02084216               -0.00444389                0.36935926               17.34871933                0.73133666
               6.76179245                3.95163578               19.99962922                0.00010000               -0.20418537               -0.06153626               -0.09382461                0.39653562               17.43283680                1.88497568
               7.75984025                3.82880014               20.01700912                0.00010000               -0.18653226               -0.15215751               -0.19801926                0.39951570               17.33874746                3.24099134
               8.75806180                3.70786387               20.03258987                0.09315037               -0.12252796               -0.19795420               -0.33097767                0.30638344               13.53132174                4.97534500
               9.75738969                3.58824044               19.97301714                0.33381524                0.08750202               -0.01032307               -0.37027449                0.13331821                4.96602674                3.63227194
              10.75981184                3.46747950               19.81659778                0.76500729                0.32982834                0.30684653               -1.07698835                0.00283498                0.07350322                1.31208013
              11.76398626                3.34764158               19.65882531                1.00000000                0.41744200                0.62009133               -1.79827110               -0.04585093                0.01000735               -0.80017799
               1.89598567                5.57834230               20.24560507                1.00000000               -0.20834867               -0.32083697                1.03911424               -0.04398721                0.02031872                1.33972029
               2.89390218                5.45376267               20.07858266                0.64075867               -0.11025495               -0.11023883                0.36432274               -0.00041112                0.09074783               -0.77207926
               3.89378057                5.32862866               19.91292971                0.04927510               -0.02101424                0.10372034               -0.30105059               -0.01076216                9.69478201               -2.86124681
               4.89348190                5.20214683               19.93794915                0.00010000               -0.12642919                0.12529685               -0.09916793                0.01736169               20.07918153               -0.72477785
               5.89125198                5.07616834               19.98035308                0.00010000               -0.27384763                0.05692790               -0.04043939                0.05293797               21.03416653                0.61941930
               6.88800494                4.95095113               20.02462164                0.00010000               -0.35744463               -0.05837596                0.00125311                0.03230091               21.19073411                1.97916599
               7.88410309                4.82710094               20.07005755                0.00010000               -0.41609273               -0.18280412                0.02053347                0.00642607               21.29628546                3.48525639
               8.87968309                4.70560919               20.11599637                0.10226391               -0.34086163               -0.27027613                0.00606217                0.01644921               15.74543240                5.18894265
               9.87728586                4.58761658               20.04954116                0.34787513               -0.05642069               -0.11230543                0.02618247                0.04867332                5.11584435                3.10146552
              10.87855468                4.47003722               19.88236175                0.78437548                0.22609073                0.20549854               -0.73587083                0.00134127                0.04926322                1.04524041
              11.88180767                4.35336401               19.71431890                1.00000000                0.32529991                0.52350575               -1.51062316               -0.04411253                0.00979850               -0.98118845
               2.01907411                6.57548184               20.20357347                1.00000000               -0.13703104               -0.25150956                0.81887944               -0.04359774                0.02169651                1.31099650
               3.01770380                6.45304702               20.02602220                0.61592010               -0.03235894               -0.03273517                0.10451108                0.00169180                0.10664696               -0.79362292
               4.01842693                6.33009154               19.85012606                0.03929331                0.05480942                0.18968178               -0.59974771               -0.11161071               11.91996310               -2.86312913
               5.01879999                6.20371039               19.90879161                0.00010000               -0.11242558                0.20480098               -0.28557291               -0.22674036               24.15757324               -0.87586845
               6.01617842                6.07699597               19.97813627                0.00010000               -0.36470643                0.12520542               -0.08065618               -0.27536602               24.80450968                0.49933378
               7.01150586                5.95046826               20.05009475                0.00010000               -0.54338558               -0.02373280                0.09936720               -0.36045684               25.05868205                1.92061024
               8.00531071                5.82514406               20.12460829                0.00010000               -0.68153571               -0.20227171                0.25459477               -0.41848422               25.30985399                3.49110393
               8.99787514                5.70245834               20.20129295                0.11145398               -0.56877867               -0.36239316                0.37600260               -0.30403371               17.71862347                5.27224377
               9.99393513                5.58599433               20.12324989                0.36214826               -0.18919524               -0.21097680                0.41022657               -0.04068152                5.03970053                2.85282618
              10.99409124                5.47158947               19.94605418                0.80443170                0.12576488                0.10580122               -0.40327463               -0.00149111                0.04898947                0.87104460
              11.99645043                5.35811169               19.76801447                1.00000000                0.23591920                0.42604244               -1.22895487               -0.04361915                0.01028519               -1.10830793
               2.13998336                7.57331210               20.16125158                1.00000000               -0.06570452               -0.18326026                0.59877769               -0.04305189                0.02255360                1.28049276
               3.13932631                7.45310796               19.97319471                0.59233273                0.04508119                0.04520966               -0.15474977                0.00414936                0.12590777               -0.81570322
               4.14088498                7.33242230               19.78715708                0.02968147                0.13581750                0.27756639               -0.89708843               -0.21203280               14.07775006               -2.86744776
               5.14204266                7.20624285               19.87807859                0.00010000               -0.09490952                0.30484192               -0.46950973               -0.44772779               28.18489832               -1.00462491
               6.13898679                7.07867245               19.97472306                0.00010000               -0.46974719                0.21704164               -0.12020694               -0.56717644               28.60359357                0.35845835
               7.13264772                6.95047647               20.07455403                0.00010000               -0.76217317                0.04934828                0.20043812               -0.72866278               28.96239175                1.71122655
               8.12374333                6.82305551               20.17871351                0.00010000               -0.99477858               -0.19063448                0.50105297               -0.86821324               29.41256500                3.27286091
               9.11275215                6.69836133               20.28754871                0.12074614               -0.82011142               -0.44255790                0.77928420               -0.65392426               19.61530218                5.21711223
              10.10734110                6.58339705               20.19538652                0.37659480               -0.31723311               -0.30692196                0.78603007               -0.13226415                4.82986026                2.70229625
              11.10640749                6.47215325               20.00845097                0.82514149                0.02748751                0.00773007               -0.07668125               -0.00530312                0.05224993                0.77203742
              12.10789085                6.36188486               19.82061580                1.00000000                0.14833646                0.32935364               -0.95186543               -0.04374173                0.01070362               -1.16928367
               2.25862135                8.57181663               20.11858971                1.00000000                0.00552443               -0.11751360                0.37934094               -0.04228241                0.02930362                1.25293993
               3.25867660                8.45395121               19.92011525                0.56990252                0.12150203                0.12453967               -0.41277822                0.00622786                0.15629917               -0.84912197
               4.26105139                8.33564287               19.72412938                0.02028097                0.24593418                0.36664916               -1.19173087               -0.31324120               16.18770214               -2.78287060
               5.26359528                8.20980723               19.84621556                0.00010000               -0.02250633                0.37428166               -0.64258687               -0.61238832               32.14515885               -0.97803817
               6.26060127                8.08133680               19.96972666                0.00010000               -0.55228691                0.28313411               -0.15704082               -0.70679146               32.33819566                0.22249761
               7.25254954                7.95145523               20.09621206                0.00010000               -1.02698410                0.18509107                0.29793212               -0.92627797               32.80408357                1.31661316
               8.24006158                7.82133137               20.22962534                0.00010000               -1.40472099               -0.06150071                0.74637467               -1.25798130               33.60354305                2.67065036
               9.22445512                7.69360719               20.37266936                0.13020031               -1.12818230               -0.45983450                1.20046250               -1.06788452               21.60770567                4.77240421
              10.21749794                7.57985589               20.26649844                0.39127147               -0.44788776               -0.39790283                1.15467785               -0.24251051                4.63057430                2.51392865
              11.21549737                7.47174407               20.07023062                0.84668320               -0.06927837               -0.08908966                0.24560209               -0.01120225                0.07153771                0.75390419
              12.21611237                7.36469877               19.87281101                1.00000000                0.06150040                0.23477479               -0.67801814               -0.04422677                0.01741188               -1.17853702
               2.37486856                9.57096183               20.07569413                1.00000000                0.07560745               -0.05547407                0.16241116               -0.04123213                0.00716835                1.05691483
               3.37562463                9.45559876               19.86654109                0.54840494                0.19477908                0.20539846               -0.67032495                0.00636621                0.27646301               -0.77386120
               4.37876414                9.33975528               19.66271948                0.01070940                0.42381662                0.44963269               -1.47593658               -0.45301545               18.38262366               -2.10479097
               5.38410096                9.21372848               19.81561554                0.00010000                0.22194110                0.27164732               -0.79475697               -0.55608004               35.97870417               -0.60176946
               6.38320296                9.08433513               19.96330707                0.00010000               -0.49866856                0.29236864               -0.18994224               -0.52904943               35.81671418                0.11069850
               7.37412759                8.95417829               20.11279439                0.00010000               -1.33856081                0.31933282                0.38007356               -0.70279989               36.36281749                0.72706764
               8.35643175                8.82182550               20.27207550                0.00010000               -2.06288274                0.29630211                0.95931042               -1.17927353               37.73475110                1.52615889
               9.33286994                8.68916464               20.45059484                0.13994212               -1.60388725               -0.25459595                1.60003081               -1.24042505               23.89217331                3.13446498
              10.32435400                8.57543899               20.33513546                0.40624019               -0.57646894               -0.46844959                1.50756232               -0.39271530                4.79425784                1.77614712
              11.32134056                8.47037145               20.13229256                0.86925963               -0.16285355               -0.18364546                0.56662814               -0.01956949                0.20444263                0.68615592
              12.32109693                8.36658035               19.92500719                0.99994721               -0.02436306                0.14329103               -0.40703499               -0.04605142               -0.01414660               -0.98771901
               2.48852286               10.57070715               20.02908425                1.00000000                0.14876166               -0.02546794               -0.06058138                0.10063263                0.54606533                0.87284215
               3.49001047               10.45805918               19.81488743                0.76798812                0.26692515                0.24604216               -0.91587657                0.13500282                1.17086402               -0.67375711
               4.49386136               10.34463553               19.61313084                0.50257542                0.89416766                0.48802476               -1.70912187               -0.63122812               20.76707410               -1.50801935
               5.50789383               10.21524018               19.79079366                0.44030656                0.78545517                0.15116947               -0.90835854               -0.49328123               39.27215886               -0.33241638
               6.50957046               10.08718418               19.95569209                0.43218538               -0.34453248                0.28490468               -0.21811050               -0.23316423               38.77936692                0.06396241
               7.50100318                9.95784189               20.12219774                0.45104660               -1.40403496                0.36635923                0.43588417               -0.30877984               39.39254729                0.40806889
               8.48148976                9.82725741               20.29976351                0.49490370               -2.74850266                0.54319163                1.10489897               -0.96052898               41.11299911                0.86395773
               9.44603312                9.68851527               20.50290833                0.57326439               -2.65264720               -0.06493744                1.86410511               -1.52220724               26.42054643                1.93348328
              10.42843682                9.57048690               20.39163283                0.70815203               -1.10342559               -0.49520953                1.79516488               -0.61392300                6.15483492                1.16865627
              11.42396461                9.46807117               20.19271376                0.94222011               -0.28316422               -0.23002860                0.87557155                0.11628989                1.12086775                0.60544260
              12.42277354                9.36756459               19.98085325                0.99996261               -0.11910762                0.09842336               -0.12084412                0.11700292                0.47711453               -0.79894615
               1.36717093                0.65925694               21.47223558                1.00000000               -0.55238003               -0.61136440                2.11044811               -0.11331672               -1.07569241                1.12377270
               2.36164713                0.51453483               21.34276174                1.00000000               -0.47166960               -0.45058102                1.60741673               -0.07197714               -1.10388964               -0.06115260
               3.35773754                0.36939069               21.21276446                0.69911517               -0.27247995               -0.30007877                1.09817740               -0.01213079               -0.78182969               -0.98643359
               4.35619753                0.22513514               21.08987227                0.52240673               -0.02175534               -0.16461777                0.60013416                0.05339998                1.05838183               -0.10354574
               5.35730243                0.08419298               20.99743995                0.45568743                0.15973176               -0.02823164                0.11265869                0.04653906                3.98066238               -0.09525049
               6.35939217               -0.05253867               20.93459396                0.46183233                0.17006423                0.11453889               -0.38566450               -0.00052826                5.31812853                0.01419683
               7.36070372               -0.18828468               20.87010542                0.53087006                0.15984628                0.25509542               -0.87748088                0.02320152                3.81074493                0.10231337
               8.36258909               -0.32655877               20.77660566                0.67659328                0.29549215                0.39238904               -1.37235112                0.02528670                1.17201611                0.15799737
               9.36661356               -0.46728687               20.65812002                0.93363702                0.51455413                0.53331128               -1.88996892               -0.01896629               -0.58517104                0.48954947
              10.37288018               -0.60869020               20.52865765                1.00000000                0.71416176                0.68617783               -2.43852135               -0.06835907               -1.00123542                0.38273377
              11.38089680               -0.74971806               20.40154144                1.00000000                0.80166200                0.85597278               -2.95367850               -0.12692075               -0.87509564               -0.92844992
               1.51075987                1.65314329               21.42562363                1.00000000               -0.48993860               -0.58263626                1.89271840               -0.03911952               -0.03603289                1.42857538
               2.50586048                1.51002902               21.29541758                0.96858934               -0.42218943               -0.41507992                1.39253304               -0.00013715                0.07042621               -0.16018639
               3.50231608                1.36638990               21.16733213                0.25413129               -0.32650474               -0.25908800                0.91404300                0.07119077                1.46101841               -1.53991956
               4.49933039                1.22348896               21.06491616                0.00410822               -0.28556764               -0.13086809                0.48017000                0.25447359                3.92554658               -1.76381259
               5.49660473                1.08391067               20.98554812                0.00861265               -0.18523358                0.03756070                0.04525456                0.45979005                6.75022864                0.58333663
               6.49562572                0.94860672               20.93830722                0.01204975                0.06705289                0.04453982               -0.38928078                0.56817356                8.32308688                0.65596014
               7.49794578                0.81426628               20.88945978                0.00918220                0.33586704                0.05296862               -0.81062975                0.47527791                6.69789335                0.63734178
               8.50234306                0.67736512               20.81020828                0.22028324                0.47719147                0.33601075               -1.23392503                0.22816987                3.96209680                1.99835615
               9.50748961                0.53804624               20.70762610                0.60623959                0.55345609                0.47942829               -1.67799669                0.07561624                1.97749131                1.62576549
              10.51341218                0.39817158               20.58917301                1.00000000                0.65829143                0.63382937               -2.14346402                0.00743787                0.69703524                0.77442280
              11.52065544                0.25884167               20.46094161                1.00000000                0.72432641                0.82273432               -2.67640368               -0.05169271                0.21386358               -0.99058697
               1.65261708                2.64760421               21.38513453                1.00000000               -0.42193043               -0.52340155                1.68887703               -0.04491889                0.19203925                1.66707431
               2.64839778                2.50623323               21.24610502                0.73654320               -0.34578315               -0.34069834                1.14289689               -0.00722349                0.37857611               -0.50930032
               3.64570142                2.36420893               21.11078338                0.09526982               -0.23157667               -0.16285081                0.63345247                0.06189466                2.12647762               -2.68052223
               4.64376624                2.22251778               21.00673198                0.00010000               -0.21604720               -0.02184907                0.26269238                0.34005012                7.91803026               -1.21878796
               5.64138047                2.08494420               20.98713622                0.00010000               -0.16831066                0.04531539                0.02331842                0.63746384               11.53192909                0.83724614
               6.64040003                1.94835213               20.95471482                0.00010000                0.00352020               -0.05135745               -0.29282612                0.73152404               10.78512300                1.42438746
               7.64145088                1.81277469               20.91936171                0.00010000                0.14862475               -0.12066967               -0.61686595                0.79322688               10.48065469                1.91817922
               8.64337252                1.68016144               20.88046932                0.07837304                0.29342760                0.01724883               -0.93862143                0.50659279                7.22804104                3.59021875
               9.64731943                1.54230170               20.77974713                0.32472689                0.44304899                0.27757031               -1.32250750                0.04337465                3.06099633                4.23043535
              10.65223350                1.40398639               20.65741137                0.78800592                0.56016605                0.51608390               -1.82688078               -0.02709862                1.18324725                1.54861734
              11.65852275                1.26673663               20.51892951                1.00000000                0.62892462                0.77916191               -2.40468392               -0.07599438                0.38194543               -0.89333739
               1.79260344                3.64267526               21.34334281                1.00000000               -0.34921523               -0.45902296                1.47417007               -0.04566245                0.04437539                1.51722961
               2.78911129                3.50321506               21.19178010                0.68411424               -0.26670063               -0.26221924                0.87789953               -0.00479696                0.15783099               -0.77443944
               3.78726943                3.36313289               21.04246236                0.07022908               -0.18575827               -0.06144170                0.29884354                0.05093965                5.23906686               -3.18405222
               4.78539612                3.22305198               20.99252689                0.00010000               -0.18748897                0.03978592                0.24765809                0.18477506               12.20563602                0.31416357
               5.78351965                3.08481697               20.98245964                0.00010000               -0.14852133               -0.02420200                0.00203238                0.34770073               14.34948365                0.66025225
               6.78242570                2.94757957               20.97490814                0.00010000               -0.07593223               -0.08959627               -0.20439010                0.42464626               14.34539285                1.73184969
               7.78200101                2.81185288               20.96425505                0.00010000                0.02611062               -0.13865408               -0.42668292                0.44408861               13.85517776                2.91271603
               8.78294791                2.67771010               20.94625926                0.08227530                0.12655800               -0.24003208               -0.68271355                0.36425824               11.18240417                4.17750562
               9.78453217                2.54359765               20.88144682                0.31561247                0.27436799                0.05754249               -0.81170073                0.10552465                4.71757390                4.94902123
              10.78843527                2.40849325               20.73335933                0.73518562                0.45514490                0.39728417               -1.44749319               -0.00760232                0.31721122                1.74197216
              11.79363506                2.27442491               20.58003319                1.00000000                0.51997936                0.73233372               -2.11451233               -0.05942639                0.06035659               -0.72767704
               1.93062424                4.63842375               21.29989711                1.00000000               -0.27800323               -0.39011602                1.25441703               -0.04445268                0.02281691                1.40994649
               2.92784421                4.50098885               21.13710827                0.65565667               -0.18704775               -0.18387361                0.61680849               -0.00175436                0.09146992               -0.80081844
               3.92688329                4.36298010               20.97566076                0.05822969               -0.10332758                0.02683469               -0.01117602               -0.02634505                7.77966296               -3.04903319
               4.92577766                4.22331349               20.96661357                0.00010000               -0.15381962                0.04642062                0.07411138                0.00402613               16.60121845               -0.51427522
               5.92380689                4.08446016               20.98163493                0.00010000               -0.19603060               -0.01973744               -0.01817791                0.07507016               17.91812086                0.75800031
               6.92185705                3.94656020               20.99858604                0.00010000               -0.18023846               -0.10644032               -0.11710800                0.08923346               18.00751038                1.96900951
               7.92020212                3.81000161               21.01487358                0.00010000               -0.14720614               -0.20454948               -0.23133871                0.09428189               17.90775895                3.37565645
               8.91891292                3.67536080               21.02907183                0.09110637               -0.07776802               -0.26502840               -0.37463569                0.08550793               14.16041040                5.15784372
               9.91864676                3.54345255               20.96926293                0.32839914                0.11706366               -0.05951221               -0.38114772                0.05847410                5.32211266                3.82957290
              10.92125420                3.41193207               20.80575748                0.75017313                0.34120730                0.29491168               -1.09123613                0.00153582                0.08178961                1.38846273
              11.92547091                3.28138331               20.64074926                1.00000000                0.42167145                0.64517992               -1.81676780               -0.04533902                0.01096896               -0.83531046
               2.06658419                5.63487294               21.25597034                1.00000000               -0.20643367               -0.32012793                1.03425073               -0.04417294                0.02030688                1.37079882
               3.06451986                5.49953758               21.08218280                0.62980956               -0.10831547               -0.10636879                0.35553518                0.00076486                0.09549820               -0.82144303
               4.06441788                5.36366958               20.90986126                0.04778540               -0.02616335                0.11136882               -0.31328152               -0.13143494               10.13902630               -2.99050077
               5.06399659                5.22398039               20.93690433                0.00010000               -0.13217692                0.10661504               -0.11184005               -0.25041043               20.89726134               -0.79835378
               6.06177435                5.08442222               20.97986193                0.00010000               -0.26638390                0.02954128               -0.06033237               -0.25121813               21.78613638                0.63110825
               7.05866891                4.94545077               21.02450132                0.00010000               -0.33441505               -0.09658724               -0.02817482               -0.29076611               21.94023499                2.06226186
               8.05508604                4.80776189               21.07007363                0.00010000               -0.37308873               -0.23456320               -0.02033953               -0.32377378               22.03641119                3.63132271
               9.05120714                4.67240953               21.11580238                0.10007337               -0.29778310               -0.33599744               -0.04794955               -0.22258431               16.52038943                5.39222516
              10.04913038                4.54240740               21.04976720                0.34214447               -0.03359548               -0.14877631                0.01834717               -0.02943306                5.53107259                3.27238696
              11.05053523                4.41439149               20.87494404                0.76899808                0.23477143                0.19736426               -0.74786201               -0.00018999                0.05629190                1.10911036
              12.05382581                4.28732851               20.69912451                1.00000000                0.32905838                0.54354070               -1.52802244               -0.04365329                0.01029894               -1.02259470
               2.20041150                6.63202119               21.21173511                1.00000000               -0.13486318               -0.25058049                0.81370722               -0.04371466                0.02143112                1.34167002
               3.19906286                6.49886147               21.02701903                0.60545559               -0.02998586               -0.02874702                0.09459654                0.00312843                0.11160662               -0.84225672
               4.19981178                6.36520747               20.84406335                0.03797286                0.04769703                0.19706515               -0.61358331               -0.24239119               12.43980604               -2.98995299
               5.20001681                6.22544580               20.90585803                0.00010000               -0.12498113                0.20299606               -0.30329725               -0.50938620               25.14669053               -0.95109058
               6.19731216                6.08505098               20.97721797                0.00010000               -0.36573751                0.11353137               -0.10587355               -0.59209280               25.74361969                0.50729288
               7.19270206                5.94462846               21.05092763                0.00010000               -0.52721352               -0.05119229                0.06380615               -0.70246046               25.99253383                2.00290845
               8.18676789                5.80531035               21.12692935                0.00010000               -0.64431652               -0.24642377                0.20582626               -0.77466645               26.23534746                3.64642637
               9.17981573                5.66864085               21.20474854                0.10914222               -0.53458712               -0.41757044                0.31094117               -0.55684881               18.62422629                5.50367744
              10.17607614                5.54047702               21.12732948                0.35616016               -0.17432166               -0.23716157                0.40496796               -0.11649270                5.49096135                3.01018277
              11.17632929                5.41587935               20.94197055                0.78858465                0.13238294                0.10071890               -0.41365974               -0.00325843                0.05562122                0.92621880
              12.17872380                5.29225412               20.75563850                1.00000000                0.23945111                0.44200867               -1.24596857               -0.04326892                0.01054774               -1.15466833
               2.33202934                7.62986133               21.16721122                1.00000000               -0.06331949               -0.18220632                0.59337462               -0.04316806                0.02206888                1.31147011
               3.33139614                7.49896264               20.97159473                0.58239233                0.04781999                0.04924998               -0.16557891                0.00566190                0.13130093               -0.86306890
               4.33298574                7.36761088               20.77811516                0.02853669                0.12846074                0.28467818               -0.91220545               -0.34484663               14.67407583               -2.99134458
               5.33396536                7.22804031               20.87328979                0.00010000               -0.11179559                0.31801285               -0.49054265               -0.73089206               29.34459502               -1.07308280
               6.33074983                7.08669285               20.97338970                0.00010000               -0.48025112                0.22134135               -0.14965344               -0.88726911               29.73006151                0.36552615
               7.32436033                6.94442692               21.07637360                0.00010000               -0.75847532                0.03703535                0.15956087               -1.07942561               30.08679150                1.78905415
               8.31558032                6.80283342               21.18346796                0.00010000               -0.97284226               -0.22104167                0.44532360               -1.24012416               30.53892151                3.42947045
               9.30490349                6.66405812               21.29499402                0.11833260               -0.80091456               -0.48175199                0.70467418               -0.91472564               20.64038537                5.47086004
              10.29956203                6.53766417               21.20323643                0.37038790               -0.31052657               -0.32457330                0.78316147               -0.20431061                5.29569404                2.85020266
              11.29869296                6.41640587               21.00763974                0.80887701                0.03244369                0.00509155               -0.08579202               -0.00731331                0.05899356                0.82126498
              12.30021090                6.29616868               20.81101061                1.00000000                0.15179437                0.34191820               -0.96889883               -0.04349440                0.01086503               -1.21946998
               2.46134551                8.62837707               21.12235382                1.00000000                0.00810380               -0.11627930                0.37367750               -0.04244419                0.02887021                1.28544078
               3.46142655                8.49984647               20.91593097                0.56050760                0.12458332                0.12862665               -0.42446226                0.00765775                0.16282975               -0.89535012
               4.46383718                8.37090104               20.71213541                0.01931579                0.24452240                0.37334552               -1.20805825               -0.44109458               16.86520889               -2.89950632
               5.46631700                8.23180605               20.83968530                0.00010000               -0.03285049                0.39541865               -0.66588515               -0.87532862               33.47597726               -1.03187876
               6.46318017                8.08947781               20.96801045                0.00010000               -0.56720093                0.29681112               -0.18965503               -0.99786921               33.64594305                0.22868455
               7.45497298                7.94536917               21.09898826                0.00010000               -1.04229818                0.19299558                0.25296775               -1.24886269               34.11917666                1.37974268
               8.44233420                7.80088952               21.23681056                0.00010000               -1.41412607               -0.06530802                0.68554153               -1.61608932               34.94326079                2.80633394
               9.42669046                7.65900581               21.38429880                0.12769656               -1.13460088               -0.47372910                1.11957340               -1.33429067               22.74904848                5.02266706
              10.41964219                7.53398555               21.27804726                0.38486385               -0.45059701               -0.40828150                1.15426759               -0.31373198                5.09845834                2.64965324
              11.41767852                7.41598119               21.07264812                0.83001446               -0.06569518               -0.08978598                0.23765360               -0.01352893                0.07977037                0.80001357
              12.41832828                7.29909248               20.86594337                1.00000000                0.06497659                0.24436934               -0.69523168               -0.04405923                0.01798399               -1.23183886
               2.58824164                9.62753574               21.07728784                1.00000000                0.07836857               -0.05400003                0.15648418               -0.04140579                0.00440544                1.08758393
               3.58902533                9.50153518               20.85977688                0.53953791                0.19813132                0.20957565               -0.68294278                0.00751059                0.28778325               -0.81355046
               4.59220427                9.37507779               20.64787759                0.00990681                0.44283442                0.45586259               -1.49345043               -0.57516443               19.15137120               -2.18992659
               5.59788201                9.23594869               20.80755597                0.00010000                0.25125310                0.26972237               -0.81965810               -0.74271811               37.47895820               -0.62976528
               6.59722933                9.09262907               20.96125176                0.00010000               -0.49553197                0.30414775               -0.22477788               -0.72135632               37.29221440                0.11383726
               7.58797137                8.94828683               21.11637922                0.00010000               -1.38037222                0.34706780                0.33225435               -0.91403165               37.85446895                0.76220420
               8.56962188                8.80152726               21.28137579                0.00010000               -2.14248681                0.33965648                0.89520626               -1.43682190               39.28929148                1.60777278
               9.54512164                8.65458354               21.46620964                0.13735000               -1.66549331               -0.21236709                1.51651846               -1.46230995               25.15878874                3.30615247
              10.53631202                8.52949854               21.35022472                0.39962278               -0.59030945               -0.47204125                1.50942341               -0.47102989                5.27336956                1.87091208
              11.53331545                8.41461015               21.13792596                0.85211997               -0.16024483               -0.18287439                0.55981885               -0.02229489                0.22058618                0.72544305
              12.53310712                8.30105607               20.92084807                0.99995791               -0.02083283                0.15047154               -0.42447397               -0.04598096               -0.01484555               -1.03493192
               2.71251853               10.62729707               21.02844708                1.00000000                0.15161779               -0.02386789               -0.06677464                0.10178123                0.55875243                0.90041544
               3.71403471               10.50403799               20.80566411                0.76371662                0.27009234                0.25028101               -0.92927590                0.13699962                1.21535046               -0.70711445
               4.71792038               10.38001829               20.59595482                0.50222867                0.99383225                0.49404947               -1.72711728               -0.77026309               21.64019185               -1.56686896
               5.73391135               10.23720050               20.78159561                0.44079193                0.92472580                0.12518140               -0.93388624               -0.61994224               40.93247687               -0.35386047
               6.73641489               10.09556076               20.95334982                0.43239116               -0.30585960                0.29316892               -0.25416695               -0.32594229               40.39986942                0.05996257
               7.72779416                9.95231052               21.12633158                0.45086975               -1.45569177                0.40236898                0.38607201               -0.41162716               41.03084376                0.42207740
               8.70730106                9.80768264               21.31050797                0.49430767               -2.91605954                0.61553879                1.03827565               -1.10968495               42.83043839                0.90450653
               9.66947297                9.65475847               21.52115364                0.57194353               -2.85530397                0.01749345                1.77842612               -1.72176252               27.82171855                2.04295025
              10.65019498                9.52454473               21.40960027                0.70478070               -1.18989396               -0.49538150                1.79749557               -0.73344256                6.70736419                1.23093634
              11.64567509                9.41232370               21.20144003                0.93348879               -0.28390811               -0.22864490                0.86952157                0.11382360                1.18595719                0.63867738
              12.64451682                9.30210191               20.97955597                0.99995691               -0.11582750                0.10458450               -0.13819779                0.11879130                0.50299751               -0.83870898
               1.48821293                0.71837369               22.49335127                1.00000000               -0.55442525               -0.61282254                2.11297831               -0.11221979               -1.11324257                1.15929821
               2.48266868                0.56231326               22.35884758                1.00000000               -0.47613686               -0.45111401                1.60950059               -0.07082904               -1.14462291               -0.06718241
               3.47869019                0.40578198               22.22375696                0.69637890               -0.29510887               -0.29752164                1.09952652               -0.02998263               -0.81988999               -1.00509894
               4.47676650                0.24964204               22.09588288                0.52198371               -0.08070020               -0.16352686                0.60079295                0.01178759                1.02937851               -0.10634034
               5.47707619                0.09545727               21.99855086                0.45581600                0.09067309               -0.02425121                0.10835995                0.00783026                3.95027858               -0.09760362
               6.47857996               -0.05607842               21.93067454                0.46171366                0.15392612                0.12060256               -0.39896515               -0.02145410                5.28691798                0.01690330
               7.48015471               -0.20691576               21.86122653                0.52990695                0.20403629                0.26208201               -0.89856870               -0.00659231                3.78467918                0.10920899
               8.48266069               -0.35923013               21.76276429                0.67387824                0.34732786                0.39954393               -1.39584767               -0.00633009                1.13689032                0.16670707
               9.48710127               -0.51289022               21.63910577                0.92741119                0.54320509                0.53863570               -1.91254098               -0.03546243               -0.64537938                0.50241669
              10.49352479               -0.66670522               21.50415414                1.00000000                0.72638982                0.69154040               -2.46172530               -0.06864265               -1.05958387                0.41358211
              11.50162906               -0.82006105               21.37189298                1.00000000                0.81042752                0.86434782               -2.97558666               -0.12612790               -0.91637678               -0.98295977
               1.64315117                1.71224547               22.44455617                1.00000000               -0.48949234               -0.58467724                1.89404487               -0.03846303               -0.02613809                1.47070072
               2.63825624                1.55780212               22.30935049                0.95350470               -0.42125968               -0.41529840                1.39376466                0.00075554                0.09176699               -0.18425078
               3.63472597                1.40280676               22.17649322                0.24993905               -0.31047591               -0.25559964                0.91744976                0.04656680                1.51556191               -1.60811289
               4.63204673                1.24800677               22.06972911                0.00424039               -0.23556267               -0.12657813                0.48136221                0.15934366                4.00375183               -1.81452962
               5.63001472                1.09521476               21.98598623                0.00877548               -0.12473945               -0.01477116                0.04122291                0.27969644                6.83241018                0.60173501
               6.62955194                0.94512760               21.93434647                0.01227470                0.08249604                0.01880978               -0.40360420                0.34746033                8.42012333                0.70659331
               7.63166464                0.79570506               21.88123738                0.00943873                0.30163385                0.05781318               -0.83406183                0.29106097                6.81036323                0.70688270
               8.63558461                0.64476531               21.79773780                0.21666292                0.44097721                0.33037126               -1.26002129                0.13052590                4.06861533                2.08498856
               9.64048418                0.49249614               21.69071597                0.59701050                0.54195824                0.47922478               -1.70375463                0.04138727                2.06439929                1.71170699
              10.64642378                0.34021019               21.56762669                1.00000000                0.66197179                0.63771350               -2.16546609                0.00321786                0.73875003                0.81553320
              11.65372362                0.18858242               21.43406399                1.00000000                0.72998423                0.83289348               -2.69880987               -0.05160295                0.22062705               -1.04794119
               1.79633037                2.70668015               22.40202008                1.00000000               -0.42078763               -0.52581348                1.68849739               -0.04545624                0.19885490                1.71027205
               2.79212249                2.55400729               22.25752101                0.72332278               -0.34567488               -0.33909470                1.13993096               -0.00795369                0.40463560               -0.55855979
               3.78941687                2.40066998               22.11711445                0.09285232               -0.22885621               -0.15564784                0.63191276                0.03206860                2.24249677               -2.82491608
               4.78754537                2.24711048               22.00938991                0.00010000               -0.19337954               -0.05966299                0.26782742                0.14579373                8.16771014               -1.21833779
               5.78554928                2.09516185               21.98733838                0.00010000               -0.12532505               -0.03784670                0.01565071                0.30385651               11.81774659                0.87424448
               6.78503887                1.94429777               21.95170735                0.00010000                0.03944709               -0.10899865               -0.30987397                0.38280601               11.04142141                1.51647278
               7.78633822                1.79424050               21.91307346                0.00010000                0.17206275               -0.14092579               -0.64155571                0.47540872               10.74676427                2.04635755
               8.78848012                1.64737729               21.87093849                0.07639091                0.30729541               -0.01247140               -0.96762322                0.31605964                7.48016725                3.73255327
               9.79248413                1.49669428               21.76640768                0.31916777                0.45113669                0.23957664               -1.34520461               -0.01629406                3.22464081                4.46696586
              10.79750286                1.34604905               21.63903476                0.77240369                0.56841983                0.50917216               -1.84828583               -0.04321326                1.24871180                1.63223906
              11.80385253                1.19659682               21.49477094                1.00000000                0.63496710                0.80032357               -2.42680454               -0.08599180                0.41022895               -0.94405615
               1.94758776                3.70172920               22.35807117                1.00000000               -0.34804277               -0.46050823                1.47182006               -0.04598553                0.04386098                1.55224639
               2.94410734                3.55102022               22.20053286                0.67215311               -0.26618026               -0.25872815                0.87239904               -0.00468791                0.16608323               -0.82839384
               3.94226416                3.39969380               22.04541585                0.06838969               -0.18183009               -0.05162082                0.29106461               -0.02546466                5.52283392               -3.34117538
               4.94047073                3.24681351               21.99501473                0.00010000               -0.16798024               -0.02844808                0.24765557               -0.03693591               12.66156783                0.32827364
               5.93890455                3.09445783               21.98242946                0.00010000               -0.11706643               -0.07733581               -0.00984966                0.04493726               14.73563646                0.69490413
               6.93812940                2.94294763               21.97276497                0.00010000               -0.04056293               -0.14374886               -0.22587859                0.10469250               14.75732504                1.81514883
               7.93809329                2.79288654               21.95984549                0.00010000                0.06613134               -0.18729063               -0.45652830                0.13698320               14.25622048                3.03633678
               8.93945203                2.64451588               21.93924828                0.08029753                0.16966249               -0.29498361               -0.72020890                0.14008303               11.64934516                4.32341180
               9.94148654                2.49728767               21.87325319                0.31039063                0.31024708               -0.00913833               -0.82736161                0.02699591                5.00691653                5.21484772
              10.94565697                2.35039363               21.71879712                0.72070579                0.47108573                0.38074971               -1.46493669               -0.01201641                0.33432931                1.84254281
              11.95090826                2.20458890               21.55878565                1.00000000                0.52512856                0.76236166               -2.13467687               -0.06199616                0.06180642               -0.76283705
               2.09682861                4.69746999               22.31242180                1.00000000               -0.27644806               -0.39044648                1.25086682               -0.04476973                0.02289180                1.44213363
               3.09406413                4.54883273               22.14323966                0.64414589               -0.18571601               -0.17985907                0.60926062               -0.00092666                0.09639374               -0.85221613
               4.09311429                4.39963757               21.97549675                0.05652057               -0.10107518                0.03611230               -0.02232413               -0.13579029                8.14765910               -3.18755581
               5.09204263                4.24654152               21.96731710                0.00010000               -0.14001922                0.00608883                0.06442022               -0.25333543               17.24653887               -0.58641694
               6.09031391                4.09361513               21.98137334                0.00010000               -0.16693121               -0.06251784               -0.03629752               -0.23227753               18.48251754                0.77941487
               7.08870400                3.94142280               21.99728706                0.00010000               -0.14021344               -0.15464311               -0.14480647               -0.23259570               18.57621252                2.04877740
               8.08750964                3.79049469               22.01238234                0.00010000               -0.09116735               -0.26074560               -0.26886612               -0.22541088               18.47025971                3.50557915
               9.08688066                3.64147762               22.02509716                0.08897587               -0.01816692               -0.33694453               -0.42192722               -0.15189507               14.80458891                5.33402980
              10.08714630                3.49651151               21.96539419                0.32285620                0.15403239               -0.11449463               -0.39323239               -0.02672317                5.69754066                4.03163033
              11.08996130                3.35366405               21.79477306                0.73529274                0.35378872                0.28063614               -1.10575985               -0.00006150                0.09044890                1.46756970
              12.09422207                3.21184405               21.62248996                1.00000000                0.42607702                0.67169918               -1.83478988               -0.04477720                0.01186463               -0.86979864
               2.24396689                5.69392027               22.26629009                1.00000000               -0.20456664               -0.31978131                1.03000376               -0.04440933                0.02023622                1.40237691
               3.24192122                5.54742304               22.08569336                0.61876625               -0.10636613               -0.10213882                0.34635124                0.00196681                0.10046582               -0.87214959
               4.24183956                5.40041605               21.90666408                0.04623628               -0.02473806                0.12005075               -0.32685738               -0.26089968               10.58478703               -3.12254711
               5.24142646                5.24693529               21.93571235                0.00010000               -0.12309211                0.08808022               -0.12864361               -0.53360108               21.71547406               -0.87788394
               6.23937772                5.09320747               21.97914644                0.00010000               -0.24142611               -0.00005385               -0.08520252               -0.57066078               22.53423963                0.63796842
               7.23659794                4.93985477               22.02405814                0.00010000               -0.29237348               -0.13843223               -0.06310480               -0.62973455               22.68378710                2.14088215
               8.23353025                4.78767163               22.06965076                0.00010000               -0.31003130               -0.29082130               -0.06695322               -0.66953326               22.76866608                3.77209523
               9.23039731                4.63777699               22.11503738                0.09780168               -0.23822981               -0.40686808               -0.10772519               -0.47974838               17.31713292                5.58799708
              10.22876566                4.49499778               22.04990810                0.33630532               -0.00370528               -0.18913772                0.00913513               -0.11922941                5.97363623                3.44736011
              11.23032320                4.35600635               21.86740451                0.75361076                0.24435281                0.18770480               -0.76024265               -0.00207795                0.06391956                1.17486744
              12.23365271                4.21802288               21.68375846                1.00000000                0.33295073                0.56440911               -1.54492612               -0.04317620                0.01077437               -1.06442962
               2.38893488                6.69107436               22.21984762                1.00000000               -0.13271940               -0.24987371                0.80904136               -0.04389955                0.02118397                1.37294825
               3.38760769                6.54678995               22.02791413                0.59489759               -0.02754146               -0.02441959                0.08414785                0.00456949                0.11701234               -0.89187196
               4.38838405                6.40203858               21.83785439                0.03658885                0.04857487                0.20536503               -0.62897670               -0.38274765               12.96005643               -3.11891684
               5.38857919                6.24830312               21.90272567                0.00010000               -0.12014208                0.20093198               -0.32528023               -0.80954773               26.13471149               -1.03016440
               6.38598121                6.09361406               21.97601880                0.00010000               -0.34670163                0.09915088               -0.13666547               -0.92612401               26.67887525                0.51159789
               7.38164515                5.93865415               22.05137087                0.00010000               -0.48922293               -0.08289207                0.02166358               -1.06142200               26.91978897                2.08137494
               8.37619675                5.78467826               22.12872482                0.00010000               -0.58428054               -0.29539609                0.14975297               -1.14714005               27.15122416                3.79698918
               9.36995954                5.63334026               22.20751177                0.10674614               -0.48322020               -0.47743582                0.23789860               -0.82777171               19.55838603                5.72838724
              10.36653235                5.49272876               22.13134925                0.35006078               -0.15324488               -0.26572306                0.39821106               -0.20392608                5.97767223                3.17134612
              11.36689464                5.35741814               21.93778099                0.77272922                0.13965750                0.09473116               -0.42449542               -0.00532756                0.06302155                0.98279782
              12.36932550                5.22313223               21.74309510                1.00000000                0.24308541                0.45838515               -1.26248719               -0.04290541                0.01084422               -1.20213011
               2.53165771                7.68892280               22.17311907                1.00000000               -0.06093271               -0.18127644                0.58839443               -0.04333595                0.02164176                1.34299390
               3.53104839                7.54693465               21.96988313                0.57233925                0.05068641                0.05360513               -0.17705061                0.00722363                0.13732303               -0.91121495
               4.53267144                7.40452335               21.76891297                0.02733032                0.13058218                0.29258704               -0.92904548               -0.48817656               15.27029111               -3.11703161
               5.53366003                7.25095393               21.86826773                0.00010000               -0.10836161                0.33001733               -0.51600938               -1.03361320               30.50221487               -1.14393499
               6.53050421                7.09519049               21.97172999                0.00010000               -0.46773695                0.22171877               -0.18526343               -1.22605248               30.85216747                0.37012191
               7.52430529                6.93819693               22.07774525                0.00010000               -0.73014332                0.01951543                0.11108752               -1.44694837               31.20383832                1.86424970
               8.51590134                6.78176371               22.18761998                0.00010000               -0.92569531               -0.25640238                0.38075879               -1.62745713               31.65430416                3.58293376
               9.50579138                6.62822827               22.30164220                0.11583093               -0.76460458               -0.52476792                0.62005073               -1.19202728               21.70035667                5.72052336
              10.50060925                6.48968332               22.21104975                0.36405130               -0.29891031               -0.34340493                0.77877296               -0.28709312                5.80417536                3.00193768
              11.49981318                6.35790098               22.00673513                0.79258230                0.03785887                0.00199931               -0.09538340               -0.00953587                0.06664338                0.87172600
              12.50136643                6.22719058               21.80123783                1.00000000                0.15532505                0.35461480               -0.98545887               -0.04323702                0.01109039               -1.27105427
               2.67204445                8.68744883               22.12606326                1.00000000                0.01071513               -0.11512705                0.36836533               -0.04263476                0.02849658                1.31840120
               3.67215161                8.54786205               21.91162600                0.55098113                0.12783949                0.13299788               -0.43685444                0.00918288                0.17009536               -0.94232414
               4.67460124                8.40789032               21.69996822                0.01827443                0.25440888                0.38069936               -1.22616926               -0.58087764               17.54244345               -3.01775374
               5.67723978                8.25490347               21.83289786                0.00010000               -0.01920414                0.41344679               -0.69378046               -1.15979821               34.80413152               -1.08734339
               6.67421716                8.09804843               21.96593356                0.00010000               -0.55534093                0.30410055               -0.22892495               -1.30696061               34.94885805                0.23334623
               7.66613296                7.93904446               22.10127142                0.00010000               -1.03004486                0.19410658                0.19955056               -1.58552817               35.42656588                1.44157068
               8.65361626                7.77955022               22.24333617                0.00010000               -1.39667881               -0.07400861                0.61457514               -1.98568721               36.27178138                2.94094148
               9.63819939                7.62284490               22.39506082                0.12509639               -1.12492406               -0.48977117                1.02690274               -1.61420812               23.93079487                5.27235677
              10.63111778                7.48586066               22.28958380                0.37830832               -0.45013636               -0.41895488                1.15229899               -0.39454759                5.61443285                2.78918065
              11.62919666                7.35745813               22.07498370                0.81327724               -0.06181185               -0.09062863                0.22922127               -0.01601850                0.08893843                0.84733944
              12.62988155                7.23022453               21.85890638                1.00000000                0.06848844                0.25392656               -0.71195611               -0.04389146                0.01861683               -1.28657791
               2.80997857                9.68662025               22.07882381                1.00000000                0.08119770               -0.05259241                0.15081238               -0.04159567                0.00158420                1.11866293
               3.81079055                9.54959461               21.85288224                0.53050669                0.20169509                0.21401906               -0.69631226                0.00876119                0.29992889               -0.85396626
               4.81401247                9.41213734               21.63285047                0.00902710                0.47577030                0.46266822               -1.51274572               -0.71196435               19.92002075               -2.27630362
               5.82030596                9.25922286               21.79922238                0.00010000                0.31057637                0.25901144               -0.84926644               -0.94781320               38.97632570               -0.65883774
               6.82022400                9.10127250               21.95881152                0.00010000               -0.46065061                0.30694340               -0.26664522               -0.92645421               38.76247042                0.11619568
               7.81109294                8.94207906               22.11943947                0.00010000               -1.39184226                0.36671272                0.27537213               -1.13300111               39.33833042                0.79696644
               8.79238716                8.78028354               22.28997963                0.00010000               -2.19480816                0.37664808                0.82010765               -1.69929989               40.83375011                1.68974099
               9.76719678                8.61843285               22.48092521                0.13465281               -1.71410429               -0.16793136                1.41992977               -1.69017559               26.47049402                3.47930862
              10.75810507                8.48130422               22.36532393                0.39283368               -0.60339216               -0.47530674                1.50969666               -0.55822565                5.80406516                1.96845258
              11.75512894                8.35608840               22.14348894                0.83486937               -0.15746336               -0.18207752                0.55258808               -0.02518559                0.23776101                0.76578721
              12.75495580                8.23226911               21.91651771                0.99996635               -0.01731335                0.15750355               -0.44134738               -0.04592649               -0.01553155               -1.08335066
               2.94526383               10.68639698               22.02774876                1.00000000                0.15459110               -0.02232726               -0.07286259                0.10307145                0.57146196                0.92839934
               3.94680975               10.55214243               21.79630192                0.75936782                0.27349332                0.25478264               -0.94352570                0.13925498                1.26115330               -0.74119356
               4.95073370               10.41714369               21.57858850                0.50184026                1.11693056                0.50063504               -1.74699047               -0.93081422               22.51384668               -1.62674757
               5.96914836               10.26008369               21.77211594                0.44125258                1.10490897                0.08608319               -0.96435477               -0.76357916               42.58935013               -0.37609101
               6.97283188               10.10418730               21.95060875                0.43259178               -0.23432262                0.29148013               -0.29757401               -0.42446108               42.01403917                0.05534614
               7.96446190                9.94637872               22.12991918                0.45068801               -1.47777029                0.42996560                0.32685826               -0.51831001               42.66035014                0.43573007
               8.94327648                9.78708318               22.32052902                0.49368775               -3.05433553                0.67996404                0.96031321               -1.25569014               44.53794074                0.94523453
               9.90337519                9.61948627               22.53847686                0.57056591               -3.04893798                0.10534249                1.67933926               -1.91859135               29.27146076                2.15396473
              10.88229772                9.47635452               22.42758274                0.70131885               -1.28235695               -0.49496973                1.79837540               -0.86422028                7.31434532                1.29504594
              11.87772806                9.35381658               22.21010419                0.92469319               -0.28480598               -0.22718245                0.86323465                0.11091563                1.25315642                0.67277341
              12.87660160                9.23337460               21.97808929                0.99995169               -0.11264591                0.11054846               -0.15477585                0.12038115                0.52946874               -0.87945161
               1.61391344                0.78003309               23.51449514                1.00000000               -0.55644625               -0.61445976                2.11597690               -0.11126907               -1.15055589                1.19447371
               2.60834898                0.61218538               23.37495175                1.00000000               -0.48044972               -0.45147960                1.61105508               -0.06986643               -1.18522041               -0.07391935
               3.60430445                0.44381619               23.23475499                0.69352456               -0.31788912               -0.29460295                1.09931399               -0.04904991               -0.85784536               -1.02212776
               4.60199120                0.27531587               23.10188813                0.52149879               -0.13940519               -0.16245420                0.59904535               -0.03017913                0.99873512               -0.10926490
               5.60151634                0.10737017               22.99960715                0.45590910                0.02318333               -0.02123162                0.10154991               -0.03109513                3.91456126               -0.10004935
               6.60245486               -0.05954447               22.92661466                0.46156606                0.13956004                0.12502458               -0.41408160               -0.04240114                5.24892338                0.01947461
               7.60430754               -0.22612220               22.85213405                0.52889582                0.24963992                0.26791937               -0.92052545               -0.03594046                3.75439349                0.11606179
               8.60744766               -0.39317164               22.74868871                0.67107694                0.40042918                0.40623268               -1.41945268               -0.03792539                1.10123631                0.17546205
               9.61231613               -0.56045894               22.61986920                0.92100161                0.57268132                0.54374055               -1.93461282               -0.05234260               -0.70550383                0.51402009
              10.61890129               -0.72736365               22.47942314                1.00000000                0.73877288                0.69652695               -2.48407060               -0.06923012               -1.11775557                0.44669319
              11.62709159               -0.89371927               22.34202970                1.00000000                0.81902974                0.87241546               -2.99658315               -0.12538246               -0.95658762               -1.03762091
               1.78064847                1.77388849               23.46350453                1.00000000               -0.48896991               -0.58692183                1.89580271               -0.03784804               -0.01493542                1.51229104
               2.77575877                1.60767058               23.32329287                0.93811541               -0.41998836               -0.41528538                1.39442825                0.00143993                0.11562670               -0.21071559
               3.77224870                1.44087016               23.18568113                0.24558922               -0.29231778               -0.25141030                0.91947229                0.01993766                1.57163527               -1.67833662
               4.76991241                1.27369133               23.07454340                0.00436278               -0.18065680               -0.12252370                0.48048272                0.05965107                4.07960342               -1.86366910
               5.76863556                1.10715786               22.98637258                0.00891801               -0.05676876               -0.06921569                0.03497737                0.09580353                6.90781680                0.61817201
               6.76877704                0.94170578               22.93023514                0.01247020                0.10630795               -0.00962231               -0.41943526                0.12188226                8.50791317                0.75635841
               7.77076172                0.77655699               22.87277854                0.00968113                0.27298694                0.06079667               -0.85799813                0.10161938                6.91731062                0.77685645
               8.77423678                0.61089069               22.78500786                0.21289976                0.40634941                0.32368305               -1.28591772                0.03077341                4.17455533                2.17149791
               9.77888871                0.44497847               22.67355100                0.58751528                0.53011902                0.47813631               -1.72902267                0.00553865                2.15402808                1.79958023
              10.78483916                0.27960162               22.54586369                1.00000000                0.66523347                0.64121935               -2.18674617               -0.00152018                0.78271308                0.85855602
              11.79219338                0.11500488               22.40696541                1.00000000                0.73542240                0.84265604               -2.72042341               -0.05150421                0.22746137               -1.10514501
               1.94559231                2.76829465               23.41890448                1.00000000               -0.41961942               -0.52850145                1.68859765               -0.04605827                0.20514798                1.75260320
               2.94139612                2.60387967               23.26890364                0.70994335               -0.34549301               -0.33710264                1.13624876               -0.00885880                0.43227464               -0.61101375
               3.93868245                2.43878798               23.12342164                0.09035709               -0.22497984               -0.14715367                0.62878177               -0.00093649                2.36492201               -2.97558670
               4.93689652                2.27286540               23.01208853                0.00010000               -0.16322402               -0.10005318                0.27102900               -0.05503305                8.41671356               -1.22020783
               5.93541797                2.10598586               22.98744923                0.00010000               -0.07015749               -0.12388808                0.00519157               -0.03778721               12.09455728                0.90732886
               6.93549337                1.94026308               22.94851734                0.00010000                0.08685239               -0.17014703               -0.32918376                0.02435055               11.29119440                1.60590833
               7.93715502                1.77509373               22.90653059                0.00010000                0.20741426               -0.16431292               -0.66767256                0.14596617               11.00876311                2.17307526
               8.93964165                1.61330202               22.86111686                0.07430395                0.32804795               -0.04355115               -0.99668677                0.11501984                7.73485333                3.87147438
               9.94371598                1.44910379               22.75284304                0.31343307                0.46014099                0.19648114               -1.36749994               -0.08041715                3.39364166                4.71024613
              10.94884447                1.28546073               22.62044566                0.75670075                0.57694970                0.50020992               -1.86922377               -0.06098525                1.31590111                1.71905125
              11.95525497                1.12313385               22.47039342                1.00000000                0.64104959                0.82221363               -2.44819740               -0.09765076                0.43921475               -0.99355440
               2.10855728                3.76331846               23.37277921                1.00000000               -0.34690084               -0.46235764                1.47005434               -0.04629170                0.04313913                1.58669593
               3.10508827                3.60092853               23.20922808                0.66004768               -0.26565180               -0.25478215                0.86637037               -0.00451801                0.17461346               -0.88447265
               4.10324424                3.43792708               23.04828365                0.06647138               -0.17371970               -0.04036115                0.28169787               -0.10808381                5.81193906               -3.50381209
               5.10161387                3.27169027               22.99748000                0.00010000               -0.13810524               -0.09889323                0.24317633               -0.26558319               13.11888717                0.33383740
               6.10048214                3.10468009               22.98226265                0.00010000               -0.07288507               -0.13271899               -0.02516036               -0.26590606               15.11475092                0.72451297
               7.10015617                2.93830283               22.97039057                0.00010000                0.00799852               -0.20102496               -0.25041173               -0.22652188               15.16343485                1.89421492
               8.10064211                2.77327074               22.95512449                0.00010000                0.11854722               -0.23929027               -0.48868420               -0.18204809               14.65210506                3.15534694
               9.10252712                2.61001967               22.93185509                0.07821941                0.22397773               -0.35248599               -0.75878118               -0.10057196               12.12556530                4.46256622
              10.10512166                2.44890809               22.86489959                0.30501177                0.35311396               -0.08367759               -0.84362576               -0.06040766                5.30863387                5.48704754
              11.10958940                2.28960581               22.70406060                0.70611787                0.48862383                0.36076686               -1.48219649               -0.01680057                0.35165444                1.94686412
              12.11489414                2.13144915               22.53733965                1.00000000                0.53047410                0.79403385               -2.15392449               -0.06469418                0.06304458               -0.79628028
               2.26944635                4.75904750               23.32491444                1.00000000               -0.27492144               -0.39119003                1.24796104               -0.04509297                0.02286165                1.47439258
               3.26669714                4.59878402               23.14929348                0.63251778               -0.18436595               -0.17542005                0.60123518                0.00000845                0.10147411               -0.90536316
               4.26575903                4.43798076               22.97521428                0.05473362               -0.09326469                0.04669566               -0.03494676               -0.25230478                8.51811927               -3.32971265
               5.26483184                4.27088753               22.96790197                0.00010000               -0.11358764               -0.03380622                0.05040946               -0.52197201               17.89242958               -0.66696432
               6.26348728                4.10333148               22.98090898                0.00010000               -0.12297775               -0.10719807               -0.05860213               -0.55068685               19.04241415                0.79484866
               7.26237229                3.93624258               22.99568991                0.00010000               -0.08450288               -0.20591184               -0.17645783               -0.56696929               19.13928956                2.12308794
               8.26179722                3.77030793               23.00949626                0.00010000               -0.01897153               -0.32047066               -0.30992409               -0.55761283               19.02654171                3.62907221
               9.26199286                3.60625230               23.02063329                0.08675442                0.05622271               -0.41324056               -0.47195206               -0.40561773               15.46463077                5.50167349
              10.26292168                3.44743024               22.96139828                0.31716950                0.19872720               -0.17542765               -0.40649123               -0.12309613                6.09299296                4.23793321
              11.26596740                3.29267607               22.78364228                0.72034551                0.36763649                0.26375489               -1.12041653               -0.00209247                0.09955622                1.54910545
              12.27027441                3.13901452               22.60405346                1.00000000                0.43070041                0.69928122               -1.85204233               -0.04419081                0.01267400               -0.90363634
               2.42818237                5.75549466               23.27657041                1.00000000               -0.20271890               -0.31981651                1.02633509               -0.04466407                0.02011998                1.43438795
               3.42615518                5.59742013               23.08910982                0.60760192               -0.10438677               -0.09748813                0.33665461                0.00327650                0.10571274               -0.92420835
               4.42609464                5.43886100               22.90332411                0.04461592               -0.01657349                0.12997432               -0.34192166               -0.39818238               11.03125999               -3.25741368
               5.42582371                5.27101414               22.93433145                0.00010000               -0.09906438                0.06997951               -0.14959192               -0.83050402               22.53285209               -0.96326266
               6.42411335                5.10253613               22.97815788                0.00010000               -0.19916883               -0.03160454               -0.11477085               -0.90361843               23.27837834                0.63935901
               7.42184034                4.93418460               23.02323922                0.00010000               -0.23166096               -0.18368692               -0.10300860               -0.98276416               23.42122580                2.21377698
               8.41948013                4.76686132               23.06873457                0.00010000               -0.22739418               -0.35135107               -0.11859700               -1.02877471               23.49273936                3.90576250
               9.41729245                4.60175486               23.11364788                0.09544572               -0.16220781               -0.48242616               -0.17225205               -0.75478153               18.13696364                5.77384449
              10.41623597                4.44539954               23.04994990                0.33034054                0.03354050               -0.23339760               -0.00149227               -0.22176224                6.44508391                3.62606969
              11.41796326                4.29488091               22.85973919                0.73818428                0.25487198                0.17643124               -0.77298717               -0.00441425                0.07214924                1.24220752
              12.42133341                4.14543478               22.66822599                1.00000000                0.33701502                0.58588106               -1.56124188               -0.04271044                0.01119770               -1.10690442
               2.58470215                6.75265117               23.22791594                1.00000000               -0.13058117               -0.24945501                0.80484472               -0.04410680                0.02094855                1.40480566
               3.58339634                6.59683426               23.02870199                0.58422321               -0.02503897               -0.01968286                0.07311338                0.00612968                0.12288136               -0.94245349
               4.58420137                6.44058024               22.83148382                0.03513906                0.05751454                0.21477139               -0.64594505               -0.53174068               13.47991840               -3.25004415
               5.58454663                6.27228712               22.89935243                0.00010000               -0.09784562                0.19876396               -0.35135436               -1.12559646               27.12041511               -1.11308395
               6.58224446                6.10269939               22.97448466                0.00010000               -0.30774060                0.08221987               -0.17266382               -1.27579844               27.60964718                0.51164801
               7.57839181                5.93256885               23.05136091                0.00010000               -0.42964930               -0.11866129               -0.02650773               -1.43558517               27.83971954                2.15481085
               8.57365147                5.76328091               23.12992441                0.00010000               -0.50164020               -0.34902926                0.08698865               -1.53378666               28.05651428                3.94096108
               9.56835901                5.59660378               23.20950651                0.10426669               -0.41455467               -0.54176599                0.15788180               -1.11651106               20.52312939                5.94397400
              10.56536038                5.44276229               23.13529370                0.34383559               -0.12575656               -0.29655782                0.38997219               -0.30412280                6.50246341                3.33608639
              11.56584388                5.29620469               22.93348064                0.75684412                0.14760439                0.08783819               -0.43580988               -0.00778257                0.07122466                1.04049714
              12.56831246                5.15073215               22.73038875                1.00000000                0.24685850                0.47507684               -1.27858401               -0.04255990                0.01114606               -1.25100440
               2.73893405                7.75050556               23.17897911                1.00000000               -0.05853500               -0.18054110                0.58378244               -0.04351934                0.02126214                1.37508275
               3.73834870                7.59702647               22.96805372                0.56216864                0.05364529                0.05833114               -0.18914538                0.00890096                0.14396455               -0.96003796
               4.74000696                7.44315642               22.75953425                0.02604561                0.14219673                0.30141121               -0.94746033               -0.64121123               15.86556327               -3.24432453
               5.74119264                7.27498942               22.86296960                0.00010000               -0.08456513                0.34087059               -0.54559302               -1.35441169               31.65632403               -1.21713937
               6.73831566                7.10418053               22.96968443                0.00010000               -0.43227636                0.21819104               -0.22657369               -1.58193668               31.96879061                0.37175253
               7.73254711                6.93181137               23.07859535                0.00010000               -0.67730988               -0.00312437                0.05556225               -1.82949623               32.31223559                1.93577759
               8.72476946                6.75988074               23.19108313                0.00010000               -0.85331304               -0.29661043                0.30787422               -2.02814417               32.75707357                3.73157193
               9.71548085                6.59091954               23.30739503                0.11324321               -0.71084283               -0.57169239                0.52588133               -1.48563169               22.79788716                5.96384014
              10.71055260                6.43946838               23.21881189                0.35759332               -0.28215492               -0.36336505                0.77293439               -0.38171333                6.35904354                3.15727749
              11.70983775                6.29663768               23.00573208                0.77624593                0.04373548               -0.00152647               -0.10548140               -0.01206232                0.07519482                0.92315089
              12.71142731                6.15493631               22.79130143                1.00000000                0.15895601                0.36744480               -1.00169538               -0.04299662                0.01135262               -1.32435534
               2.89078995                8.74904035               23.12972113                1.00000000                0.01335435               -0.11410282                0.36333455               -0.04282541                0.02817524                1.35184405
               3.89092350                8.59800088               22.90719388                0.54131352                0.13121192                0.13767354               -0.44984648                0.01083311                0.17809223               -0.98986164
               4.89341419                8.44660847               22.68761202                0.01716068                0.27553955                0.38875102               -1.24574016               -0.73193855               18.21849153               -3.13728765
               5.89643429                8.27910454               22.82580969                0.00010000                0.01847906                0.42822166               -0.72578654               -1.46452078               36.12791248               -1.14427940
               6.89378377                8.10706321               22.96343195                0.00010000               -0.51663024                0.30486338               -0.27431858               -1.63260939               36.24538730                0.23619205
               7.88610168                7.93250636               23.10297927                0.00010000               -0.99016745                0.18835122                0.13819716               -1.93458739               36.72445441                1.50133433
               8.87398042                7.75734870               23.24910206                0.00010000               -1.35214753               -0.08757539                0.53385040               -2.36473681               37.58685231                3.07321936
               9.85905873                7.58516993               23.40483685                0.12240151               -1.09862258               -0.50829291                0.92237254               -1.90736750               25.15620704                5.51955030
              10.85200797                7.43549499               23.30109324                0.37161185               -0.44620144               -0.42998652                1.14892113               -0.48593876                6.18329530                2.93219371
              11.85013470                7.29617417               23.07723254                0.79646547               -0.05763590               -0.09161392                0.22033133               -0.01874027                0.09909437                0.89565253
              12.85085525                7.15808104               22.85170425                1.00000000                0.07205509                0.26349133               -0.72837454               -0.04373085                0.01932514               -1.34302867
               3.04015648                9.74822351               23.08030409                1.00000000                0.08407732               -0.05125899                0.14531028               -0.04178201               -0.00129091                1.15013631
               4.04099725                9.59977994               22.84585064                0.52133210                0.20540313                0.21869371               -0.71022519                0.01012362                0.31287332               -0.89492609
               5.04426454                9.45093144               22.61762267                0.00806832                0.52251168                0.46994057               -1.53334384               -0.86284912               20.68753015               -2.36365268
               6.05144748                9.28355385               22.79057065                0.00010000                0.39985543                0.23935181               -0.88298188               -1.17049141               40.46882760               -0.68878840
               7.05226165                9.11027780               22.95591885                0.00010000               -0.39388047                0.30050035               -0.31495251               -1.14333982               40.22561569                0.11767441
               8.04356987                8.93557840               23.12188666                0.00010000               -1.37252494                0.37796747                0.20991925               -1.35846764               40.81231163                0.83096630
               9.02481115                8.75812923               23.29777794                0.00010000               -2.21913298                0.40699239                0.73423557               -1.96514722               42.36544511                1.77138325
               9.99918721                8.58075368               23.49460824                0.13185426               -1.74907760               -0.12177291                1.30993519               -1.92354191               27.83124268                3.65278855
              10.98982960                8.43086865               23.38041866                0.38589130               -0.61551605               -0.47834751                1.50868700               -0.65508494                6.39195671                2.06855880
              11.98687689                8.29480540               23.14897772                0.81753333               -0.15453265               -0.18127530                0.54503449               -0.02827745                0.25606659                0.80705011
              12.98673894                8.16020614               22.91202112                0.99997285               -0.01379490                0.16443373               -0.45782929               -0.04588894               -0.01618731               -1.13314023
               3.18684145               10.74801517               23.02698983                1.00000000                0.15765832               -0.02083376               -0.07892394                0.10445627                0.58415825                0.95674443
               4.18841803               10.60237476               22.78679360                0.75493717                0.27709219                0.25948198               -0.95835075                0.14168380                1.30812873               -0.77584679
               5.19238329               10.45600728               22.56101501                0.50141449                1.26300365                0.50758351               -1.76819743               -1.11228388               23.38679382               -1.68745010
               6.21367810               10.28389157               22.76230851                0.44169026                1.32545707                0.03377169               -0.99913146               -0.92364089               44.24069387               -0.39890591
               7.21889243               10.11307321               22.94739834                0.43279089               -0.12986043                0.27954176               -0.34769734               -0.52821447               43.61998775                0.05013287
               8.21108090                9.94006571               23.13286875                0.45050102               -1.46951183                0.44873110                0.25876155               -0.62813102               44.27904013                0.44889825
               9.18950220                9.76548855               23.32971424                0.49304393               -3.16162132                0.73593167                0.87120580               -1.39745667               46.23287406                0.98584941
              10.14784847                9.58273448               23.55474042                0.56914096               -3.23238219                0.19807973                1.56642711               -2.11189984               30.77404498                2.26581318
              11.12485455                9.42592804               23.44556778                0.69777801               -1.38084022               -0.49406173                1.79817442               -1.00679504                7.98171832                1.36086707
              12.12023167                9.29254866               23.21870472                0.91585171               -0.28592840               -0.22567378                0.85686525                0.10756137                1.32257768                0.70765071
              13.11913599                9.16136972               22.97646046                0.99994686               -0.10956799                0.11635746               -0.17071877                0.12180998                0.55654840               -0.92124056
               1.74428859                0.84424440               24.53567080                1.00000000               -0.55841762               -0.61624437                2.11930998               -0.11045894               -1.18780399                1.22938766
               2.73870442                0.66415263               24.39106869                1.00000000               -0.48458446               -0.45167176                1.61204334               -0.06908632               -1.22591448               -0.08142766
               3.73459690                0.48348715               24.24574324                0.69054500               -0.34076878               -0.29137722                1.09758257               -0.06919738               -0.89591055               -1.03753639
               4.73188904                0.30214620               24.10786378                0.52095136               -0.19780103               -0.16132054                0.59492224               -0.07225700                0.96659197               -0.11239878
               5.73064088                0.11992542               24.00058186                0.45597902               -0.04287552               -0.01893026                0.09197511               -0.06996053                3.87425441               -0.10266981
               6.73103153               -0.06292989               23.92239291                0.46139227                0.12638229                0.12819740               -0.43157027               -0.06317588                5.20519408                0.02183568
               7.73316853               -0.24588352               23.84281602                0.52785531                0.29593633                0.27291545               -0.94406196               -0.06450470                3.72085157                0.12280883
               8.73695026               -0.42835919               23.73437524                0.66819893                0.45441124                0.41263054               -1.44383258               -0.06919545                1.06587455                0.18420530
               9.74225675               -0.60997342               23.60041351                0.91443816                0.60294563                0.54873254               -1.95663465               -0.06944772               -0.76480753                0.52421787
              10.74900917               -0.79065245               23.45447273                1.00000000                0.75137152                0.70112450               -2.50573952               -0.07012664               -1.17519557                0.48213687
              11.75728418               -0.97068488               23.31196131                1.00000000                0.82750140                0.88006882               -3.01666911               -0.12472003               -0.99526489               -1.09188570
               1.92327577                1.83808196               24.48247222                1.00000000               -0.48835945               -0.58934358                1.89789071               -0.03728394               -0.00246736                1.55344906
               2.91839218                1.65963591               24.33723905                0.92244773               -0.41838125               -0.41504122                1.39451257                0.00189152                0.14202730               -0.23970149
               3.91490815                1.48057338               24.19488267                0.24109312               -0.27224201               -0.24657117                0.92017184               -0.00846981                1.62939485               -1.75076089
               4.91294734                1.30053299               24.07933876                0.00447782               -0.12144133               -0.11882406                0.47759094               -0.04371276                4.15363310               -1.91134711
               5.91247932                1.11973612               23.98668578                0.00904440                0.01784520               -0.12535296                0.02662761               -0.09050889                6.97742562                0.63208621
               6.91330424                0.93835209               23.92595777                0.01264058                0.13794062               -0.04048035               -0.43673264               -0.10703082                8.58761673                0.80468953
               7.91523813                0.75684564               23.86407742                0.00991242                0.24995082                0.06197887               -0.88254719               -0.09197633                7.01956904                0.84663400
               8.91830326                0.57576712               23.77201944                0.20900136                0.37353883                0.31593698               -1.31180996               -0.07086255                4.28026169                2.25762400
               9.92270891                0.39551390               23.65613551                0.57778823                0.51801876                0.47620203               -1.75386864               -0.03184584                2.24654339                1.88923343
              10.92866363                0.21635879               23.52389176                1.00000000                0.66802515                0.64428142               -2.20716081               -0.00683836                0.82901946                0.90352891
              11.93606941                0.03811581               23.37965552                1.00000000                0.74057797                0.85181840               -2.74086960               -0.05144304                0.23437695               -1.16162482
               2.10043500                2.83245753               24.43579203                1.00000000               -0.41841752               -0.53144023                1.68911639               -0.04671987                0.21078589                1.79422942
               3.09625082                2.65585181               24.28024599                0.69642320               -0.34522845               -0.33474913                1.13187090               -0.00994035                0.46150791               -0.66668182
               4.09353043                2.47855573               24.12969009                0.08779556               -0.21993876               -0.13742269                0.62416403               -0.03696130                2.49422345               -3.13276951
               5.09185205                2.29976972               24.01481049                0.00010000               -0.12594092               -0.14280905                0.27257717               -0.26076143                8.66556237               -1.22601953
               6.09101161                2.11741836               23.98744221                0.00010000               -0.00353264               -0.21238902               -0.00774414               -0.38497630               12.36287667                0.93557228
               7.09178140                1.93626051               23.94512367                0.00010000                0.14511808               -0.23463622               -0.35038611               -0.34151393               11.53541520                1.69156650
               8.09391397                1.75535606               23.89972001                0.00010000                0.25416747               -0.19089102               -0.69484791               -0.19341042               11.26765156                2.29704709
               9.09686474                1.57795955               23.85100476                0.07211436                0.35570953               -0.07581717               -1.02563095               -0.09602324                7.99250216                4.00604960
              10.10102816                1.39955062               23.73905768                0.30753790                0.47028767                0.14797388               -1.38904798               -0.14907871                3.56777994                4.95948224
              11.10627050                1.22223318               23.60165029                0.74089658                0.58565655                0.48877496               -1.88924936               -0.08063833                1.38454752                1.80890863
              12.11274129                1.04635149               23.44580699                1.00000000                0.64707961                0.84437225               -2.46816210               -0.11108758                0.46866505               -1.04125658
               2.27555282                3.82745315               24.38747225                1.00000000               -0.34576470               -0.46454449                1.46880167               -0.04658344                0.04223874                1.62071656
               3.27209517                3.65294093               24.21786027                0.64779369               -0.26509024               -0.25040437                0.85977924               -0.00426335                0.18345328               -0.94260515
               4.27025101                3.47782493               24.05104981                0.06446059               -0.16128468               -0.02764404                0.27072286               -0.19631821                6.10550819               -3.67200731
               5.26886948                3.29767681               23.99987825                0.00010000               -0.09810031               -0.17094694                0.23430392               -0.49960614               13.57763227                0.32953713
               6.26828901                3.11548834               23.98192625                0.00010000               -0.01666062               -0.19007411               -0.04353876               -0.58274028               15.48820021                0.74810402
               7.26853626                2.93365936               23.96775674                0.00010000                0.06909371               -0.26123016               -0.27744592               -0.56696987               15.56459123                1.96784361
               8.26967088                2.75302782               23.95007181                0.00010000                0.18259875               -0.29450052               -0.52246453               -0.51127333               15.04375956                3.26829506
               9.27218824                2.57425077               23.92407266                0.07604211                0.28914162               -0.41206264               -0.79752239               -0.35739689               12.61130374                4.59323103
              10.27545371                2.39847338               23.85638067                0.29947151                0.40308790               -0.16653799               -0.86016551               -0.15737401                5.62239447                5.76444420
              11.28025000                2.22613429               23.68915319                0.69142296                0.50786634                0.33671957               -1.49883779               -0.02216874                0.36913772                2.05446617
              12.28561104                2.05500325               23.51570716                1.00000000                0.53610422                0.82667502               -2.17156473               -0.06750911                0.06403430               -0.82795296
               2.44852777                4.82316664               24.33738102                1.00000000               -0.27339883               -0.39233081                1.24562310               -0.04540933                0.02275641                1.50674321
               3.44579378                4.65084372               24.15526437                0.62074582               -0.18297920               -0.17052837                0.59264028                0.00114060                0.10679098               -0.96027331
               4.44486819                4.47800285               23.97479781                0.05286439               -0.07986338                0.05866532               -0.04916346               -0.37504126                8.89029193               -3.47550827
               5.44419651                4.29635078               23.96832529                0.00010000               -0.07469654               -0.07286164                0.03215441               -0.80028532               18.53858338               -0.75577420
               6.44337425                4.11361688               23.98020130                0.00010000               -0.06469975               -0.15346809               -0.08471825               -0.87831801               19.59867855                0.80346222
               7.44290252                3.93103590               23.99375791                0.00010000               -0.01385797               -0.26000262               -0.21140550               -0.91206669               19.69739776                2.19064186
               8.44309710                3.74946605               24.00618386                0.00010000                0.06843641               -0.38345430               -0.35360556               -0.90060510               19.57715722                3.74434539
               9.44427125                3.56971830               24.01565812                0.08443869                0.14500355               -0.49350594               -0.52352907               -0.67565927               16.14088243                5.65846484
              10.44599717                3.39621986               23.95726436                0.31134461                0.25130021               -0.24248099               -0.42070200               -0.23142089                6.50856808                4.44768994
              11.44929725                3.22896757               23.77236473                0.70532455                0.38280125                0.24389250               -1.13492557               -0.00473806                0.10907453                1.63246629
              12.45365319                3.06288499               23.58544911                1.00000000                0.43559403                0.72731250               -1.86807458               -0.04365677                0.01333428               -0.93730691
               2.61929047                5.81960653               24.28681679                1.00000000               -0.20086955               -0.32024305                1.02317660               -0.04491839                0.01998340                1.46674195
               3.61728177                5.64953036               24.09242645                0.59631956               -0.10236692               -0.09233679                0.32633015                0.00476749                0.11132141               -0.97764366
               4.61724313                5.47899823               23.89982565                0.04291334               -0.00160167                0.14123557               -0.35861636               -0.54234937               11.47779175               -3.39511342
               5.61724974                5.29621958               23.93272051                0.00010000               -0.06028040                0.05262593               -0.17461019               -1.13945596               23.34879860               -1.05434889
               6.61603752                5.11241898               23.97685102                0.00010000               -0.14019896               -0.06482077               -0.14860078               -1.24844232               24.01883854                0.63463218
               7.61444576                4.92845931               24.02199797                0.00010000               -0.15305691               -0.23208307               -0.14717051               -1.34814853               24.15269840                2.27961947
               8.61297638                4.74535873               24.06727882                0.00010000               -0.12622553               -0.41585645               -0.17428127               -1.39971584               24.20862123                4.03032121
               9.61192125                4.56438066               24.11159234                0.09300178               -0.07001777               -0.56228545               -0.24032953               -1.04766903               18.98059994                5.94715078
              10.61157603                4.39362376               24.04987825                0.32424058                0.07844287               -0.28156779               -0.01344245               -0.33790980                6.94635709                3.80807856
              11.61349011                4.23101214               23.85194477                0.72270053                0.26635181                0.16338146               -0.78597466               -0.00737125                0.08099942                1.31061120
              12.61690306                4.06954950               23.65253362                1.00000000                0.34129575                0.60758578               -1.57681680               -0.04231338                0.01152897               -1.15065825
               2.78778174                6.81676178               24.23594451                1.00000000               -0.12843105               -0.24936378                0.80105063               -0.04431595                0.02073860                1.43713312
               3.78649743                6.64899698               24.02937640                0.57342406               -0.02248800               -0.01441825                0.06139710                0.00782699                0.12926440               -0.99396110
               4.78733198                6.48082756               23.82493549                0.03361027                0.07446087                0.22552123               -0.66457330               -0.68849959               13.99878244               -3.38321241
               5.78798665                6.29740330               23.89569858                0.00010000               -0.05831534                0.19671506               -0.38132308               -1.45602491               28.10298520               -1.19973529
               6.78616568                6.11232046               23.97256552                0.00010000               -0.24934290                0.06296349               -0.21339105               -1.63961529               28.53561624                0.50687417
               7.78299979                5.92639424               24.05084072                0.00010000               -0.34921214               -0.15825993               -0.07998088               -1.82330015               28.75185168                2.22195214
               8.77918143                5.74114892               24.13046459                0.00010000               -0.39734764               -0.40706186                0.01847284               -1.93274504               28.95058585                4.07639268
               9.77505284                5.55847259               24.21066941                0.10170253               -0.32869747               -0.61029604                0.07191824               -1.42306485               21.51977304                6.14743963
              10.77260748                5.39058850               24.13914870                0.33748354               -0.09143782               -0.32972169                0.38039982               -0.41801733                7.06738183                3.50415927
              11.77322408                5.23223520               23.92906479                0.74091325                0.15623591                0.07999758               -0.44757390               -0.01071862                0.08022502                1.09891814
              12.77573220                5.07503670               23.71752342                1.00000000                0.25081194                0.49192384               -1.29432890               -0.04226362                0.01141768               -1.30192649
               2.95393373                7.81461926               24.18479472                1.00000000               -0.05612054               -0.18005227                0.57947155               -0.04369080                0.02093517                1.40765073
               3.95337253                7.64924200               23.96610023                0.55186267                0.05665450                0.06354563               -0.20189893                0.01072610                0.15126467               -1.00936667
               4.95506682                7.48350866               23.74996377                0.02468378                0.16319031                0.31142965               -0.96742054               -0.80324165               16.45919694               -3.37290207
               5.95663633                7.30015388               23.85735587                0.00010000               -0.04062771                0.35067674               -0.57897408               -1.69194779               32.80569821               -1.29249589
               6.95425427                7.11367825               23.96719852                0.00010000               -0.37425183                0.21086914               -0.27306361               -1.95350616               33.07902832                0.36998649
               7.94915130                6.92529411               24.07885650                0.00010000               -0.60055681               -0.03072045               -0.00633628               -2.22543013               33.41089806                2.00252522
               8.94224313                6.73721750               24.19377746                0.00010000               -0.75654629               -0.34145642                0.22749624               -2.44025399               33.84577197                3.87364352
               9.93402037                6.55217473               24.31215982                0.11055916               -0.63950296               -0.62249437                0.42286399               -1.79543300               23.93538458                6.19782961
              10.92945307                6.38702933               24.22650844                0.35099277               -0.25964204               -0.38453692                0.76578967               -0.48910648                6.96392702                3.31604392
              11.92882753                6.23261209               24.00462550                0.75985849                0.05008514               -0.00548303               -0.11607408               -0.01489456                0.08471950                0.97524667
              12.93045478                6.07938798               23.78120392                1.00000000                0.16272455                0.38037798               -1.01780378               -0.04278959                0.01164796               -1.37991828
               3.11766245                8.81316073               24.13332995                1.00000000                0.01601084               -0.11324887                0.35852752               -0.04298793                0.02790746                1.38568408
               4.11782256                8.65026790               23.90262908                0.53151498                0.13464105                0.14271849               -0.46336380                0.01261612                0.18682713               -1.03765791
               5.12035527                8.48705615               23.67505342                0.01596348                0.30777743                0.39763208               -1.26655460               -0.89374087               18.89248725               -3.25751944
               6.12397811                8.30441683               23.81838213                0.00010000                0.08000261                0.43971944               -0.76145434               -1.78841579               37.44569198               -1.20234070
               7.12195532                8.11653785               23.96044719                0.00010000               -0.45130820                0.29906734               -0.32527159               -1.97354861               37.53405691                0.23698234
               8.11495194                7.92577983               24.10403536                0.00010000               -0.92297951                0.17574002                0.06952543               -2.29446314               38.01116484                1.55819393
               9.10349573                7.73431979               24.25401318                0.00010000               -1.28097958               -0.10592342                0.44396856               -2.75128881               38.88623011                3.20169033
              10.08933235                7.54602270               24.41350828                0.11961095               -1.05538675               -0.52948425                0.80629435               -2.21307420               26.42885391                5.76198140
              11.08238800                7.38289776               24.31256222                0.36477087               -0.43824055               -0.44142351                1.14443581               -0.58877619                6.81012724                3.07863195
              12.08056754                7.23212554               24.07939032                0.77959632               -0.05316784               -0.09274313                0.21102449               -0.02166146                0.11035098                0.94475399
              13.08132464                7.08264426               23.84433889                1.00000000                0.07571009                0.27310619               -0.74474088               -0.04360312                0.02009544               -1.40159457
               3.27885965                9.81235428               24.08173002                1.00000000                0.08697843               -0.05001716                0.13993003               -0.04194107               -0.00420252                1.18188839
               4.27972943                9.65209637               23.83867773                0.51200830                0.20917131                0.22358407               -0.72445515                0.01158007                0.32659306               -0.93611463
               5.28304307                9.49146130               23.60218359                0.00702618                0.58284472                0.47769320               -1.55474743               -1.02743531               21.45276618               -2.45130881
               6.29138632                9.30894827               23.78156274                0.00010000                0.51886124                0.21065036               -0.92023142               -1.41004563               41.95440026               -0.71929831
               7.29342030                9.11965959               23.95251246                0.00010000               -0.29531175                0.28465675               -0.36908664               -1.37116372               41.67976402                0.11820796
               8.28548009                8.92880891               24.12363786                0.00010000               -1.32229044                0.38063416                0.13648211               -1.58928466               42.27429597                0.86376078
               9.26697449                8.73509903               24.30466434                0.00010000               -2.21495846                0.43038923                0.63797990               -2.23286577               43.88155724                1.85177165
              10.24118092                8.54158505               24.50712391                0.12896609               -1.76998849               -0.07422704                1.18640888               -2.16139865               29.24517325                3.82534156
              11.23157472                8.37820085               24.39549767                0.37880502               -0.62665585               -0.48120741                1.50677017               -0.76240154                7.04309426                2.17119161
              12.22864780                8.23075723               24.15438963                0.80012319               -0.15147285               -0.18049689                0.53724990               -0.03156796                0.27564207                0.84912138
              13.22854526                8.08485010               23.90736112                0.99997790               -0.01025422                0.17134272               -0.47417488               -0.04589015               -0.01680885               -1.18451276
               3.43733945               10.81216039               24.02617028                1.00000000                0.16076877               -0.01938933               -0.08498363                0.10589971                0.59675559                0.98530834
               4.43894714               10.65473958               23.77713490                0.75042892                0.28076050                0.26432092               -0.97342655                0.14425254                1.35610539               -0.81081091
               5.44295466               10.49661002               23.54322455                0.50094746                1.43158786                0.51487177               -1.79020672               -1.31432782               24.25753189               -1.74837515
               6.46757890               10.30862984               23.75213331                0.44210622                1.58583702               -0.03184301               -1.03758966               -1.09969431               45.88425705               -0.42208501
               7.47467140               10.12223098               23.94365480                0.43298184                0.00739584                0.25713890               -0.40386180               -0.63675542               45.21584476                0.04434578
               8.46772681                9.93339252               24.13509441                0.45031141               -1.43045624                0.45836036                0.18241600               -0.74049761               45.88479776                0.46139627
               9.44606228                9.74292758               24.33795314                0.49237976               -3.23621331                0.78285518                0.77131700               -1.53393860               47.91240069                1.02592906
              10.40300255                9.54453816               24.56980540                0.56766889               -3.40472469                0.29531120                1.43940121               -2.30053533               32.33368924                2.37765245
              11.37796778                9.37327361               24.46354623                0.69416769               -1.48578083               -0.49272406                1.79728453               -1.16182150                8.71591860                1.42833034
              12.37328693                9.22851560               24.22724149                0.90697729               -0.28733461               -0.22416330                0.85056109                0.10378803                1.39444501                0.74324658
              13.37222109                9.08607112               23.97467492                0.99994237               -0.10658394                0.12210142               -0.18626276                0.12313512                0.58430335               -0.96417333
               1.87936160                0.91101800               25.55688134                1.00000000               -0.56033425               -0.61817563                2.12297612               -0.10980548               -1.22514064                1.26414993
               2.87375825                0.71821609               25.40719262                1.00000000               -0.48852289               -0.45168379                1.61243914               -0.06850882               -1.26689155               -0.08974646
               3.86959114                0.52478660               25.25670664                0.68746364               -0.36369209               -0.28785063                1.09429211               -0.09033203               -0.93422201               -1.05130761
               4.86648441                0.33011794               25.11378657                0.52035562               -0.25594144               -0.16002657                0.58845606               -0.11412805                0.93296278               -0.11577593
               5.86447231                0.13310894               25.00144665                0.45602038               -0.10799119               -0.01697030                0.07960881               -0.10849515                3.82959267               -0.10550068
               6.86432459               -0.06623748               24.91798325                0.46120036                0.11349654                0.13062766               -0.45185689               -0.08357284                5.15613267                0.02388560
               7.86674224               -0.26618882               24.83325281                0.52677609                0.34215370                0.27744975               -0.97009645               -0.09200422                3.68459264                0.12934690
               8.87116766               -0.46477594               24.71981206                0.66524950                0.50901251                0.41895875               -1.47003617               -0.09986322                1.03154243                0.19287952
               9.87692249               -0.66141858               24.58073651                0.90772720                0.63409554                0.55375518               -1.97943758               -0.08667577               -0.82248909                0.53287677
              10.88384957               -0.85655899               24.42930835                1.00000000                0.76433121                0.70536206               -2.52723649               -0.07134434               -1.23132196                0.51999328
              11.89220912               -1.05094540               24.28169632                1.00000000                0.83595419                0.88721018               -3.03611708               -0.12421194               -1.03194147               -1.14502506
               2.07106546                1.90483625               25.50146234                1.00000000               -0.48765904               -0.59193951                1.90031857               -0.03677398                0.01121576                1.59430454
               3.06618887                1.71369925               25.35118312                0.90651866               -0.41642845               -0.41456340                1.39399177                0.00209048                0.17098826               -0.27129404
               4.06273689                1.52190809               25.20408456                0.23646341               -0.25034536               -0.24105757                0.91947126               -0.03851495                1.68900605               -1.82549763
               5.06118196                1.32851768               25.08409522                0.00458779               -0.05859102               -0.11562149                0.47265030               -0.14988123                4.22638451               -1.95751372
               6.06156507                1.13293924               24.98690513                0.00915856                0.09778878               -0.18260542                0.01638560               -0.27794339                7.04234004                0.64299498
               7.06313774                0.93506880               24.92150048                0.01278922                0.17631786               -0.07335393               -0.45521337               -0.33771371                8.66022572                0.85083914
               8.06509143                0.73658568               24.85512760                0.01013435                0.23230883                0.06145512               -0.90767974               -0.28852119                7.11754116                0.91544097
               9.06778391                0.53941365               24.75877166                0.20497984                0.34279162                0.30728682               -1.33785624               -0.17401722                4.38582197                2.34297724
              10.07194726                0.34411897               24.63847363                0.56783585                0.50578124                0.47334294               -1.77837641               -0.07077321                2.34203328                1.98061311
              11.07789954                0.15049463               24.50172048                1.00000000                0.67030735                0.64682333               -2.22653071               -0.01278659                0.87771765                0.95050281
              12.08535341               -0.04207330               24.35214802                1.00000000                0.74538681                0.86012380               -2.75968530               -0.05150585                0.24134054               -1.21664852
               2.26090012                2.89917921               25.45268680                1.00000000               -0.41718956               -0.53462215                1.69007570               -0.04741137                0.21562926                1.83530525
               3.25672822                2.70992482               25.29154106                0.68276084               -0.34488520               -0.33206027                1.12680224               -0.01114307                0.49233811               -0.72559490
               4.25400241                2.51996545               25.13590492                0.08516526               -0.21362876               -0.12644413                0.61802675               -0.07598902                2.63092782               -3.29671291
               5.25245564                2.32780551               25.01754007                0.00010000               -0.08200442               -0.18757311                0.27259682               -0.47002519                8.91491130               -1.23726966
               6.25236232                2.12945683               24.98729435                0.00010000                0.07341119               -0.30280749               -0.02270857               -0.73537430               12.62332720                0.95794510
               7.25392387                1.93229544               24.94150962                0.00010000                0.21323202               -0.30216615               -0.37294148               -0.71259172               11.77509724                1.77205317
               8.25662696                1.73504029               24.89263364                0.00010000                0.31150813               -0.22064476               -0.72251516               -0.54078469               11.52418498                2.41679440
               9.26015403                1.54136980               24.84060424                0.06982545                0.38995415               -0.10913612               -1.05394559               -0.31657997                8.25334749                4.13533766
              10.26442605                1.34804828               24.72506208                0.30147318                0.48160390                0.09356620               -1.40919380               -0.22252814                3.74685324                5.21374516
              11.26978611                1.15637748               24.58266067                0.72499080                0.59444057                0.47430316               -1.90754759               -0.10225375                1.45420667                1.90142910
              12.27631486                0.96625708               24.42103018                1.00000000                0.65287488                0.86606375               -2.48558047               -0.12636616                0.49824001               -1.08673527
               2.44862602                3.89414380               25.40215525                1.00000000               -0.34462481               -0.46706922                1.46806436               -0.04684241                0.04118026                1.65440747
               3.44517977                3.70705804               25.22642366                0.63539743               -0.26448037               -0.24562233                0.85261326               -0.00383237                0.19262438               -1.00279656
               4.44333642                3.51937921               25.05369810                0.06236896               -0.14448499               -0.01353451                0.25812599               -0.28951442                6.40273600               -3.84593219
               5.44229008                3.32476622               25.00216608                0.00010000               -0.04843799               -0.24378602                0.22124005               -0.73758701               14.03799500                0.31393837
               6.44236766                3.12688309               24.98139187                0.00010000                0.05061856               -0.24904368               -0.06448066               -0.90374158               15.85764458                0.76452230
               7.44330245                2.92902547               24.96484165                0.00010000                0.14168599               -0.32406251               -0.30628665               -0.91482454               15.96185254                2.03461010
               8.44520138                2.73217279               24.94467520                0.00010000                0.25709393               -0.35262303               -0.55699782               -0.84906765               15.43232644                3.37357056
               9.44844433                2.53723093               24.91590464                0.07376462                0.36438219               -0.47339379               -0.83529332               -0.63032583               13.10663142                4.71375410
              10.45248902                2.34599029               24.84769628                0.29377458                0.46006693               -0.25809103               -0.87635379               -0.26449265                5.94743741                6.04543856
              11.45764566                2.15998070               24.67408384                0.67660771                0.52889338                0.30781692               -1.51413260               -0.02821404                0.38658698                2.16438204
              12.46306689                1.97524798               24.49390836                1.00000000                0.54212231                0.85924245               -2.18659743               -0.07039825                0.06466983               -0.85840958
               2.63413479                4.88983783               25.34982690                1.00000000               -0.27186224               -0.39388948                1.24381083               -0.04571133                0.02261219                1.53916507
               3.63141617                4.70501237               25.16114629                0.60884989               -0.18154195               -0.16514104                0.58341068                0.00249531                0.11242888               -1.01704691
               4.63050395                4.51969476               24.97423101                0.05091155               -0.06080697                0.07209200               -0.06503778               -0.50312913                9.26352242               -3.62503235
               5.63020003                4.32292979               24.96854506                0.00010000               -0.02378591               -0.11061720                0.00981642               -1.08672832               19.18491755               -0.85280365
               6.63002823                4.12447596               24.97921462                0.00010000                0.00688242               -0.20092685               -0.11408799               -1.21352976               20.15253431                0.80426573
               7.63033768                3.92581419               24.99146180                0.00010000                0.07059615               -0.31656499               -0.24886272               -1.26620341               20.25155421                2.24998234
               8.63144016                3.72798783               25.00242415                0.00010000                0.16961655               -0.44928840               -0.39884089               -1.25277291               20.12307949                3.84952690
               9.63373001                3.53190192               25.01016271                0.08202284                0.24731357               -0.57721742               -0.57516533               -0.96203417               16.83351279                5.80199241
              10.63638643                3.34288646               24.95298424                0.30537252                0.31170683               -0.31567583               -0.43548803               -0.35232228                6.94378232                4.65975385
              11.63996414                3.16253382               24.76094377                0.69020781                0.39929505                0.22061911               -1.14889612               -0.00811540                0.11894138                1.71656749
              12.64437233                2.98344193               24.56669197                1.00000000                0.44081841                0.75496655               -1.88237245               -0.04321876                0.01377726               -0.97207486
               2.81736271                5.88626601               25.29703394                1.00000000               -0.19899575               -0.32109640                1.02044718               -0.04516149                0.01985969                1.49930747
               3.81537275                5.70375522               25.09563642                0.58489966               -0.10031497               -0.08655520                0.31526294                0.00647554                0.11740134               -1.03254540
               4.81535641                5.52082105               24.89615179                0.04113527                0.02007775                0.15415586               -0.37706652               -0.69252347               11.92386923               -3.53567828
               5.81577431                5.32255387               24.93083925                0.00010000               -0.00718751                0.03636320               -0.20353106               -1.45901154               24.16301864               -1.15103932
               6.81521266                5.12286455               24.97518586                0.00010000               -0.06539003               -0.09932907               -0.18613499               -1.60366433               24.75631962                0.62303556
               7.81446651                4.92269417               25.02029581                0.00010000               -0.05772386               -0.28324159               -0.19474540               -1.72427136               24.87882864                2.33694988
               8.81405818                4.72318702               25.06524894                0.00010000               -0.00807480               -0.48388571               -0.23282002               -1.78066261               24.91682752                4.14369153
               9.81430501                4.52568658               25.10884129                0.09045955                0.03762485               -0.64584177               -0.31045859               -1.35849415               19.84887207                6.10519189
              10.81481068                4.33967678               25.04968105                0.31800107                0.13114367               -0.33355850               -0.02638998               -0.46836474                7.47791037                3.99276596
              11.81692789                4.16439308               24.84401969                0.70715166                0.27878058                0.14842551               -0.79903550               -0.01099757                0.09045324                1.37921655
              12.82038629                3.99034731               24.63668965                1.00000000                0.34584073                0.62906944               -1.59154895               -0.04201523                0.01171784               -1.19700597
               2.99825315                6.88341590               25.24393695                1.00000000               -0.12625013               -0.24964388                0.79755503               -0.04451138                0.02057850                1.46975677
               3.99699064                6.70328127               25.02992993                0.56250448               -0.01991563               -0.00843828                0.04886062                0.00970858                0.13626154               -1.04636672
               4.99785483                6.52277787               24.81819235                0.03199887                0.09928270                0.23797029               -0.68498092               -0.85226858               14.51621314               -3.51822525
               5.99897630                6.32365706               24.89172597                0.00010000               -0.00200949                0.19510425               -0.41500842               -1.79954771               29.08189005               -1.28995223
               6.99781464                6.12248937               24.97021683                0.00010000               -0.17232594                0.04170226               -0.25829221               -2.01623797               29.45687881                0.49661308
               7.99552978                5.92014936               25.04976129                0.00010000               -0.24900727               -0.20134686               -0.13792097               -2.22298235               29.65624257                2.28137499
               8.99283450                5.71831011               25.13029386                0.00010000               -0.27297064               -0.46909998               -0.05455369               -2.34204408               29.83325973                4.20110927
               9.99007037                5.51898509               25.21094488                0.09904080               -0.22609310               -0.68246587               -0.01885795               -1.74711362               22.55008167                6.33587966
              10.98831264                5.33621529               25.14290169                0.33099753               -0.04983527               -0.36505180                0.36967084               -0.54639894                7.67428863                3.67531098
              11.98907366                5.16550233               24.92452917                0.72492854                0.16554629                0.07119984               -0.45973606               -0.01415967                0.09003903                1.15749637
              12.99162356                4.99602331               24.70450217                1.00000000                0.25499002                0.50875846               -1.30988319               -0.04204422                0.01163547               -1.35596631
               3.17674175                7.88127314               25.19056854                1.00000000               -0.05367977               -0.17985836                0.57536069               -0.04383269                0.02068387                1.44053255
               4.17620495                7.70358646               24.96401574                0.54142789                0.05967503                0.06944749               -0.21542209                0.01266231                0.15929419               -1.05896154
               5.17793525                7.52558046               24.74018584                0.02323910                0.19334501                0.32301896               -0.98899165               -0.97372258               17.05067548               -3.50216232
               6.18007185                7.32645596               24.85139012                0.00010000                0.02301741                0.35968966               -0.61590905               -2.04519024               33.94947004               -1.36973233
               7.17839560                7.12369859               24.96422316                0.00010000               -0.29428646                0.19997654               -0.32420400               -2.33958409               34.18231830                0.36432078
               8.17418612                6.91866724               25.07846862                0.00010000               -0.50070129               -0.06302418               -0.07383260               -2.63321842               34.49919951                2.06320045
               9.16838157                6.71380502               25.19563306                0.00010000               -0.63642789               -0.39072397                0.14060131               -2.86161813               34.91937312                4.00699682
              10.16145757                6.51203726               25.31585231                0.10778027               -0.55080544               -0.67698102                0.31238829               -2.12064362               25.11579728                6.41955462
              11.15736546                6.33237574               25.23412768                0.34425777               -0.23104513               -0.40684460                0.75767514               -0.61021778                7.62233616                3.47821953
              12.15683666                6.16581707               25.00341060                0.74341828                0.05689839               -0.00986039               -0.12713650               -0.01809355                0.09530190                1.02766732
              13.15850343                6.00052248               24.77094535                1.00000000                0.16667691                0.39343151               -1.03409758               -0.04263612                0.01197202               -1.43850952
               3.35274985                8.87981873               25.13689168                1.00000000                0.01867197               -0.11260938                0.35388110               -0.04308946                0.02771270                1.41974343
               4.35293657                8.70467022               24.89792661                0.52156785                0.13805145                0.14826818               -0.47739298                0.01450513                0.19634109               -1.08524001
               5.35551088                8.52923825               24.66228093                0.01468036                0.35088911                0.40768394               -1.28851240               -1.06598836               19.56364935               -3.37746109
               6.35995435                8.33085085               24.81058060                0.00010000                0.16503992                0.44803775               -0.80045748               -2.13072930               38.75601832               -1.26106654
               7.35881168                8.12648891               24.95692652                0.00010000               -0.35976845                0.28678735               -0.38127081               -2.32878797               38.81363970                0.23543981
               8.35275899                7.91888888               25.10436978                0.00010000               -0.82897854                0.15636617               -0.00578459               -2.66377389               39.28532888                1.61115108
               9.34223211                7.71049563               25.25798143                0.00010000               -1.18361067               -0.12901553                0.34566272               -3.14343733               40.16796506                3.32449701
              10.32908677                7.50544547               25.42096274                0.11672755               -0.99518202               -0.55369387                0.67961568               -2.53087310               27.75263968                5.99697958
              11.32232847                7.32807839               25.32398196                0.35779402               -0.42608596               -0.45336310                1.13919137               -0.70400224                7.50006009                3.22854687
              12.32056505                7.16530512               25.08145303                0.76266199               -0.04842187               -0.09402107                0.20133966               -0.02484157                0.12280346                0.99444335
              13.32136003                7.00389194               24.83680943                1.00000000                0.07949784                0.28286895               -0.76141732               -0.04350055                0.02095548               -1.46278419
               3.52617699                9.87902095               25.08310269                1.00000000                0.08985423               -0.04889555                0.13465247               -0.04204003               -0.00711672                1.21370574
               4.52707554                9.70655182               24.83136154                0.50253753                0.21289286                0.22869950               -0.73874333                0.01312388                0.34107995               -0.97701635
               5.53043485                9.53373413               24.58652772                0.00590309                0.65655388                0.48598035               -1.57657784               -1.20552331               22.21449345               -2.53836979
               6.54020661                9.33541671               24.77216602                0.00010000                0.66734811                0.17289484               -0.96056857               -1.66605779               43.43094334               -0.74988068
               7.54378181                9.12943434               24.94853712                0.00010000               -0.16513475                0.25932732               -0.42851080               -1.60928029               43.12317488                0.11770536
               8.53690392                8.92179456               25.12461631                0.00010000               -1.24127895                0.37458248                0.05568790               -1.82450494               43.72238040                0.89479710
               9.51895623                8.71122471               25.31053754                0.00010000               -2.18232881                0.44669489                0.53193742               -2.50120307               45.37926683                1.92980846
              10.49325734                8.50096339               25.51833641                0.12598681               -1.77652326               -0.02604562                1.04947338               -2.40369184               30.71679112                3.99521232
              11.48342577                8.32330848               25.41055406                0.37158626               -0.63655310               -0.48404289                1.50434496               -0.88091859                7.76399807                2.27632107
              12.48052628                8.16393665               25.15972272                0.78265097               -0.14830001               -0.17976323                0.52931366               -0.03509005                0.29666215                0.89193165
              13.48045977                8.00617986               24.90253762                0.99998216               -0.00665117                0.17833592               -0.49074595               -0.04592082               -0.01736071               -1.23775503
               3.69684731               10.87884082               25.02529015                1.00000000                0.16385551               -0.01801267               -0.09099100                0.10737008                0.60909541                1.01385745
               4.69848587               10.70924421               24.76732507                0.74584832                0.28441070                0.26923871               -0.98831928                0.14688475                1.40463600               -0.84567556
               5.70253552               10.53895786               24.52521087                0.50044033                1.62235631                0.52237258               -1.81255594               -1.53670573               25.12425998               -1.80885093
               6.73093299               10.33430875               24.74155672                0.44250151                1.88563500               -0.11079644               -1.07918603               -1.29148262               47.51785439               -0.44529461
               7.74024822               10.13167545               24.93932111                0.43317201                0.17727637                0.22411114               -0.46543517               -0.74976996               46.79988223                0.03798019
               8.73447852                9.92638053               25.13651707                0.45011878               -1.36045008                0.45859651                0.09852488               -0.85483608               47.47570963                0.47295558
               9.71303922                9.71942953               25.34514058                0.49169257               -3.27746771                0.82048220                0.66125020               -1.66449968               49.57349282                1.06493530
              10.66892917                9.50492456               25.58352845                0.56615476               -3.56511965                0.39611705                1.29809463               -2.48441751               33.95518214                2.48832769
              11.64173683                9.31839754               25.48151347                0.69048853               -1.59686456               -0.49109428                1.79613712               -1.32962906                9.52407923                1.49738876
              12.63699187                9.16170985               25.23571594                0.89807216               -0.28908117               -0.22267984                0.84444297                0.09961566                1.46904276                0.77956558
              13.63595521                9.00745866               24.97273520                0.99993825               -0.10366674                0.12788065               -0.20174300                0.12442463                0.61279631               -1.00841010
               2.01916323                0.98036540               26.57813033                1.00000000               -0.56219449               -0.62028154                2.12707864               -0.10934085               -1.26270135                1.29884946
               3.01354129                0.77437669               26.42331747                1.00000000               -0.49223613               -0.45151040                1.61216364               -0.06816840               -1.30828424               -0.09888388
               4.00931851                0.56770516               26.26762908                0.68426862               -0.38664982               -0.28400099                1.08926326               -0.11239911               -0.97274975               -1.06333483
               5.00580829                0.35921339               26.11963290                0.51970585               -0.31412241               -0.15841645                0.57971919               -0.15571914                0.89804261               -0.11933466
               6.00303606                0.14689844               26.00217404                0.45604443               -0.17301291               -0.01501221                0.06472172               -0.14652135                3.78043138               -0.10850255
               7.00234803               -0.06948664               25.91335577                0.46098404                0.09977600                0.13291391               -0.47516906               -0.10340377                5.10122421                0.02546342
               8.00503158               -0.28704616               25.82341409                0.52567482                0.38746883                0.28197871               -0.99967015               -0.11808776                3.64540016                0.13549060
               9.01009741               -0.50242080               25.70497452                0.66223098                0.56395485                0.42552807               -1.49956412               -0.12957318                0.99869347                0.20141344
              10.01631068               -0.71479014               25.56082476                0.90089741                0.66627542                0.55907250               -2.00440010               -0.10379389               -0.87772780                0.53987064
              11.02342292               -0.92507684               25.40392800                1.00000000                0.77793686                0.70933655               -2.54955901               -0.07286352               -1.28543443                0.56040779
              12.03186941               -1.13448877               25.25123897                1.00000000                0.84464980                0.89377512               -3.05564808               -0.12402099               -1.06600905               -1.19611294
               2.22405853                1.97416258               26.52047860                1.00000000               -0.48688062               -0.59473359                1.90322367               -0.03630734                0.02604019                1.63495488
               3.21918972                1.76986159               26.36511889                0.89035180               -0.41411787               -0.41386629                1.39282335                0.00203750                0.20249321               -0.30552999
               4.21577617                1.56486515               26.21327209                0.23170520               -0.22676323               -0.23486154                0.91714916               -0.07004486                1.75068389               -1.90250522
               5.21465446                1.35762922               26.08879177                0.00469599                0.00723444               -0.11299635                0.46567335               -0.25821371                4.29881702               -2.00194266
               6.21592086                1.14674832               25.98701349                0.00926485                0.18159187               -0.24039582                0.00488920               -0.46570883                7.10411512                0.65039705
               7.21828629                0.93184250               25.91685350                0.01291803                0.21984624               -0.10764808               -0.47424365               -0.56893345                8.72673443                0.89369093
               8.22031778                0.71577363               25.84592382                0.01034641                0.21936853                0.05952548               -0.93310602               -0.48682725                7.21117121                0.98208952
               9.22267366                0.50183448               25.74526232                0.20083786                0.31414863                0.29770615               -1.36406119               -0.27835985                4.49082838                2.42704628
              10.22660076                0.29080059               25.62056798                0.55768668                0.49349672                0.46965053               -1.80259661               -0.11099171                2.44040883                2.07361989
              11.23254360                0.08201653               25.47936115                1.00000000                0.67201922                0.64876150               -2.24460255               -0.01939971                0.92887818                0.99959858
              12.24004114               -0.12555102               25.32446181                1.00000000                0.74975415                0.86726075               -2.77630073               -0.05187205                0.24835337               -1.26931402
               2.42703907                2.96847073               26.46959354                1.00000000               -0.41596023               -0.53806924                1.69161472               -0.04808279                0.21955197                1.87593378
               3.42287947                2.76609937               26.30278203                0.66898511               -0.34445471               -0.32909082                1.12106850               -0.01238603                0.52475372               -0.78776129
               4.42014998                2.56300793               26.14205062                0.08246429               -0.20593124               -0.11424768                0.61025274               -0.11793832                2.77561549               -3.46744183
               5.41876084                2.35695346               26.02026243                0.00010000               -0.03206865               -0.23393183                0.27134383               -0.68181261                9.16554597               -1.25507392
               6.41950860                2.14209053               25.98698804                0.00010000                0.15916048               -0.39449012               -0.03908700               -1.08737950               12.87677933                0.97314131
               7.42194405                1.92836040               25.93766484                0.00010000                0.28972257               -0.37215580               -0.39616613               -1.08712389               12.01124472                1.84553148
               8.42530306                1.71414435               25.88526971                0.00010000                0.37795981               -0.25324546               -0.75003176               -0.89452199               11.77911199                2.53037602
               9.42950325                1.50353332               25.82992585                0.06743672                0.43028693               -0.14335466               -1.08084645               -0.54576768                8.51753628                4.25807584
              10.43390879                1.29460287               25.71087380                0.29525595                0.49416411                0.03296995               -1.42671455               -0.30062136                3.93048979                5.47156276
              11.43938653                1.08789839               25.56349934                0.70896497                0.60291400                0.45611525               -1.92270750               -0.12601883                1.52443024                1.99574478
              12.44596707                0.88285644               25.39609539                1.00000000                0.65805422                0.88621463               -2.49871455               -0.14348214                0.52752169               -1.13000500
               2.62783959                3.96340120               26.41683354                1.00000000               -0.34347916               -0.46997427                1.46791674               -0.04703364                0.04000200                1.68778346
               3.62440480                3.76327977               26.23491253                0.62286721               -0.26381396               -0.24046742                0.84489973               -0.00311073                0.20218068               -1.06510603
               4.62256331                3.56258020               26.05621233                0.06019150               -0.12345955                0.00202949                0.24396379               -0.38696527                6.70299148               -4.02567701
               5.62193561                3.35295059               26.00430306                0.00010000                0.01015087               -0.31659621                0.20441903               -0.97856346               14.50057296                0.28553183
               6.62276633                3.13885852               25.98063664                0.00010000                0.12771918               -0.30911593               -0.08735859               -1.22758010               16.22498664                0.77238788
               7.62448999                2.92439939               25.96163101                0.00010000                0.22440468               -0.38895060               -0.33618589               -1.26848905               16.35647806                2.09277295
               8.62725442                2.71070872               25.93893185                0.00010000                0.34048981               -0.41307546               -0.59138238               -1.19386380               15.81918789                3.46921104
               9.63129979                2.49896739               25.90736679                0.07139308                0.44844183               -0.53559132               -0.87083166               -0.91852881               13.61156331                4.82215950
              10.63622326                2.29145999               25.83885360                0.28792085                0.52349337               -0.35863597               -0.89121438               -0.38227996                6.28269196                6.32763202
              11.64176965                2.09113883               25.65887054                0.66167708                0.55160712                0.27323350               -1.52695439               -0.03524486                0.40373039                2.27459530
              12.64725540                1.89217327               25.47197521                0.99019677                0.54857462                0.89028770               -2.19767376               -0.07329337                0.06477056               -0.88949176
               2.82634125                4.95907124               26.36225724                1.00000000               -0.27029929               -0.39592799                1.24250104               -0.04596676                0.02245944                1.57155090
               3.82363826                4.76129002               26.16693258                0.59681202               -0.18006956               -0.15919825                0.57350387                0.00422163                0.11849648               -1.07586067
               4.82273986                4.56304852               25.97349706                0.04888126               -0.03635016                0.08715619               -0.08255834               -0.63570547                9.63732715               -3.77843520
               5.82291125                4.35062154               25.96852162                0.00010000                0.03841720               -0.14663501               -0.01618277               -1.37999412               19.83153031               -0.95817466
               6.82350820                4.13590821               25.97791954                0.00010000                0.09064090               -0.24905242               -0.14610503               -1.55495620               20.70553546                0.79609167
               7.82472407                3.92058139               25.98878065                0.00010000                0.16747877               -0.37502841               -0.28799838               -1.62780547               20.80311371                2.29944723
               8.82685778                3.70588284               25.99820705                0.00010000                0.28286667               -0.51729366               -0.44453666               -1.61234292               20.66578188                3.94251535
               9.83038141                3.49282150               26.00415481                0.07951511                0.36169853               -0.66325325               -0.62524745               -1.26429481               17.54235933                5.92957429
              10.83409175                3.28743015               25.94855460                0.29924549                0.37934733               -0.39491795               -0.45023557               -0.48629312                7.39751288                4.87259755
              11.83796835                3.09336306               25.74938681                0.67499891                0.41702923                0.19361210               -1.16186404               -0.01235203                0.12896922                1.79951503
              12.84243233                2.90066220               25.54780166                0.99779335                0.44639813                0.78129542               -1.89447000               -0.04298169                0.01383702               -1.01042501
               3.02248270                5.95548264               26.30722573                1.00000000               -0.19707454               -0.32244620                1.01804355               -0.04537833                0.01977521                1.53188830
               4.02051195                5.76009581               26.09873171                0.57335773               -0.09825073               -0.07998427                0.30334327                0.00848419                0.12406869               -1.08906720
               5.02051769                5.56432332               25.89228432                0.03927714                0.04820414                0.16902394               -0.39736621               -0.84787845               12.36919258               -3.67922231
               6.02147604                5.35001789               25.92864989                0.00010000                0.05948333                0.02159246               -0.23600380               -1.78785680               24.97557545               -1.25336111
               7.02170735                5.13387747               25.97312832                0.00010000                0.02416054               -0.13463888               -0.22679187               -1.96796706               25.49193268                0.60362295
               8.02195925                4.91689882               26.01810306                0.00010000                0.05300523               -0.33662298               -0.24485375               -2.10955406               25.60072098                2.38413349
               9.02276746                4.70036285               26.06262242                0.00010000                0.12536653               -0.55479235               -0.29298765               -2.16956162               25.61854047                4.24367647
              10.02446658                4.48570232               26.10538316                0.08782106                0.15941867               -0.73211675               -0.38067416               -1.68679899               20.74227252                6.24477852
              11.02595583                4.28356163               26.04935045                0.31161922                0.19119975               -0.38910296               -0.03994381               -0.61370142                8.03955646                4.17945536
              12.02829057                4.09501108               25.83596406                0.69153112                0.29208366                0.13155786               -0.81204070               -0.01532090                0.10041604                1.44679350
              13.03179750                3.90779918               25.62070264                1.00000000                0.35069294                0.64997394               -1.60557622               -0.04186159                0.01168751               -1.24802095
               3.21620734                6.95262232               26.25189561                1.00000000               -0.12400848               -0.25037292                0.79421569               -0.04468292                0.02050107                1.50245829
               4.21496726                6.75969033               26.03035361                0.55144086               -0.01735662               -0.00148573                0.03533663                0.01179156                0.14401063               -1.09971292
               5.21586021                6.56642900               25.81123587                0.03030911                0.13163544                0.25267570               -0.70733278               -1.02243399               15.03200819               -3.65500831
               6.21759997                6.35105339               25.88739841                0.00010000                0.07038590                0.19433561               -0.45216837               -2.15505915               30.05701167               -1.38369431
               7.21726793                6.13321543               25.96739968                0.00010000               -0.07761771                0.01887555               -0.30682871               -2.40448397               30.37401554                0.48002038
               8.21604761                5.91384893               26.04808230                0.00010000               -0.13024446               -0.24745953               -0.19945150               -2.63311477               30.55354442                2.33145743
               9.21466304                5.69478699               26.12937352                0.00010000               -0.13004857               -0.53464907               -0.13082827               -2.75951569               30.70501989                4.31260711
              10.21344664                5.47817916               26.21029225                0.09628013               -0.10770370               -0.75771797               -0.11232040               -2.08818914               23.61574707                6.50610844
              11.21250897                5.27964810               26.14654211                0.32436177               -0.00111297               -0.40240874                0.35815660               -0.68996297                8.32467493                3.84941775
              12.21342438                5.09599422               25.91987007                0.70887573                0.17549639                0.06152470               -0.47228126               -0.01805493                0.10079182                1.21553379
              13.21601890                4.91366167               25.69132575                1.00000000                0.25945114                0.52556755               -1.32569591               -0.04189467                0.01181468               -1.41461456
               3.40745301                7.95047518               26.19630194                1.00000000               -0.05119031               -0.18004337                0.57129466               -0.04393371                0.02055191                1.47349098
               4.40694111                7.76006609               25.96179178                0.53085005                0.06264726                0.07634813               -0.22991767                0.01472604                0.16820847               -1.10858121
               5.40870595                7.56937683               25.73018393                0.02171496                0.23236582                0.33680264               -1.01244168               -1.15237233               17.63972253               -3.63162031
               6.41158842                7.35390460               25.84503769                0.00010000                0.10580873                0.36831075               -0.65624344               -2.41344695               35.08715196               -1.44864925
               7.41082213                7.13425498               25.96071444                0.00010000               -0.19315172                0.18586242               -0.37952910               -2.73919838               35.27861911                0.35404509
               8.40772539                6.91194963               26.07737984                0.00010000               -0.37876092               -0.09968790               -0.14612420               -3.05145632               35.57704004                2.11626290
               9.40324691                6.68966986               26.19658949                0.00010000               -0.49418465               -0.44408716                0.04838959               -3.29013152               35.97766947                4.12905206
              10.39784169                6.47054796               26.31840759                0.10491643               -0.44526994               -0.73504857                0.19621824               -2.46092177               26.34148037                6.62547840
              11.39434151                6.27551345               26.24166194                0.33739025               -0.19628994               -0.43028872                0.74898202               -0.74582289                8.33722694                3.64381955
              12.39391590                6.09624157               26.00208277                0.72691778                0.06415951               -0.01459719               -0.13866516               -0.02155880                0.10707703                1.08003564
              13.39562470                5.91831053               25.76052197                1.00000000                0.17088057                0.40673168               -1.05111203               -0.04250097                0.01236268               -1.50110790
               3.59614684                8.94902145               26.14040757                1.00000000                0.02132830               -0.11226302                0.34929391               -0.04308534                0.02763736                1.45375218
               4.59636013                8.76121730               25.89308122                0.51147828                0.14137086                0.15457427               -0.49202772                0.01642429                0.20672381               -1.13194052
               5.59897426                8.57316505               25.64928317                0.01331565                0.40463782                0.41935629               -1.31183178               -1.24875951               20.23131946               -3.49598055
               6.60445288                8.35841960               25.80237298                0.00010000                0.27323364                0.45349684               -0.84271179               -2.49125014               40.05779077               -1.32001586
               7.60443893                8.13693268               25.95282177                0.00010000               -0.24246397                0.26820650               -0.44194774               -2.69765269               40.08338552                0.23109248
               8.59960360                7.91185517               26.10391967                0.00010000               -0.70884296                0.13039714               -0.08704861               -3.04127677               40.54609056                1.65893496
               9.59026208                7.68590525               26.26092644                0.00010000               -1.06094929               -0.15669063                0.23991602               -3.53920872               41.43072043                3.43956946
              10.57838462                7.46347819               26.42710059                0.11375182               -0.91815862               -0.58121879                0.54359342               -2.86022012               29.13099972                6.22071543
              11.57189890                7.27104232               26.33534605                0.35067935               -0.40942435               -0.46588464                1.13356120               -0.83245268                8.25805498                3.38189399
              12.57019613                7.09570228               26.08341712                0.74568558               -0.04339739               -0.09543072                0.19129733               -0.02822140                0.13668285                1.04451770
              13.57103096                6.92179631               25.82911054                1.00000000                0.08348236                0.29293509               -0.77890412               -0.04341990                0.02192396               -1.52717169
               3.78219961                9.94822992               26.08442307                1.00000000                0.09263823               -0.04794245                0.12950534               -0.04199978               -0.00995901                1.24523120
               4.78312599                9.76315758               25.82390287                0.49290629                0.21644255                0.23408527               -0.75281901                0.01465274                0.35620990               -1.01678912
               5.78652846                9.57776396               25.57065204                0.00470159                0.74349002                0.49508248               -1.59874373               -1.39745479               22.97125751               -2.62344429
               6.79799579                9.36297454               25.76235137                0.00010000                0.84525219                0.12614685               -1.00392627               -1.93859914               44.89644606               -0.78001175
               7.80343350                9.13961911               25.94394225                0.00010000               -0.00342563                0.22449692               -0.49291353               -1.85735987               44.55454636                0.11594905
               8.79792728                8.91455757               26.12475162                0.00010000               -1.12968934                0.35974679               -0.03184576               -2.06325623               45.15516907                0.92334447
               9.78083972                8.68653605               26.31530309                0.00010000               -2.12135283                0.45574808                0.41688477               -2.76876525               46.85610536                2.00422423
              10.75550022                8.45892359               26.52811338                0.12292174               -1.76856729                0.02212276                0.89968439               -2.64958068               32.25105766                4.15996997
              11.74546837                8.26619576               26.42558457                0.36423250               -0.64513708               -0.48698777                1.50187255               -1.01138301                8.56154264                2.38398672
              12.74259748                8.09433296               26.16497590                0.76513987               -0.14500653               -0.17909060                0.52125991               -0.03883022                0.31938135                0.93539257
              13.74256824                7.92416923               25.89754621                0.99998637               -0.00292402                0.18557251               -0.50800090               -0.04599502               -0.01784046               -1.29312363
               3.96545153               10.94806260               26.02435046                1.00000000                0.16676115               -0.01673190               -0.09682428                0.10883228                0.62087554                1.04196309
               4.96711914               10.76589900               25.75736852                0.74118686                0.28783394                0.27414229               -1.00232113                0.14952006                1.45297204               -0.87965951
               5.97120821               10.58306670               25.50697343                0.49989079                1.83533040                0.53027402               -1.83493757               -1.77984826               25.98448113               -1.86753472
               7.00382575               10.36094254               25.73054959                0.44287376                2.22502462               -0.20319976               -1.12368999               -1.49920830               49.13925902               -0.46816889
               8.01570870               10.14142262               25.93434610                0.43335845                0.37978939                0.18035060               -0.53200139               -0.86710168               48.37088356                0.03093888
               9.01142154                9.91905011               26.13706491                0.44992352               -1.25939746                0.44925374                0.00782124               -0.97069425               49.05032248                0.48320365
               9.99052075                9.69502021               26.35117814                0.49098385               -3.28441214                0.84841613                0.54179900               -1.78836950               51.21332032                1.10213544
              10.94573330                9.46392065               26.59576729                0.56459762               -3.71294393                0.49970583                1.14279798               -2.66257506               35.64369486                2.59632577
              11.91626187                9.26130257               26.49946897                0.68675113               -1.71436197               -0.48931953                1.79526433               -1.51065871               10.41386747                1.56807704
              12.91144606                9.09212046               26.24413035                0.88914835               -0.29116866               -0.22124904                0.83855819                0.09511715                1.54671690                0.81657484
              13.91043850                8.92550776               25.97064006                0.99993449               -0.10075548                0.13385265               -0.21759268                0.12575542                0.64207436               -1.05405166
               2.16373328                1.05229845               27.59942291                1.00000000               -0.56394695               -0.62263280                2.13203786               -0.10904954               -1.30052962                1.33341310
               3.15809381                0.83263557               27.43943589                1.00000000               -0.49562879               -0.45114820                1.61097818               -0.06808687               -1.35019752               -0.10882672
               4.15382071                0.61223388               27.27849191                0.68096898               -0.40967537               -0.27974277                1.08198899               -0.13540372               -1.01101348               -1.07350518
               5.14990031                0.38941353               27.12538096                0.51900768               -0.37313166               -0.15642285                0.56907405               -0.19703530                0.86249450               -0.12283298
               6.14635808                0.16125998               27.00274109                0.45604932               -0.23956426               -0.01267993                0.04818881               -0.18410362                3.72599388               -0.11168549
               7.14510902               -0.07272367               26.90847987                0.46075105                0.08367101                0.13572133               -0.50113819               -0.12261454                5.03856116                0.02635833
               8.14803150               -0.30849846               26.81325940                0.52452972                0.43109215                0.28703186               -1.03353444               -0.14252606                3.60167715                0.14094453
               9.15373087               -0.54132327               26.68982077                0.65915660                0.61914801                0.43265165               -1.53423940               -0.15791235                0.96706354                0.20961438
              10.16041446               -0.77010762               26.54064850                0.89396649                0.69979034                0.56499428               -2.03360584               -0.12047815               -0.92977722                0.54506217
              11.16772667               -0.99621714               26.37831717                1.00000000                0.79262652                0.71323997               -2.57440839               -0.07462588               -1.33680153                0.60355954
              12.17626699               -1.22131334               26.22058336                1.00000000                0.85403141                0.89973489               -3.07668153               -0.12440463               -1.09683848               -1.24401606
               2.38230568                2.04607213               27.53952681                1.00000000               -0.48604403               -0.59777551                1.90693382               -0.03575921                0.04182010                1.67530356
               3.37744523                1.82812409               27.37903959                0.87394333               -0.41139918               -0.41298090                1.39086445                0.00183634                0.23641827               -0.34232415
               4.37407769                1.60943645               27.22242755                0.22680571               -0.20141660               -0.22787517                0.91265630               -0.10305868                1.81500954               -1.98141133
               5.37341690                1.38784930               27.09340869                0.00480868                0.07539741               -0.11103907                0.45728701               -0.36872139                4.37280329               -2.04427665
               6.37558564                1.16113318               26.98700292                0.00936734                0.26725978               -0.29817356               -0.00650763               -0.65391695                7.16456531                0.65346197
               7.37876210                0.92863354               26.91201561                0.01302578                0.26601966               -0.14238800               -0.49285752               -0.80016293                8.78767477                0.93150565
               8.38090603                0.69437185               26.83646548                0.01054477                0.20971104                0.05691222               -0.95845771               -0.68567939                7.29988037                1.04454668
               9.38295632                0.46300325               26.73149043                0.19658796                0.28752869                0.28750562               -1.39027119               -0.38298669                4.59429568                2.50855292
              10.38665661                0.23554232               26.60242170                0.54734148                0.48134770                0.46507701               -1.82645622               -0.15200419                2.54125893                2.16815094
              11.39258327                0.01091526               26.45682842                1.00000000                0.67312694                0.65000598               -2.26100763               -0.02659276                0.98252339                1.05098365
              12.40011915               -0.21231599               26.29662200                1.00000000                0.75358721                0.87284607               -2.78997169               -0.05281531                0.25533895               -1.31856028
               2.59891418                3.04034294               27.48651910                1.00000000               -0.41479619               -0.54181733                1.69395738               -0.04857922                0.22242149                1.91603632
               3.59476622                2.82437595               27.31396243                0.65510319               -0.34399293               -0.32593563                1.11484074               -0.01336043                0.55870285               -0.85314084
               4.59203432                2.60767637               27.14810998                0.07970062               -0.19685354               -0.10086080                0.60101698               -0.16275873                2.92908090               -3.64455263
               5.59082915                2.38719275               27.02296695                0.00010000                0.02305867               -0.28158162                0.26968835               -0.89597722                9.41912045               -1.28093942
               6.59249550                2.15529651               26.98651261                0.00010000                0.25189706               -0.48669183               -0.05602632               -1.44051904               13.12422770                0.97944678
               7.59586709                1.92442857               26.93358630                0.00010000                0.37263523               -0.44342068               -0.41940773               -1.46410133               12.24474140                1.90951402
               8.59994820                1.69263978               26.87763300                0.00010000                0.45167865               -0.28760913               -0.77704845               -1.25292054               12.03295221                2.63517060
               9.60490066                1.46442684               26.81898731                0.06495915                0.47570766               -0.17790458               -1.10556537               -0.78241673                8.78527391                4.37177470
              10.60946235                1.23919392               26.69652779                0.28887899                0.50762342               -0.03400938               -1.43991240               -0.38306754                4.11863305                5.73046791
              11.61505313                1.01678298               26.54420652                0.69277219                0.61054195                0.43349328               -1.93237334               -0.15174773                1.59473584                2.09004553
              12.62167319                0.79614358               26.37105589                1.00000000                0.66200616                0.90339286               -2.50493301               -0.16224990                0.55593077               -1.17214121
               2.81326808                4.03523578               27.43151358                1.00000000               -0.34234816               -0.47331451                1.46844308               -0.04708499                0.03876801                1.72068676
               3.80984460                3.82160537               27.24332166                0.61020859               -0.26311790               -0.23499860                0.83674438               -0.00182433                0.21225334               -1.12965181
               4.80800572                3.60741923               27.05857738                0.05792528               -0.09836870                0.01888477                0.22858729               -0.48802858                7.00593352               -4.21130384
               5.80787722                3.38221767               27.00625446                0.00010000                0.07668588               -0.38866402                0.18452311               -1.22204415               14.96605023                0.24256609
               6.80953944                3.15139934               26.97964470                0.00010000                0.21297884               -0.36951986               -0.11145987               -1.55340652               16.59218120                0.77001231
               7.81213680                2.91976513               26.95811793                0.00010000                0.31549532               -0.45487420               -0.36649789               -1.62671603               16.74984668                2.14032801
               8.81584935                2.68861967               26.93284755                0.00010000                0.43085221               -0.47461063               -0.62494393               -1.54432685               16.20613125                3.55300602
               9.82075384                2.45944515               26.89848800                0.06892461                0.53948842               -0.59749018               -0.90313423               -1.22142809               14.12642040                4.91610657
              10.82663911                2.23486213               26.82987199                0.28190540                0.59224067               -0.46761856               -0.90343837               -0.51088446                6.62702545                6.60714076
              11.83259866                2.01958513               26.64354475                0.64661765                0.57569207                0.23238059               -1.53597425               -0.04334663                0.42022646                2.38136457
              12.83815296                1.80575187               26.44995488                0.97836159                0.55542972                0.91812077               -2.20336794               -0.07601822                0.06408485               -0.92515564
               3.02523329                5.03087665               27.37467693                1.00000000               -0.26870147               -0.39851853                1.24162199               -0.04615868                0.02234523                1.60369411
               4.02254628                4.81967598               27.17261636                0.58464829               -0.17859181               -0.15262618                0.56289601                0.00641812                0.12516500               -1.13693581
               5.02166146                4.60805407               26.97257984                0.04675897               -0.00690622                0.10392776               -0.10162750               -0.77200744               10.01154328               -3.93607924
               6.02240815                4.37941947               26.96822141                0.00010000                0.11092241               -0.18039066               -0.04528250               -1.67916845               20.47909039               -1.07225479
               7.02387991                4.14790611               26.97629252                0.00010000                0.18521431               -0.29712392               -0.18015929               -1.90148385               21.25945528                0.77751727
               8.02611244                3.91533108               26.98570183                0.00010000                0.27508639               -0.43449645               -0.32806507               -1.99542554               21.35384175                2.33723077
               9.02938163                3.68314757               26.99353341                0.00010000                0.40585981               -0.58627980               -0.48966962               -1.97772495               21.20736615                4.02109321
              10.03422964                3.45247704               26.99765776                0.07691302                0.48615276               -0.75002213               -0.67243241               -1.58187196               18.26743959                6.03852529
              11.03910469                3.22984155               26.94397953                0.29297389                0.45334153               -0.47918813               -0.46420894               -0.63323200                7.86831728                5.08392140
              12.04329647                3.02143060               26.73770649                0.65968521                0.43573345                0.16302792               -1.17352553               -0.01750946                0.13888458                1.87833203
              13.04781936                2.81450600               26.52880257                0.98591752                0.45228901                0.80554673               -1.90442023               -0.04296363                0.01334476               -1.05657281
               3.23474626                6.02726541               27.31739481                1.00000000               -0.19507121               -0.32438950                1.01581144               -0.04556222                0.01975748                1.56428255
               4.23279555                5.81855285               27.10170329                0.56168764               -0.09620862               -0.07245201                0.29047069                0.01083474                0.13145848               -1.14738039
               5.23282209                5.60949779               26.88820446                0.03733270                0.08231333                0.18620104               -0.41952429               -1.00771312               12.81371710               -3.82599052
               6.23444181                5.37860985               26.92611918                0.00010000                0.13880301                0.00879521               -0.27164519               -2.12481770               25.78704405               -1.36161140
               7.23559815                5.14545686               26.97065002                0.00010000                0.12725105               -0.17012216               -0.27000128               -2.34017481               26.22719631                0.57528283
               8.23698683                4.91107520               27.01539874                0.00010000                0.17753719               -0.39146787               -0.29666470               -2.50242014               26.32005946                2.41939396
               9.23914889                4.67689407               27.05938919                0.00010000                0.27177952               -0.62761940               -0.35352255               -2.56435866               26.31581527                4.32790623
              10.24242242                4.44444471               27.10122781                0.08508801                0.29360136               -0.81971020               -0.44903288               -2.03143144               21.66118311                6.36286608
              11.24502092                4.22527837               27.04888218                0.30509651                0.25807988               -0.44746984               -0.05362700               -0.77376973                8.63054592                4.36719955
              12.24758402                4.02284569               26.82777888                0.67584026                0.30609833                0.11318477               -0.82505316               -0.02030906                0.11089748                1.51175485
              13.25114288                3.82186280               26.60457813                0.99585978                0.35588616                0.67028495               -1.61969283               -0.04183263                0.01143178               -1.30665293
               3.44174717                7.02438886               27.25982126                1.00000000               -0.12165731               -0.25172074                0.79084668               -0.04485081                0.02050036                1.53503729
               4.44053060                6.81822694               27.03063667                0.54026483               -0.01484879                0.00671883                0.02068933                0.01404022                0.15263235               -1.15408297
               5.44145019                6.61177809               26.80404570                0.02853352                0.17110644                0.27014818               -0.73179645               -1.19849299               15.54620251               -3.79358581
               6.44395272                6.37959537               26.88268260                0.00010000                0.15804368                0.19492760               -0.49256548               -2.52159219               31.02879306               -1.48122693
               7.44461107                6.14450367               26.96408026                0.00010000                0.03370519               -0.00497313               -0.35849639               -2.80329811               31.28815005                0.45602524
               8.44462683                5.90750172               27.04577226                0.00010000                0.00569393               -0.29600339               -0.26371274               -3.05217260               31.44509405                2.37036753
               9.44472494                5.67059518               27.12767730                0.00010000                0.02949418               -0.60304662               -0.20904379               -3.18302792               31.56755678                4.40834774
              10.44521671                5.43608283               27.20869847                0.09342401                0.02516866               -0.83531096               -0.20583346               -2.44553650               24.71814973                6.65430608
              11.44522832                5.22089215               27.15006483                0.31759306                0.05445736               -0.44150859                0.34642150               -0.84873190                9.01924048                4.02618059
              12.44630586                5.02369429               26.91508354                0.69276880                0.18600823                0.05125247               -0.48526939               -0.02231492                0.11265454                1.27228153
              13.44894848                4.82791169               26.67798826                1.00000000                0.26426238                0.54263657               -1.34264600               -0.04178929                0.01198453               -1.47958959
               3.64617309                8.02223099               27.20199443                1.00000000               -0.04859689               -0.18081094                0.56712111               -0.04396953                0.02060256                1.50631056
               4.64568712                7.81868723               26.95941738                0.52014689                0.06553500                0.08466926               -0.24563858                0.01673071                0.17813510               -1.15813150
               5.64748379                7.61490075               26.71993701                0.02010929                0.27986326                0.35362256               -1.03811061               -1.33917538               18.22631603               -3.76094264
               6.65128439                7.38250840               26.83826525                0.00010000                0.20710174                0.37707412               -0.69994548               -2.79622538               36.21892085               -1.52946573
               7.65162583                7.14535740               26.95663257                0.00010000               -0.07162601                0.16896375               -0.43866522               -3.15158202               36.36853998                0.33811666
               8.64985187                6.90515513               27.07554614                0.00010000               -0.23593042               -0.14029596               -0.22242224               -3.47874772               36.64522538                2.15986470
               9.64690722                6.66483314               27.19660085                0.00010000               -0.33185745               -0.50108760               -0.04773993               -3.72379921               37.02145985                4.23703644
              10.64321472                6.42773849               27.31977667                0.10195194               -0.32361993               -0.79644263                0.07633246               -2.81572489               27.61553567                6.81140866
              11.64043482                6.21644820               27.24910732                0.33038832               -0.15482705               -0.45492530                0.74008078               -0.89615160                9.11140146                3.81274251
              12.64011818                6.02387074               27.00063729                0.71036755                0.07187346               -0.01959743               -0.15069250               -0.02521567                0.12030333                1.13195627
              13.64187229                5.83271553               26.74992311                1.00000000                0.17541109                0.42062892               -1.06960781               -0.04236184                0.01284450               -1.56861446
               3.84795531                9.02077265               27.14387756                1.00000000                0.02401384               -0.11241520                0.34461075               -0.04297610                0.02782777                1.48717077
               4.84819545                8.81992032               26.88808605                0.50125235                0.14450963                0.16207559               -0.50760694                0.01807692                0.21808840               -1.17690350
               5.85084551                8.61885054               26.63604429                0.01187232                0.46880569                0.43371170               -1.33717213               -1.44278843               20.89510928               -3.61198848
               6.85757157                8.38713685               26.79372637                0.00010000                0.40435978                0.45657324               -0.88849801               -2.87033331               41.35058817               -1.37924762
               7.85893270                8.14788294               26.94808756                0.00010000               -0.09977166                0.24357958               -0.50712559               -3.07971884               41.34337584                0.22303381
               8.85557613                7.90469580               27.10262881                0.00010000               -0.56335531                0.09805404               -0.17359032               -3.42574608               41.79354219                1.69993198
               9.84766560                7.66057343               27.26277975                0.00010000               -0.91444883               -0.18878268                0.12790443               -3.93662340               42.67408269                3.54426588
              10.83728716                7.42015398               27.43183461                0.11068628               -0.82462774               -0.61212053                0.39986572               -3.19987459               30.56836682                6.42895958
              11.83117304                7.21179365               27.34665318                0.34343909               -0.38764710               -0.47914543                1.12802488               -0.97461775                9.08906343                3.53864442
              12.82953421                7.02330234               27.08527898                0.72864596               -0.03806911               -0.09697359                0.18088295               -0.03176390                0.15228996                1.09474047
              13.83041166                6.83632427               26.82123135                1.00000000                0.08774446                0.30361687               -0.79786071               -0.04330411                0.02307544               -1.59522601
               4.04701822               10.01998269               27.08569279                1.00000000                0.09525520               -0.04736675                0.12445688               -0.04172580               -0.01253678                1.27569860
               5.04797077                9.82192874               26.81630516                0.48313300                0.21966403                0.23996994               -0.76629667                0.01595871                0.37167100               -1.05391746
               6.05141150                9.62357499               26.55455285                0.00341052                0.84372768                0.50569167               -1.62217149               -1.60451493               23.72109211               -2.70496534
               7.06484532                9.39163987               26.75208749                0.00010000                1.05305010                0.07060455               -1.05104975               -2.22860277               46.34961209               -0.80952782
               8.07247250                9.15022899               26.93867885                0.00010000                0.19005710                0.18017922               -0.56224871               -2.11528947               45.97362365                0.11233117
               9.06864646                8.90711621               27.12397939                0.00010000               -0.98779619                0.33611038               -0.12551437               -2.30473543               46.57217647                0.94843988
              10.05271657                8.66105749               27.31887523                0.00010000               -2.03247266                0.45743518                0.29375551               -3.03412383               48.31018410                2.07331908
              11.02799701                8.41549608               27.53633010                0.11976876               -1.74612346                0.06946357                0.73817150               -2.89835598               33.85327470                4.31660910
              12.01779411                8.20686529               27.44059151                0.35675833               -0.65223682               -0.49016810                1.49974888               -1.15433703                9.44276220                2.49420083
              13.01495227                8.02193127               27.17014792                0.74757746               -0.14158787               -0.17849503                0.51309116               -0.04282575                0.34409527                0.97939853
              14.01496235                7.83878787               26.89237761                0.99999128                0.00100740                0.19328264               -0.52652418               -0.04605838               -0.01815487               -1.35086337
               4.24322870               11.01982531               27.02335367                1.00000000                0.16936288               -0.01573802               -0.10208119                0.11048983                0.63165658                1.06881124
               5.24492233               10.82471972               26.74727865                0.73643945                0.29076870                0.27909838               -1.01404055                0.15210951                1.49889182               -0.91160247
               6.24904408               10.62896437               26.48851212                0.49930150                2.07115857                0.53893879               -1.85797499               -2.04528097               26.83420157               -1.92231807
               7.28634550               10.38854894               26.71908292                0.44322040                2.60532485               -0.30909270               -1.17193478               -1.72387423               50.74733120               -0.49072209
               8.30115057               10.15148653               26.92868108                0.43354536                0.61537132                0.12575331               -0.60333593               -0.98873902               49.92863969                0.02291275
               9.29865293                9.91141801               27.13667349                0.44972634               -1.12736636                0.43018034               -0.08897270               -1.08757326               50.60806161                0.49164188
              10.27860325                9.66972213               27.35597656                0.49025713               -3.25703474                0.86646416                0.41397006               -1.90507080               52.82937826                1.13660406
              11.23351223                9.42154325               27.60638441                0.56299781               -3.84760646                0.60471711                0.97439386               -2.83506996               37.40461937                2.69958338
              12.20165112                9.20199028               27.51741876                0.68294998               -1.83785559               -0.48750079                1.79513492               -1.70483941               11.39320046                1.64044078
              13.19675512                9.01973244               27.25248711                0.88019636               -0.29369153               -0.21988236                0.83293133                0.09026697                1.62779593                0.85424356
              14.19577729                8.84018993               26.96838335                0.99993118               -0.09778360                0.14020576               -0.23435005                0.12724220                0.67224091               -1.10123259
               2.31312669                1.12682586               28.62077108                1.00000000               -0.56583456               -0.62533904                2.13888256               -0.10904042               -1.33847917                1.36708731
               3.30746834                0.89299276               28.45553703                1.00000000               -0.49867582               -0.45041964                1.60886493               -0.06820276               -1.39235240               -0.11917111
               4.30315317                0.65836378               28.28926886                0.67756673               -0.43296703               -0.27449239                1.07125782               -0.15916551               -1.04774788               -1.08071206
               5.29880900                0.42070127               28.13101439                0.51827391               -0.43480732               -0.15435676                0.55813135               -0.23852074                0.82649922               -0.12620293
               6.29445702                0.17614107               28.00313782                0.45603759               -0.31040317               -0.00950318                0.03162756               -0.22178924                3.66460958               -0.11527326
               7.29260094               -0.07603095               27.90333300                0.46048944                0.06335983                0.13971375               -0.52847702               -0.14139470                4.96506030                0.02650589
               8.29572422               -0.33063941               27.80274340                0.52335152                0.47243202                0.29303786               -1.07112804               -0.16520941                3.54980718                0.14542175
               9.30204958               -0.58156783               27.67428973                0.65603046                0.67472565                0.44068364               -1.57522499               -0.18441539                0.93457687                0.21711785
              10.30921873               -0.82743528               27.52015264                0.88696310                0.73512256                0.57196021               -2.06996901               -0.13609520               -0.97866118                0.54802157
              11.31675203               -1.07002815               27.35243983                1.00000000                0.80907656                0.71750059               -2.60465057               -0.07638158               -1.38479459                0.64986473
              12.32540026               -1.31144638               27.18970534                1.00000000                0.86482362                0.90516223               -3.10158175               -0.12577268               -1.12371547               -1.28717965
               2.54586938                2.12057247               28.55861727                1.00000000               -0.48520270               -0.60105871                1.91209213               -0.03468291                0.05815064                1.71473162
               3.54101735                1.88848857               28.39293618                0.85732209               -0.40810597               -0.41191401                1.38780805                0.00203467                0.27219357               -0.38147985
               4.53770726                1.65561886               28.23152522                0.22177616               -0.17411024               -0.21983690                0.90508066               -0.13784775                1.88290922               -2.06086453
               5.53753515                1.41915770               28.09793751                0.00493503                0.14489898               -0.11061871                0.45007606               -0.48206013                4.45061396               -2.08441730
               6.54060524                1.17604604               27.98688334                0.00946530                0.35210410               -0.35516943               -0.01608013               -0.84373660                7.22427820                0.65047827
               7.54457723                0.92536619               27.90699635                0.01310625                0.31176634               -0.17603464               -0.51037471               -1.03187593                8.84250969                0.96219040
               8.54684057                0.67229096               27.82675467                0.01072216                0.20130626                0.05525528               -0.98364422               -0.88451577                7.38276058                1.10022880
               9.54860336                0.42283900               27.71745689                0.19221720                0.26236870                0.27695385               -1.41683254               -0.48711403                4.69505030                2.58518581
              10.55208794                0.17828432               27.58403886                0.53683942                0.46952026                0.45986115               -1.84987846               -0.19243215                2.64398857                2.26337150
              11.55799376               -0.06285315               27.43414100                1.00000000                0.67364106                0.65055652               -2.27506274               -0.03389787                1.03857620                1.10489083
              12.56556076               -0.30239476               27.26866238                1.00000000                0.75670015                0.87635587               -2.79976642               -0.05482656                0.26235587               -1.36327916
               2.77660084                3.11480469               28.50347269                1.00000000               -0.41381884               -0.54576822                1.69714745               -0.04854959                0.22428334                1.95522649
               3.77246265                2.88475448               28.32507885                0.64112730               -0.34368790               -0.32278815                1.10875514               -0.01344670                0.59434617               -0.92172575
               4.76972708                2.65396704               28.15407096                0.07686866               -0.18610155               -0.08673005                0.59187817               -0.21118374                3.09259846               -3.82771108
               5.76874062                2.41848890               28.02565620                0.00010000                0.08233633               -0.33051272                0.26915580               -1.11376107                9.67696580               -1.31705319
               6.77137381                2.16903768               27.98586751                0.00010000                0.34889360               -0.57835889               -0.07259262               -1.79496488               13.36604854                0.97438464
               7.77571849                1.92044836               27.92927669                0.00010000                0.45936415               -0.51378880               -0.44225799               -1.84325711               12.47593644                1.96116964
               8.78056109                1.67046569               27.86972874                0.00010000                0.52977244               -0.32112686               -0.80394919               -1.61553529               12.28606889                2.72843102
               9.78631394                1.42397124               27.80781454                0.06238722                0.52505764               -0.21099668               -1.12937055               -1.02516748                9.05770457                4.47290811
              10.79106224                1.18176194               27.68207556                0.28233324                0.52196049               -0.10666305               -1.44719270               -0.46845949                4.31253103                5.98659254
              11.79675315                0.94298298               27.52485187                0.67636601                0.61623546                0.40596527               -1.93307451               -0.17918378                1.66504608                2.18034911
              12.80338695                0.70608074               27.34599673                1.00000000                0.66338023                0.91591170               -2.50024289               -0.18242008                0.58323871               -1.21632700
               3.00499880                4.10965711               28.44620240                1.00000000               -0.34127332               -0.47703983                1.46956055               -0.04700831                0.03762584                1.75283179
               4.00158607                3.88203280               28.25164742                0.59744321               -0.26248120               -0.22924059                0.82828330                0.00015711                0.22322196               -1.19670242
               4.99974917                3.65388426               28.06078408                0.05557990               -0.06983870                0.03664048                0.21265823               -0.59233766                7.31143763               -4.40349076
               6.00018929                3.41254745               28.00799352                0.00010000                0.14986536               -0.45885835                0.16243719               -1.46828154               15.43497274                0.18261684
               7.00274648                3.16447886               27.97840744                0.00010000                0.30473931               -0.42922241               -0.13619480               -1.88069797               16.96100876                0.75545154
               8.00628408                2.91509041               27.95430105                0.00010000                0.41302470               -0.52015784               -0.39686167               -1.98844565               17.14334173                2.17537563
               9.01100698                2.66586843               27.92643297                0.00010000                0.52598391               -0.53513138               -0.65756358               -1.89916278               16.59535693                3.62315538
              10.01680376                2.41861907               27.88930411                0.06635810                0.63500223               -0.65595214               -0.93188532               -1.53736138               14.65247291                4.99323203
              11.02370702                2.17615106               27.82078483                0.27572972                0.66437672               -0.58317751               -0.91209788               -0.65028962                6.98000073                6.87932085
              12.03009129                1.94526616               27.62815105                0.63141805                0.60049091                0.18563002               -1.54023452               -0.05288635                0.43551295                2.47817537
              13.03571684                1.71592348               27.42790785                0.96650319                0.56255483                0.94133779               -2.20301941               -0.07826244                0.06203441               -0.97328534
               3.23090928                5.10526389               28.38708968                1.00000000               -0.26706352               -0.40165772                1.24095300               -0.04631691                0.02232142                1.63541255
               4.22823864                4.88016967               28.17819050                0.57237561               -0.17717980               -0.14524526                0.55153965                0.00906854                0.13263528               -1.20044515
               5.22736568                4.65469985               27.97146451                0.04456102                0.02708709                0.12266983               -0.12212318               -0.91154884               10.38613300               -4.09836875
               6.22878039                4.40931173               27.96761597                0.00010000                0.19256003               -0.21114918               -0.07703023               -1.98322775               21.12826254               -1.19571396
               7.23121688                4.16045323               27.97431635                0.00010000                0.28898120               -0.34417385               -0.21573266               -2.25206471               21.81620045                0.74703207
               8.23456001                3.91004520               27.98221935                0.00010000                0.39161465               -0.49370715               -0.36854484               -2.36764884               21.90595499                2.36166561
               9.23904918                3.65976306               27.98841365                0.00010000                0.53620347               -0.65456706               -0.53354671               -2.34726408               21.75076141                4.08341723
              10.24528408                3.41085220               27.99070616                0.07421674                0.61800933               -0.83500688               -0.71563291               -1.91355872               19.00965675                6.12675614
              11.25140936                3.17009839               27.93927042                0.28655260                0.53194636               -0.56653669               -0.47680702               -0.79239853                8.35492936                5.29121400
              12.25592301                2.94669558               27.72591630                0.64428232                0.45488506                0.13014816               -1.18428416               -0.02348068                0.14833319                1.94919861
              13.26050706                2.72490749               27.50971326                0.97405471                0.45840582                0.82784791               -1.91415032               -0.04326812                0.01219714               -1.11655962
               3.45426090                6.10162395               28.32754196                1.00000000               -0.19294247               -0.32702217                1.01350363               -0.04574203                0.01980398                1.59644849
               4.45233148                5.87912790               28.10454113                0.54988668               -0.09423797               -0.06375462                0.27655564                0.01352645                0.13970012               -1.20749918
               5.45237614                5.65633765               27.88389383                0.03531176                0.12199413                0.20624412               -0.44354407               -1.17153939               13.25751354               -3.97619150
               6.45477136                5.40832446               27.92321699                0.00010000                0.22977876               -0.00144775               -0.31014205               -2.46906950               26.59820874               -1.47625376
               7.45697172                5.15759538               27.96772830                0.00010000                0.24249555               -0.20499241               -0.31527783               -2.71919033               26.96401580                0.53678491
               8.45962127                4.90521627               28.01216977                0.00010000                0.31414890               -0.44681620               -0.34948090               -2.90129235               27.03923825                2.44098153
               9.46325469                4.65277709               28.05555196                0.00010000                0.42879920               -0.70103858               -0.41330144               -2.96292724               27.01182779                4.39409596
              10.46819725                4.40191893               28.09640251                0.08226110                0.43804906               -0.90678939               -0.51385677               -2.39093635               22.60677687                6.45707789
              11.47201567                4.16482033               28.04827791                0.29842328                0.33076610               -0.50759132               -0.06681215               -0.94752351                9.25024138                4.55522174
              12.47481257                3.94786912               27.81946300                0.66007376                0.32059837                0.09429303               -0.83848019               -0.02544262                0.12213621                1.57275186
              13.47842764                3.73248044               27.58830878                0.98380489                0.36150674                0.69087014               -1.63581032               -0.04176401                0.01103099               -1.37587843
               3.67498655                7.09872345               28.26771254                1.00000000               -0.11910733               -0.25394271                0.78726523               -0.04497432                0.02060381                1.56756939
               4.67379547                6.87889458               28.03076740                0.52894870               -0.01241086                0.01630894                0.00479566                0.01655199                0.16218818               -1.20947266
               5.67473833                6.65882474               27.79659994                0.02668914                0.21728967                0.29108666               -0.75847752               -1.38017675               16.05891107               -3.93417963
               6.67814127                6.40928277               27.87754710                0.00010000                0.26014715                0.19735266               -0.53599391               -2.89857177               31.99801719               -1.58309000
               7.67994127                6.15635338               27.96022975                0.00010000                0.16055958               -0.02926843               -0.41285831               -3.21167880               32.20098700                0.42329945
               8.68135246                5.90110888               28.04280805                0.00010000                0.15733480               -0.34629497               -0.32991480               -3.47853694               32.33307552                2.39613164
               9.68308797                5.64574229               28.12519264                0.00010000                0.20348265               -0.67344728               -0.28780182               -3.61007918               32.42393069                4.48562261
              10.68542211                5.39271641               28.20617558                0.09048005                0.17103682               -0.91394684               -0.29726134               -2.81735212               25.85904661                6.77670338
              11.68650870                5.15994657               28.15347054                0.31068175                0.11659669               -0.48201883                0.33502608               -1.02208641                9.75835191                4.20530562
              12.68775404                4.94858144               27.91016468                0.67660415                0.19702252                0.04080665               -0.49883861               -0.02640366                0.12602555                1.32714155
              13.69044915                4.73872490               27.66447283                0.99388906                0.26951102                0.56073558               -1.36208729               -0.04153864                0.01228896               -1.55215753
               3.89301915                8.09654510               28.20764436                1.00000000               -0.04579228               -0.18284722                0.56263161               -0.04410908                0.02067015                1.53897452
               4.89256123                7.87945408               27.95687901                0.50931487                0.06826299                0.09484381               -0.26257114                0.01869861                0.18908980               -1.20756084
               5.89438441                7.66215939               27.70942172                0.01841275                0.33550230                0.37423539               -1.06640080               -1.53423774               18.81065172               -3.89047220
               6.89927127                7.41227152               27.83103878                0.00010000                0.32638128                0.38648158               -0.74705982               -3.19346303               37.34551224               -1.61303155
               7.90091204                7.15701001               27.95194113                0.00010000                0.06951735                0.14968475               -0.50131804               -3.57592067               37.45352812                0.31501415
               8.90066162                6.89829037               28.07293140                0.00010000               -0.07332317               -0.18441586               -0.30193086               -3.91360360               37.70556213                2.19185925
               9.89944557                6.63930814               28.19563469                0.00010000               -0.15078424               -0.56130545               -0.14645101               -4.16002054               38.05283410                4.32785378
              10.89764594                6.38364000               28.31993424                0.09889784               -0.18683250               -0.86062295               -0.04472466               -3.18358872               28.94101673                6.97241122
              11.89570892                6.15517995               28.25646356                0.32324206               -0.10698831               -0.48077728                0.73150411               -1.06138243                9.94727558                3.98476712
              12.89550617                5.94868525               27.99906892                0.69376349                0.08005141               -0.02474892               -0.16329816               -0.02875434                0.13549986                1.18303305
              13.89730995                5.74369515               27.73912981                1.00000000                0.18037808                0.43561991               -1.09055062               -0.04208205                0.01353629               -1.64162223
               4.10828641                9.09506650               28.14729979                1.00000000                0.02687513               -0.11386590                0.34018074               -0.04225507                0.02847631                1.51980758
               5.10855516                8.88079146               27.88292908                0.49088199                0.14748635                0.17162796               -0.52494773                0.01905333                0.23065196               -1.21964324
               6.11123613                8.66630944               27.62253973                0.01033812                0.54331101                0.45187204               -1.36539670               -1.64977465               21.55495048               -3.72596155
               7.11942138                8.41701241               27.78460302                0.00010000                0.55839364                0.45779529               -0.93846673               -3.26858040               42.63518620               -1.44005282
               8.12240401                8.15934708               27.94267926                0.00010000                0.06804399                0.21311021               -0.57672625               -3.47449024               42.59495012                0.20975144
               9.12078226                7.89742056               28.10044786                0.00010000               -0.39330378                0.05956583               -0.26470669               -3.81590458               43.02889762                1.73216705
              10.11453793                7.63451618               28.26348452                0.00010000               -0.74518658               -0.22512553                0.01091351               -4.33347442               43.89884464                3.63550282
              11.10587853                7.37550396               28.43509790                0.10753563               -0.71510665               -0.64670134                0.25051051               -3.54908287               32.06911074                6.61662852
              12.10023580                7.15033102               28.35790654                0.33607389               -0.36073830               -0.49328750                1.12293806               -1.13103105                9.99767270                3.69857527
              13.09866376                6.94808646               28.08703477                0.71156394               -0.03240351               -0.09862266                0.17003333               -0.03533022                0.17002623                1.14485217
              14.09958773                6.74743730               27.81315333                1.00000000                0.09239670                0.31524096               -0.81907196               -0.04312544                0.02445839               -1.66727506
               4.32072415               10.09426778               28.08691221                1.00000000                0.09752098               -0.04747138                0.11861665               -0.04069946               -0.01394405                1.30330312
               5.32169936                9.88288664               27.80857693                0.47317779                0.22219108                0.24642592               -0.77856307                0.01562070                0.38720397               -1.08616574
               6.32516797                9.67119683               27.53820861                0.00204291                0.95813375                0.51961764               -1.65054391               -1.83036904               24.46308026               -2.78323380
               7.34086203                9.42142742               27.74133038                0.00010000                1.29230547                0.00624154               -1.10309095               -2.53712860               47.79165574               -0.83993565
               8.35101408                9.16127222               27.93269727                0.00010000                0.41561970                0.12646692               -0.63660965               -2.38294091               47.38195198                0.10592956
               9.34917443                8.89948169               28.12224133                0.00010000               -0.81606938                0.30370925               -0.22467552               -2.54807756               47.97407790                0.96883500
              10.33469269                8.63480563               28.32117820                0.00010000               -1.91624915                0.45167355                0.16374911               -3.29581233               49.74055631                2.13510537
              11.31084944                8.37070597               28.54287681                0.11653440               -1.70934459                0.11498722                0.56648043               -3.14932379               35.52852346                4.46136056
              12.30050580                8.14531420               28.45557955                0.34916429               -0.65780756               -0.49370670                1.49826528               -1.31028907               10.41451138                2.60672056
              13.29769329                7.94671280               28.17523772                0.72997762               -0.13800135               -0.17797493                0.50474151               -0.04703053                0.37125114                1.02382443
              14.29774577                7.74999997               27.88701572                0.99999755                0.00524799                0.20171633               -0.54697741               -0.04612799               -0.01829684               -1.41111788
               4.53023471               11.09411708               28.02230883                0.99703389                0.17038205               -0.01507050               -0.10524880                0.11134582                0.63868211                1.09087284
               5.53193853               10.88571997               27.73708770                0.73159175                0.29266299                0.28333370               -1.02286709                0.15315308                1.53852475               -0.93613385
               6.53608797               10.67670180               27.46981393                0.49867077                2.33324446                0.55049689               -1.88724381               -2.33713699               27.67386886               -1.97459824
               7.57860342               10.41713724               27.70711089                0.44355139                3.03014798               -0.42901873               -1.22484906               -1.96713042               52.34338923               -0.51381122
               8.59669093               10.16187642               27.92227938                0.43372281                0.88419392                0.06041993               -0.67942380               -1.11443966               51.47496907                0.01348522
               9.59628729                9.90349475               28.13528545                0.44952632               -0.96467621                0.40130587               -0.19108784               -1.20505116               52.14941581                0.49761745
              10.57739740                9.64354965               28.35945754                0.48950709               -3.19519068                0.87440241                0.27901158               -2.01408103               54.41992498                1.16729746
              11.53238348                9.37780370               28.61525517                0.56136443               -3.96871083                0.70977304                0.79432593               -3.00123447               39.24326399                2.79552420
              12.49802319                9.14045689               28.53537167                0.67909471               -1.96730484               -0.48573136                1.79602915               -1.91209817               12.46984887                1.71439719
              13.49303738                8.94452696               28.26078898                0.87123486               -0.29661740               -0.21858397                0.82751242                0.08514613                1.71273201                0.89252418
              14.49209084                8.75147162               27.96595306                0.99992835               -0.09465470                0.14716558               -0.25262619                0.12897276                0.70334048               -1.15000075
               2.46743180                1.20394782               29.64220057                1.00000000               -0.56828132               -0.62826742                2.14764985               -0.10948970               -1.37880279                1.39947241
               3.46174899                0.95545385               29.47161319                1.00000000               -0.50217023               -0.45011791                1.61050358               -0.06882834               -1.43729606               -0.12991589
               4.45738840                0.70610692               29.29991706                0.67407595               -0.45938257               -0.26898582                1.06068738               -0.18591628               -1.08391407               -1.08394824
               5.45256134                0.45304323               29.13654358                0.51750546               -0.50283742               -0.15240865                0.54974644               -0.28120037                0.78889602               -0.13045585
               6.44733165                0.19146346               29.00337364                0.45600196               -0.38783478               -0.00504119                0.01655494               -0.26010244                3.59456981               -0.11926343
               7.44480464               -0.07952025               28.89791033                0.46018538                0.03696327                0.14539076               -0.55483136               -0.16016871                4.87853798                0.02613423
               8.44807091               -0.35361256               28.79183684                0.52212145                0.51042605                0.30036517               -1.10962945               -0.18677144                3.48544368                0.14900084
               9.45501316               -0.62331524               28.65831627                0.65285426                0.73101088                0.44973958               -1.62088302               -0.20935620                0.89552827                0.22347068
              10.46269113               -0.88691963               28.49924912                0.87992907                0.77324590                0.58064635               -2.11469089               -0.14923190               -1.02749435                0.54832125
              11.47047808               -1.14662217               28.32622416                1.00000000                0.82852610                0.72232144               -2.64544254               -0.07724963               -1.43062238                0.69931305
              12.47926165               -1.40497101               28.15855173                1.00000000                0.87835731                0.90980505               -3.13572797               -0.12869952               -1.14619673               -1.32459532
               2.71483087                2.19766515               29.57776866                1.00000000               -0.48497162               -0.60427399                1.91898893               -0.03346057                0.07310942                1.75283514
               3.70998116                1.95095267               29.40679575                0.84053977               -0.40481634               -0.41118301                1.38546083                0.00288982                0.30778253               -0.42320662
               4.70673455                1.70341706               29.24052916                0.21664723               -0.14550486               -0.21218117                0.89746903               -0.17564956                1.95549271               -2.14035260
               5.70707106                1.45151914               29.10241021                0.00508085                0.21389068               -0.11237783                0.44731496               -0.59967156                4.53289594               -2.12450524
               6.71101236                1.19141305               28.98668132                0.00955033                0.43349527               -0.41016828               -0.02334180               -1.03605772                7.28091661                0.63915662
               7.71574097                0.92193366               28.90180812                0.01315233                0.35441688               -0.20662467               -0.52682590               -1.26510071                8.89013922                0.98458379
               8.71810070                0.64939109               28.81679259                0.01087052                0.19160832                0.05713285               -1.00905698               -1.08453480                7.45936404                1.14752480
               9.71957313                0.38118215               28.70315378                0.18773744                0.23757892                0.26765176               -1.44530923               -0.59047381                4.79249418                2.65354064
              10.72285228                0.11888684               28.56542413                0.52618702                0.45790721                0.45497132               -1.87514722               -0.22982984                2.74887007                2.35684571
              11.72873128               -0.13939896               28.41132717                1.00000000                0.67356093                0.65010414               -2.28529420               -0.04024986                1.09867905                1.16168909
              12.73632350               -0.39587296               28.24062667                1.00000000                0.75922187                0.87712900               -2.80276187               -0.05807008                0.26857742               -1.40222511
               2.96018754                3.19186234               29.52046205                1.00000000               -0.41326645               -0.54948599                1.70086620               -0.04823070                0.22583637                1.99320587
               3.95605488                2.94723019               29.33613753                0.62710243               -0.34392997               -0.31965023                1.10356592               -0.01264230                0.63282676               -0.99349024
               4.95330894                2.70186329               29.15994754                0.07397616               -0.17414802               -0.07305943                0.58504992               -0.26403478                3.26764566               -4.01815533
               5.95257191                2.45079567               29.02835006                0.00010000                0.14435170               -0.38044535                0.27121911               -1.33604735                9.93854825               -1.36791488
               6.95619597                2.18326010               28.98506076                0.00010000                0.44763365               -0.66767589               -0.08835053               -2.15043437               13.60165967                0.95523625
               7.96152459                1.91634726               28.92474114                0.00010000                0.54678770               -0.58018421               -0.46482142               -2.22464291               12.70463756                1.99859304
               8.96713173                1.64753010               28.86155402                0.00010000                0.60916757               -0.34966127               -0.83116143               -1.98283728               12.53765507                2.80874946
               9.97370794                1.38203779               28.79639990                0.05973145                0.57719585               -0.23819897               -1.15699409               -1.27359916                9.33513582                4.55896715
              10.97867565                1.12217980               28.66758394                0.27563916                0.53624716               -0.18165776               -1.45234071               -0.55589870                4.51724438                6.23355483
              11.98443288                0.86637991               28.50554503                0.65966037                0.61863047                0.37415844               -1.91912094               -0.20768073                1.73818195                2.25956447
              12.99104825                0.61257157               28.32105103                0.99579733                0.66153724                0.92212929               -2.47815421               -0.20300638                0.60686687               -1.27204501
               3.20313056                4.18667543               29.46090479                1.00000000               -0.34031986               -0.48084995                1.47085564               -0.04704906                0.03671699                1.78427659
               4.19972736                3.94455967               29.25988732                0.58455660               -0.26210924               -0.22284127                0.81953907                0.00248615                0.23560263               -1.26666597
               5.19788838                3.70195587               29.06283054                0.05315954               -0.03870254                0.05568233                0.19634017               -0.69998624                7.61939119               -4.60414498
               6.19895331                3.44391023               29.00950321                0.00010000                0.22818545               -0.52569765                0.13872747               -1.71733451               15.90781173                0.10263899
               7.20245208                3.17805953               28.97692081                0.00010000                0.40123990               -0.48670981               -0.16131340               -2.20878500               17.33294974                0.72687283
               8.20697811                2.91032998               28.95018070                0.00010000                0.51506692               -0.58257925               -0.42725835               -2.35260085               17.53839412                2.19669662
               9.21275342                2.64239787               28.91969628                0.00010000                0.62366679               -0.59165895               -0.68976669               -2.25667418               16.98943958                3.67939127
              10.21945144                2.37641817               28.87985030                0.06370197                0.73193807               -0.70620137               -0.95767705               -1.86430599               15.19233580                5.05366132
              11.22739218                2.11525368               28.81163003                0.26939271                0.73672250               -0.70035295               -0.91730510               -0.80082320                7.34204452                7.13980479
              12.23418589                1.86808421               28.61274006                0.61606127                0.62439320                0.13613580               -1.54065446               -0.06483214                0.44862477                2.55574740
              13.23988005                1.62256963               28.40589449                0.95463258                0.56941535                0.96011510               -2.20216964               -0.08040222                0.05872675               -1.04660376
               3.44347808                5.18224534               29.39949599                1.00000000               -0.26539202               -0.40519581                1.24008367               -0.04652520                0.02239810                1.66690244
               4.44082416                4.94277337               29.18364716                0.55997065               -0.17597125               -0.13668495                0.53935798                0.01209574                0.14105197               -1.26634008
               5.43995865                4.70297694               28.97013738                0.04228009                0.06487026                0.14413256               -0.14392850               -1.05417655               10.76109473               -4.26611030
               6.44212156                4.44028172               28.96668080                0.00010000                0.28209394               -0.23782965               -0.11111077               -2.29164148               21.77974166               -1.32929455
               7.44560053                4.17352590               28.97197786                0.00010000                0.40063380               -0.38901856               -0.25261600               -2.60562225               22.37783956                0.70335688
               8.45013424                3.90469567               28.97833093                0.00010000                0.51547594               -0.55119222               -0.40925395               -2.74295815               22.46211625                2.37164933
               9.45591005                3.63569692               28.98286248                0.00010000                0.67158819               -0.72004306               -0.57596878               -2.71913154               22.30002962                4.12865588
              10.46356600                3.36791376               28.98334510                0.07142367                0.75415467               -0.91506598               -0.75425895               -2.25718044               19.77105324                6.19327399
              11.47099314                3.10817274               28.93444339                0.27997862                0.61271476               -0.65354987               -0.48774149               -0.96190332                8.85731330                5.49301962
              12.47582030                2.86910263               28.71402080                0.62880347                0.47381177                0.09840670               -1.19607717               -0.02944443                0.15781824                2.00971749
              13.48046938                2.63177387               28.49051956                0.96222875                0.46490815                0.85080154               -1.92879186               -0.04328136                0.01041327               -1.19583158
               3.68114401                6.17857151               29.33766489                1.00000000               -0.19063284               -0.33037447                1.01078547               -0.04598102                0.01992457                1.62877892
               4.67923768                5.94182597               29.10723440                0.53796594               -0.09237567               -0.05368850                0.26148311                0.01649061                0.14884206               -1.26915788
               5.67929650                5.70483852               28.87933358                0.03320309                0.16669202                0.22948317               -0.46949506               -1.33911381               13.70066384               -4.13002713
               6.68257152                5.43915364               28.91991633                0.00010000                0.33145931               -0.00849718               -0.35122100               -2.81988313               27.41003288               -1.59771637
               7.68592568                5.17027916               28.96434447                0.00010000                0.36882042               -0.23845405               -0.36234712               -3.10390875               27.70464997                0.48699039
               8.68994793                4.89930613               29.00840912                0.00010000                0.46135111               -0.50164760               -0.40285252               -3.30454743               27.76142382                2.44744151
               9.69515270                4.62799700               29.05112316                0.00010000                0.59420409               -0.77360072               -0.47155441               -3.36316536               27.71111709                4.44059626
              10.70183201                4.35811685               29.09095067                0.07933852                0.59062757               -0.99142951               -0.57368881               -2.76302892               23.58128592                6.52540851
              11.70696526                4.10218269               29.04754594                0.29161816                0.40819331               -0.56800616               -0.07891768               -1.13256962                9.89859467                4.74284213
              12.70999588                3.87005234               28.81100928                0.64424743                0.33533369                0.07642866               -0.85269165               -0.02966225                0.13483273                1.62916056
              13.71367193                3.63958566               28.57186192                0.97180762                0.36760520                0.71368220               -1.65657536               -0.04123996                0.01092299               -1.45682618
               3.91604954                7.17563786               29.27556657                1.00000000               -0.11625804               -0.25741361                0.78318265               -0.04516668                0.02068656                1.60057169
               4.91488696                6.94169960               29.03073258                0.51750723               -0.01004172                0.02741787               -0.01237966                0.01913131                0.17262100               -1.26537684
               5.91584871                6.70756660               28.78887615                0.02475857                0.26981495                0.31565010               -0.78746126               -1.56736310               16.57027127               -4.07714204
               6.92028326                6.44011177               28.87196272                0.00010000                0.37605789                0.20191086               -0.58227365               -3.28530403               32.96581702               -1.69003002
               7.92336986                6.16875682               28.95582309                0.00010000                0.30210937               -0.05354932               -0.46961243               -3.62854798               33.11477846                0.38039845
               8.92632545                5.89466272               29.03917396                0.00010000                0.32330793               -0.39768173               -0.39739952               -3.91051472               33.22070752                2.40682176
               9.92983602                5.62022490               29.12192126                0.00010000                0.38971477               -0.74493342               -0.36586195               -4.03845945               33.27856311                4.54175156
              10.93411974                5.34808517               29.20275324                0.08744008                0.32851181               -0.99262282               -0.38478205               -3.20190533               27.04135543                6.86997036
              11.93640626                5.09681262               29.15676535                0.30363867                0.18521696               -0.52375713                0.32450994               -1.20867899               10.54271234                4.38607581
              12.93782408                4.87063120               28.90510677                0.66039147                0.20858475                0.03044796               -0.51320321               -0.02995282                0.14164380                1.37969225
              13.94057795                4.64604752               28.65074651                0.98165284                0.27538725                0.58084678               -1.38558468               -0.04090312                0.01285032               -1.63240224
               4.14811719                8.17342324               29.21324706                1.00000000               -0.04256312               -0.18684532                0.55798073               -0.04405519                0.02110705                1.57257617
               5.14769156                7.94237433               28.95416596                0.49835519                0.07099345                0.10649688               -0.28106380                0.02049377                0.20084099               -1.25681203
               6.14953706                7.71115152               28.69860899                0.01664649                0.39918333                0.39889105               -1.09746495               -1.73803017               19.39264938               -4.02112436
               7.15567522                7.44319186               28.82332405                0.00010000                0.46333574                0.39662127               -0.79768455               -3.60454261               38.46829547               -1.70094861
               8.15880377                7.16920818               28.94660621                0.00010000                0.22971636                0.12825040               -0.56726347               -4.01111806               38.53589058                0.28287836
               9.16026955                6.89135250               29.06950752                0.00010000                0.10786460               -0.23167526               -0.38389602               -4.35432324               38.76096238                2.20993217
              10.16096107                6.61309834               29.19367183                0.00010000                0.04683184               -0.62424618               -0.24625018               -4.59658392               39.07545526                4.39817010
              11.16120619                6.33826440               29.31888218                0.09575168               -0.03577076               -0.92705980               -0.16473390               -3.56315916               30.32105549                7.10328539
              12.16024565                6.09170754               29.26373740                0.31596432               -0.05221320               -0.50817291                0.72370408               -1.24098639               10.84674476                4.15917751
              13.16016192                5.87066130               28.99737133                0.67710984                0.08877916               -0.03003075               -0.17662237               -0.03205386                0.15324006                1.23279156
              14.16202123                5.65120259               28.72811210                0.99171036                0.18593087                0.45226732               -1.11498846               -0.04158269                0.01452181               -1.72014363
               4.37726626                9.17190095               29.15068117                1.00000000                0.03022911               -0.11917665                0.33490850               -0.04250680                0.02755723                1.55195226
               5.37756855                8.94382954               28.87758710                0.48040101                0.15021559                0.18362334               -0.54252931                0.01851832                0.24345332               -1.25861792
               6.38027057                8.71554443               28.60873636                0.00872974                0.62836014                0.47422903               -1.39821094               -1.87013685               22.21151418               -3.84187433
               7.39013576                8.44804420               28.77495703                0.00010000                0.73581446                0.45707138               -0.99318976               -3.68540272               43.91367135               -1.50478433
               8.39498686                8.17132183               28.93655304                0.00010000                0.26065327                0.17696440               -0.65065588               -3.88090830               43.84083030                0.18927815
               9.39534882                7.89002922               29.09733468                0.00010000               -0.19972082                0.01514089               -0.35964335               -4.21021499               44.25462515                1.75338458
              10.39099245                7.60773998               29.26299802                0.00010000               -0.55507347               -0.26558782               -0.10954763               -4.72770450               45.10712214                3.71004635
              11.38424735                7.32954398               29.43684482                0.10429209               -0.59014114               -0.68491838                0.09776297               -3.90654403               33.63761000                6.77768103
              12.37918962                7.08664916               29.36911194                0.32856887               -0.32796983               -0.50864816                1.11851016               -1.30178102               10.98805864                3.86118438
              13.37768796                6.87003058               29.08867965                0.69444612               -0.02629510               -0.10038769                0.15858378               -0.03885500                0.19047272                1.19447416
              14.37866372                6.65509286               28.80484991                1.00000000                0.09757664                0.32815949               -0.84332324               -0.04281321                0.02612050               -1.74334517
               4.60340988               10.17103971               29.08806513                0.99315210                0.10085692               -0.05257170                0.11326820               -0.04037435               -0.00807682                1.33373185
               5.60441845                9.94604680               28.80073390                0.46312441                0.22548896                0.25729842               -0.79504135                0.01077853                0.40289067               -1.11389380
               6.60791966                9.72063610               28.52154197                0.00126949                1.08856595                0.53586659               -1.68670354               -2.07429079               25.19969890               -2.86512084
               7.62618977                9.45233329               28.73002567                0.00010000                1.56404651               -0.06662529               -1.16102590               -2.86382800               49.22776086               -0.87296253
               8.63920059                9.17274746               28.92594666                0.00010000                0.67286667                0.06350944               -0.71598454               -2.65947211               48.78266583                0.09540220
               9.63964710                8.89165532               29.11948588                0.00010000               -0.61541861                0.26264451               -0.32860636               -2.79233095               49.36289150                0.98311042
              10.62689222                8.60778658               29.32215022                0.00010000               -1.77404870                0.43847047                0.02829625               -3.55248513               51.14740107                2.18730370
              11.60416613                8.32456603               29.54765971                0.11321479               -1.65843967                0.15765240                0.38659915               -3.40179814               37.28252871                4.59001202
              12.59372342                8.08153458               29.47055682                0.34145111               -0.66125013               -0.49775843                1.49766157               -1.47939101               11.48337769                2.72134229
              13.59094112                7.86865355               29.18024275                0.71234320               -0.13415050               -0.17750865                0.49601917               -0.05141905                0.40137562                1.06844500
              14.59104041                7.65776578               28.88143806                1.00000000                0.00992889                0.21111900               -0.57003992               -0.04616560               -0.01817655               -1.47389580
               4.82644460               11.17084951               29.02124869                0.99228651                0.17431270               -0.01901932               -0.10731925                0.11607109                0.65425209                1.12117226
               5.82818773               10.94897550               28.72682130                0.72670326                0.30268338                0.29287090               -1.04448266                0.14754001                1.57850785               -0.95684437
               6.83249827               10.72626176               28.45076724                0.49801228                2.62800548                0.56256524               -1.92470024               -2.65532958               28.50877152               -2.03070757
               7.88074784               10.44671169               28.69458594                0.44385195                3.49885615               -0.56215922               -1.28349208               -2.22768004               53.93472561               -0.53789596
               8.90247539               10.17259202               28.91509260                0.43389790                1.18576246               -0.01554466               -0.76018192               -1.24399902               53.01292885                0.00193782
               9.90446309                9.89528211               29.13285173                0.44931834               -0.77216797                0.36267925               -0.29773926               -1.32253285               53.67624044                0.50041682
              10.88703203                9.61650939               29.36155679                0.48873416               -3.09998486                0.87228092                0.13840999               -2.11527265               55.98422446                1.19286367
              11.84246339                9.33269702               29.62227093                0.55968493               -4.07588744                0.81309966                0.60446603               -3.16104359               41.16487274                2.88135210
              12.80551428                9.07669399               29.55333934                0.67517653               -2.10175082               -0.48405876                1.79809231               -2.13174473               13.65130298                1.78985054
              13.80042837                8.86648041               29.26903735                0.86225875               -0.29991693               -0.21731384                0.82211427                0.07978732                1.80200043                0.93132035
              14.79951594                8.65931524               28.96333082                0.99992601               -0.09124285                0.15494599               -0.27307842                0.13103623                0.73540039               -1.20036342
               2.62672539                1.28367913               30.66372408                1.00000000               -0.57194644               -0.63114351                2.15725782               -0.10978045               -1.42111984                1.43446896
               3.62100592                1.02002932               30.48774710                1.00000000               -0.50904463               -0.45292341                1.62496608               -0.07026699               -1.49140756               -0.14767999
               4.61654449                0.75546063               30.31048261                0.67057308               -0.49377865               -0.26792953                1.06349594               -0.21770440               -1.12942527               -1.09154989
               5.61113035                0.48635891               30.14200931                0.51671037               -0.57814091               -0.14977858                0.54435321               -0.32495282                0.74831204               -0.13542385
               6.60498167                0.20714044               30.00346891                0.45594040               -0.47109280                0.00016063                0.00439932               -0.29873803                3.51644208               -0.12334861
               7.60170849               -0.08330384               29.89223638                0.45985716                0.00227386                0.15308922               -0.57755892               -0.17954216                4.78046096                0.02546029
               8.60502715               -0.37757090               29.78055081                0.52084445                0.54196849                0.30951820               -1.14439080               -0.20797699                3.40747654                0.15239271
               9.61254786               -0.66677344               29.64187207                0.64960060                0.78669039                0.45996300               -1.66557929               -0.23501424                0.84431221                0.22896985
              10.62076096               -0.94881887               29.47785882                0.87285502                0.81445588                0.59052889               -2.16299057               -0.16062427               -1.08565808                0.54396898
              11.62883698               -1.22624791               29.29953098                1.00000000                0.85301191                0.73076771               -2.69943763               -0.07068409               -1.47962219                0.75439818
              12.63782120               -1.50208818               29.12699078                1.00000000                0.89842187                0.91496179               -3.19194652               -0.13281645               -1.16841522               -1.35892816
               2.88927738                2.27736769               30.59699705                1.00000000               -0.48648828               -0.60732289                1.92669068               -0.03469987                0.08546825                1.79204563
               3.88441250                2.01550009               30.42064540                0.82370968               -0.40373637               -0.41181096                1.38909490                0.00207052                0.34265525               -0.47046964
               4.88120266                1.75278133               30.24947460                0.21150308               -0.11857952               -0.20790379                0.89919902               -0.21579987                2.03327377               -2.22583589
               5.88204091                1.48486112               30.10688381                0.00524227                0.28115040               -0.11606539                0.44779425               -0.71856328                4.61651980               -2.16720829
               6.88682567                1.20714205               29.98641650                0.00961745                0.51139141               -0.46187636               -0.02936504               -1.22999077                7.33215176                0.61920496
               7.89226874                0.91822706               29.89645983                0.01316468                0.39282587               -0.23242652               -0.54266888               -1.50041367                8.93039846                0.99910834
               8.89468218                0.62552429               29.80657353                0.01098773                0.17764818                0.06539461               -1.03534613               -1.28862919                7.52975209                1.18804852
               9.89582170                0.33782619               29.68855071                0.18315534                0.21048862                0.26137540               -1.47678392               -0.69994932                4.88725288                2.71228485
              10.89889196                0.05708642               29.54653591                0.51545445                0.44715468                0.45230013               -1.90913499               -0.26326966                2.85806250                2.44639992
              11.90476480               -0.21894024               29.38843511                1.00000000                0.67206737                0.65046441               -2.29665401               -0.04061376                1.16635933                1.21926626
              12.91233330               -0.49293857               29.21260714                1.00000000                0.75685057                0.87301011               -2.79482413               -0.06527846                0.28359374               -1.43434474
               3.14976659                3.27153267               30.53749002                1.00000000               -0.41329005               -0.55294961                1.70499128               -0.04942197                0.22748733                2.03098064
               4.14563369                3.01179311               30.34715016                0.61303541               -0.34495647               -0.31551147                1.09902305               -0.01351288                0.67536180               -1.06900827
               5.14286746                2.75130255               30.16577196                0.07106134               -0.16176645               -0.05849062                0.57932729               -0.32185249                3.45509788               -4.21875318
               6.14239836                2.48403760               30.03108058                0.00010000                0.20742296               -0.42958164                0.27631494               -1.55926406               10.20253743               -1.43806899
               7.14701592                2.19790292               29.98410050                0.00010000                0.54598088               -0.75214196               -0.10372297               -2.50438236               13.83011561                0.92111703
               8.15331798                1.91204763               29.91998026                0.00010000                0.63197541               -0.63962545               -0.48746638               -2.60790857               12.93175712                2.02206139
               9.15965543                1.62373700               29.85310551                0.00010000                0.68343776               -0.36882476               -0.85907803               -2.35747887               12.78632039                2.87757911
              10.16698674                1.33845407               29.78467466                0.05699468                0.63032821               -0.25395488               -1.18814008               -1.53074220                9.61550082                4.63285616
              11.17226200                1.06022714               29.65302874                0.26881824                0.55314778               -0.24993616               -1.46934480               -0.64632520                4.73354634                6.47219658
              12.17804969                0.78676137               29.48646945                0.64260031                0.61251449                0.34227839               -1.88283384               -0.24102964                1.81256966                2.31356398
              13.18451229                0.51537202               29.29643364                0.98253510                0.64625931                0.92307174               -2.44008679               -0.22647523                0.63317437               -1.34161418
               3.40776808                4.26630870               30.47561951                1.00000000               -0.33957119               -0.48454127                1.47176543               -0.04746880                0.03595905                1.81599714
               4.40437236                4.00918986               30.26803820                0.57159728               -0.26234813               -0.21486571                0.81052461                0.00437082                0.24933702               -1.33956186
               5.40252111                3.75161152               30.06471088                0.05065716               -0.00585493                0.07860298                0.17938201               -0.81169523                7.92939614               -4.81479947
               6.40425527                3.47626949               30.01076807                0.00010000                0.31034348               -0.58624443                0.11309665               -1.96879711               16.38515338                0.00017124
               7.40872798                3.19209921               29.97518118                0.00010000                0.50106113               -0.54031037               -0.18695127               -2.53636616               17.70970278                0.68332720
               8.41427649                2.90543455               29.94575588                0.00010000                0.61990928               -0.63989329               -0.45800957               -2.71758421               17.93683558                2.20433566
               9.42112617                2.61814779               29.91263764                0.00010000                0.72201148               -0.64138499               -0.72200407               -2.61536399               17.39181525                3.72296945
              10.42871672                2.33274710               29.87015057                0.06096036                0.82659893               -0.74183803               -0.98297898               -2.19612983               15.75012244                5.10332936
              11.43765815                2.05208770               29.80243873                0.26291884                0.80413023               -0.80921290               -0.91999251               -0.96119192                7.71807317                7.39034793
              12.44479932                1.78790533               29.59733796                0.60060900                0.64621808                0.09296694               -1.54691076               -0.08056623                0.46193852                2.61067421
              13.45058251                1.52552287               29.38386446                0.94285261                0.57831867                0.98257082               -2.21859156               -0.07796991                0.05294792               -1.15499507
               3.66305490                5.26184185               30.41189135                1.00000000               -0.26366060               -0.40898759                1.23855201               -0.04699117                0.02256560                1.69899622
               4.66041829                5.00749579               30.18897766                0.54745509               -0.17504828               -0.12652710                0.52623934                0.01500111                0.15045723               -1.33417855
               5.65955393                4.75287461               29.96858594                0.03991566                0.10582196                0.16934101               -0.16716212               -1.19983550               11.13627633               -4.43926748
               6.66253473                4.47231271               29.96539375                0.00010000                0.37848043               -0.25906356               -0.14746711               -2.60360189               22.43446904               -1.47323814
               7.66712354                4.18709671               29.96926403                0.00010000                0.51914929               -0.43046260               -0.29089561               -2.96094979               22.94664983                0.64575020
               8.67291772                3.89924977               29.97403427                0.00010000                0.64560319               -0.60562384               -0.45034773               -3.11964257               23.02551926                2.36681536
               9.68003560                3.61090930               29.97689428                0.00010000                0.81032567               -0.78087810               -0.61726739               -3.09115713               22.86022095                4.15737699
              10.68912423                3.32361731               29.97562098                0.06853635                0.89221585               -0.98640678               -0.78849104               -2.60914684               20.55580631                6.23880887
              11.69787992                3.04404288               29.92951559                0.27326608                0.69394840               -0.73662429               -0.49763365               -1.13628909                9.37702915                5.68847276
              12.70300320                2.78862071               29.70199475                0.61325921                0.49189444                0.07305189               -1.20969248               -0.03127611                0.16874618                2.05969729
              13.70771781                2.53502344               29.47113742                0.95047613                0.47146121                0.87970482               -1.95331319               -0.04181271                0.00982625               -1.29265115
               3.91552036                6.25812895               30.34775767                1.00000000               -0.18807396               -0.33445696                1.00728068               -0.04629522                0.02009912                1.66219058
               4.91363962                6.00665932               30.10977079                0.52592622               -0.09064385               -0.04201546                0.24508455                0.01947056                0.15885519               -1.33175154
               5.91370748                5.75499834               29.87450393                0.03102310                0.21607543                0.25659356               -0.49738831               -1.51057111               14.14317114               -4.28745572
               6.91796113                5.47108822               29.91619257                0.00010000                0.44322227               -0.01191275               -0.39477795               -3.17662270               28.22370273               -1.72628768
               7.92257193                5.18348996               29.96048135                0.00010000                0.50549595               -0.26985518               -0.41116343               -3.49320438               28.45163779                0.42509052
               8.92807105                4.89332207               30.00411272                0.00010000                0.61817774               -0.55514299               -0.45668781               -3.71045031               28.49047516                2.43784853
               9.93493548                4.60253023               30.04612088                0.00010000                0.76645742               -0.84403196               -0.52794755               -3.76293821               28.41956794                4.46644581
              10.94340020                4.31301896               30.08492873                0.07632384                0.74967391               -1.07165002               -0.62768333               -3.14470551               24.58827371                6.56656777
              11.94992896                4.03735521               30.04669956                0.28466031                0.48965233               -0.62831321               -0.08959548               -1.32615441               10.57702379                4.92884051
              12.95319324                3.78936637               29.80240916                0.62838205                0.35059241                0.05962577               -0.86814797               -0.03178445                0.15057547                1.68117608
              13.95694081                3.54311697               29.55517728                0.95984968                0.37475668                0.74016185               -1.68443722               -0.03949695                0.01132315               -1.54691637
               4.16506825                7.25515271               30.28337620                1.00000000               -0.11299408               -0.26234653                0.77829197               -0.04556583                0.02090183                1.63522749
               5.16393831                7.00665548               30.03051980                0.50594264               -0.00773212                0.04019995               -0.03098476                0.02151352                0.18375013               -1.32114140
               6.16491361                6.75800648               29.78085072                0.02274039                0.32861725                0.34391734               -0.81890191               -1.76046013               17.08035250               -4.22247852
               7.17051066                6.47207446               29.86590163                0.00010000                0.50559938                0.20850093               -0.63133319               -3.68140221               33.93351317               -1.80295383
               8.17502560                6.18169960               29.95083750                0.00010000                0.45788908               -0.07761600               -0.52865156               -4.05265500               34.03227671                0.32594205
               9.17966844                5.88814691               30.03486006                0.00010000                0.50271762               -0.44968857               -0.46578248               -4.34633714               34.11211482                2.40076151
              10.18507995                5.59402866               30.11787540                0.00010000                0.58683471               -0.81677228               -0.44230399               -4.46590318               34.13736924                4.57463758
              11.19140513                5.30218431               30.19847994                0.08430587                0.49647363               -1.07024166               -0.46671336               -3.59753835               28.26836131                6.93061309
              12.19500942                5.03147662               30.15996074                0.29645203                0.26003117               -0.56691540                0.31507356               -1.40726869               11.37323834                4.56700457
              13.19660576                4.78981323               29.89990061                0.64412496                0.22086265                0.02009178               -0.52863586               -0.03234566                0.16050670                1.42910231
              14.19942668                4.54982667               29.63676114                0.96947059                0.28209196                0.60359538               -1.41438626               -0.03975394                0.01379848               -1.71923403
               4.41160349                8.25288202               30.21880397                1.00000000               -0.03873762               -0.19326104                0.55259523               -0.04399790                0.02068812                1.60792211
               5.41121612                8.00746332               29.95125774                0.48727577                0.07379076                0.11978408               -0.30099514                0.02126950                0.21286767               -1.30363008
               6.41307931                7.76187669               29.68747242                0.01479746                0.47119234                0.42662489               -1.13146204               -1.95111050               19.97228411               -4.15478691
               7.42063996                7.47525824               29.81508509                0.00010000                0.61835344                0.40703214               -0.85210197               -4.02857894               39.58898416               -1.79512403
               8.42544638                7.18193764               29.94059586                0.00010000                0.40876453                0.10462961               -0.63635037               -4.45562841               39.61873527                0.23977030
               9.42881525                6.88432830               30.06525348                0.00010000                0.30668215               -0.28185075               -0.46771420               -4.79907594               39.81553171                2.21183418
              10.43158002                6.58619478               30.19070969                0.00010000                0.25931090               -0.68949677               -0.34571233               -5.03119465               40.09443356                4.44479840
              11.43400147                6.29161413               30.31663956                0.09250348                0.12873251               -0.99521315               -0.28145357               -3.95331015               31.75986898                7.19904100
              12.43415467                6.02601691               30.27093764                0.30855604                0.00974007               -0.53706601                0.71661646               -1.43466027               11.81155909                4.33455813
              13.43419627                5.78976820               29.99553647                0.66042643                0.09820874               -0.03543531               -0.19095662               -0.03492725                0.17428976                1.28052500
              14.43611885                5.55518887               29.71683004                0.97926238                0.19225713                0.47088812               -1.14379133               -0.04078630                0.01582445               -1.80371654
               4.65502570                9.25128749               30.15399796                0.99730591                0.03433387               -0.12535608                0.32779746               -0.04255323                0.03065382                1.58848267
               5.65536904                9.00905116               29.87207849                0.46978648                0.15353932                0.19556182               -0.56032535                0.01578513                0.25586116               -1.29740514
               6.65809648                8.76653898               29.59457551                0.00705766                0.72545458                0.49934195               -1.43726252               -2.10226024               22.86431409               -3.96336105
               7.66987813                8.48021510               29.76473922                0.00010000                0.93732416                0.45405142               -1.05304558               -4.11870930               45.18984961               -1.57614539
               8.67684297                8.18379220               29.92966614                0.00010000                0.47758241                0.13515286               -0.72875370               -4.29721985               45.08467902                0.15960396
               9.67942978                7.88250989               30.09325499                0.00010000                0.01636323               -0.03507316               -0.45764278               -4.60700168               45.47441037                1.76127858
              10.67717023                7.58023872               30.26129357                0.00010000               -0.34564843               -0.31009221               -0.23188808               -5.11714923               46.30247433                3.76432129
              11.67251681                7.28228005               30.43705316                0.10096226               -0.45040456               -0.72670127               -0.05575158               -4.27057404               35.27854904                6.90617268
              12.66816214                7.02073529               30.38027675                0.32093613               -0.28907810               -0.52516302                1.11467031               -1.48699411               12.06366575                4.02554663
              13.66673525                6.78910452               30.09020645                0.67729341               -0.01962637               -0.10221055                0.14622084               -0.04237864                0.21428908                1.24306958
              14.66776961                6.55924443               29.79628686                0.98924490                0.10343679                0.34261312               -0.87132425               -0.04236986                0.02811395               -1.82329425
               4.89522507               10.25037490               30.08917757                0.98336453                0.10552537               -0.05570482                0.11153535               -0.04259298               -0.00036444                1.37331785
               5.89628033               10.01137455               29.79267611                0.45297711                0.23225486                0.26785522               -0.82134703                0.00548616                0.41966822               -1.15121726
               6.89987017                9.77186353               29.50447453                0.00123724                1.23661176                0.55490586               -1.73163361               -2.33165069               25.93775556               -2.95279324
               7.92101256                9.48433926               29.71810986                0.00010000                1.86685083               -0.14781584               -1.22528504               -3.20641944               50.66336712               -0.91087884
               8.93720719                9.18464070               29.91837758                0.00010000                0.96080679               -0.00844566               -0.80022662               -2.94358436               50.18015586                0.07943132
               9.94022870                8.88362684               30.11566920                0.00010000               -0.38701515                0.21307403               -0.43648454               -3.03648067               50.74174420                0.98974016
              10.92946688                8.57999294               30.32174412                0.00010000               -1.60676391                0.41775332               -0.11108312               -3.80271341               52.53208937                2.22747682
              11.90809342                8.27708010               30.55060880                0.10981373               -1.59382849                0.19641307                0.20112952               -3.65488590               39.12047472                4.69785549
              12.89759031                8.01551365               30.48553278                0.33361788               -0.66269284               -0.50232239                1.49775058               -1.66177162               12.65508807                2.83760820
              13.89483956                7.78772399               30.18515811                0.69467998               -0.12993444               -0.17701833                0.48659929               -0.05609235                0.43502417                1.11298070
              14.89499162                7.56204114               29.87561492                0.99920782                0.01520623                0.22171924               -0.59643132               -0.04617110               -0.01773490               -1.53918381
               5.13217452               11.25017339               30.02016245                0.98749199                0.18156083               -0.02015084               -0.11173760                0.11843319                0.66884326                1.16334137
               6.13399013               11.01440827               29.71619805                0.72178548                0.31621186                0.30337136               -1.08068942                0.14416610                1.63005550               -0.99458509
               7.13849876               10.77763710               29.43131993                0.49732927                2.94912188                0.57735716               -1.97136871               -2.99461504               29.35475140               -2.08944402
               8.19297257               10.47725878               29.68144105                0.44413953                4.00924737               -0.70804824               -1.34845119               -2.50468972               55.52613049               -0.56479346
               9.21868371               10.18362328               29.90707574                0.43406482                1.51876749               -0.10174116               -0.84549991               -1.37671804               54.54730892               -0.01228117
              10.22334792                9.88677137               30.12933067                0.44911238               -0.55105045                0.31445377               -0.40813183               -1.43955244               55.19144674                0.49922698
              11.20766270                9.58859379               30.36222574                0.48794585               -2.97247685                0.86008490               -0.00634421               -2.20857155               57.52261033                1.21194994
              12.16389838                9.28620831               30.62734449                0.55796732               -4.16899415                0.91282072                0.40726760               -3.31475056               43.17462969                2.95389272
              13.12428282                9.01068885               30.57133351                0.67121028               -2.24062367               -0.48247990                1.80122282               -2.36295720               14.94430465                1.86655329
              14.11908591                8.78556416               30.27723127                0.85327264               -0.30354547               -0.21598374                0.81640457                0.07413343                1.89616901                0.97050408
              15.11821191                8.56367882               29.96049149                0.99992420               -0.08740021                0.16376838               -0.29640563                0.13349472                0.76844191               -1.25231412
               2.79096336                1.36609126               31.68534572                1.00000000               -0.58010482               -0.63511367                2.17085309               -0.11073975               -1.45374090                1.47448212
               3.78516231                1.08670367               31.50411251                0.99931359               -0.52128382               -0.45634510                1.64550869               -0.07052589               -1.54620127               -0.17939484
               4.78053768                0.80629194               31.32118698                0.66702985               -0.53105182               -0.26809442                1.07650270               -0.24350203               -1.18791111               -1.10802814
               5.77454127                0.52058577               31.14743065                0.51587962               -0.65521262               -0.14820585                0.54309847               -0.36770334                0.70010020               -0.13935520
               6.76743343                0.22310131               31.00346162                0.45586319               -0.56046549                0.00642562               -0.00410482               -0.33759158                3.43490831               -0.12804214
               7.76333196               -0.08745795               30.88635915                0.45950971               -0.04243375                0.16298918               -0.59509996               -0.19957722                4.67649957                0.02486172
               8.76658475               -0.40261014               30.76894903                0.51950763                0.56297166                0.32074983               -1.17212143               -0.22974824                3.32210458                0.15578446
               9.77459140               -0.71209313               30.62500469                0.64625849                0.83671535                0.47183887               -1.70275723               -0.26277387                0.78538776                0.23618668
              10.78331906               -1.01339443               30.45598931                0.86574081                0.85811415                0.60393471               -2.21035972               -0.18146078               -1.15514345                0.53338479
              11.79175368               -1.30934248               30.27223541                1.00000000                0.88273418                0.73903703               -2.75453923               -0.07603757               -1.54492167                0.82828100
              12.80097374               -1.60338229               30.09471280                1.00000000                0.92200651                0.93795798               -3.26052295               -0.13622522               -1.21013436               -1.35189414
               3.06924355                2.35974013               31.61630247                1.00000000               -0.48868366               -0.61158851                1.93598979               -0.03730884                0.10096899                1.83478100
               4.06435671                2.08214022               31.43457765                0.80683731               -0.40409687               -0.41232249                1.39748867               -0.00056366                0.38165505               -0.52857000
               5.06116161                1.80361099               31.25851314                0.20632998               -0.09485803               -0.20199927                0.90863557               -0.25468547                2.11243316               -2.32284307
               6.06245955                1.51910371               31.11136609                0.00540835                0.34588794               -0.12178696                0.44916352               -0.83462883                4.69835101               -2.20908555
               7.06807937                1.22316557               30.98609402                0.00967674                0.58661803               -0.50917714               -0.03525699               -1.42332955                7.38029470                0.59185134
               8.07419191                0.91417194               30.89095474                0.01315535                0.42627452               -0.25248063               -0.55839179               -1.73727243                8.96489814                1.00782861
               9.07660486                0.60059736               30.79608567                0.01108565                0.15819450                0.08138529               -1.06232537               -1.49838493                7.59645748                1.22542378
              10.07735580                0.29262526               30.67361810                0.17845315                0.17621319                0.25940932               -1.51275799               -0.82245565                4.98015612                2.76944495
              11.08012913               -0.00735508               30.52724143                0.50476995                0.43157168                0.45576748               -1.95065896               -0.31723223                2.97817558                2.53236220
              12.08598724               -0.30195211               30.36539409                1.00000000                0.67610926                0.65454065               -2.34592535               -0.05609691                1.26318304                1.30956043
              13.09365131               -0.59400272               30.18473019                1.00000000                0.76640738                0.89321323               -2.83125468               -0.06458011                0.34038024               -1.45063254
               3.34541699                3.35385949               31.55456187                1.00000000               -0.41368198               -0.55730443                1.70967513               -0.05178605                0.22738665                2.07061442
               4.34128017                3.07845722               31.35811799                0.59894462               -0.34682532               -0.30996419                1.09511480               -0.01707592                0.71992791               -1.15038857
               5.33848048                2.80225195               31.17153408                0.06812443               -0.14930235               -0.03825444                0.57356559               -0.38611869                3.65552419               -4.43226846
               6.33829412                2.51815003               31.03387636                0.00010000                0.27090608               -0.47516115                0.28293809               -1.78038271               10.47006566               -1.52587001
               7.34389860                2.21291777               30.98298630                0.00010000                0.64302975               -0.83015097               -0.11933310               -2.85393175               14.05153018                0.87345266
               8.35115472                1.90749244               30.91499181                0.00010000                0.71325674               -0.69046315               -0.51066622               -2.99168748               13.15963971                2.03383657
               9.35816374                1.59901757               30.84437246                0.00010000                0.74700044               -0.37644367               -0.88761182               -2.74036016               13.03774315                2.93886167
              10.36609473                1.29309506               30.77263709                0.05415866                0.66940204               -0.25434129               -1.22236770               -1.79998238                9.90149488                4.70550393
              11.37155178                0.99572092               30.63819704                0.26193836                0.55923245               -0.30355651               -1.49210260               -0.74547964                4.98498322                6.71572407
              12.37727938                0.70374834               30.46788835                0.62601756                0.61157902                0.33622482               -1.89118337               -0.26136276                1.93241586                2.35943683
              13.38378336                0.41448197               30.27224930                0.96986866                0.65039853                0.93843298               -2.47516068               -0.21490130                0.68522522               -1.45639618
               3.61901237                4.34859404               31.49034010                1.00000000               -0.33896320               -0.48861900                1.47214405               -0.04832086                0.03529137                1.84917939
               4.61562274                4.07594094               31.27609781                0.55849895               -0.26329682               -0.20500062                0.80117642                0.00552068                0.26405787               -1.41453329
               5.61374643                3.80284590               31.06641819                0.04809513                0.02816731                0.10732964                0.16151053               -0.92764227                8.24057052               -5.03411777
               6.61618608                3.50960049               31.01176514                0.00010000                0.39559475               -0.63787868                0.08530553               -2.22223151               16.86758347               -0.12563751
               7.62165833                3.20656255               30.97318178                0.00010000                0.60361390               -0.58885192               -0.21361510               -2.86217024               18.09360971                0.62521083
               8.62825836                2.90036268               30.94102051                0.00010000                0.72683568               -0.69086458               -0.48962914               -3.08171994               18.34156952                2.19921614
               9.63619504                2.59306849               30.90525620                0.00010000                0.81972216               -0.68281760               -0.75500486               -2.97301152               17.80622619                3.75623382
              10.64465280                2.28753843               30.86019072                0.05813146                0.91856055               -0.75916395               -1.00942462               -2.52643070               16.33355157                5.14713369
              11.65456625                1.98657379               30.79323018                0.25628987                0.86730650               -0.90197793               -0.92980637               -1.10789324                8.11417709                7.64337057
              12.66199893                1.70477239               30.58180185                0.58516863                0.66598836                0.07385177               -1.56292577               -0.07569133                0.47962603                2.63057269
              13.66788602                1.42476594               30.36152266                0.93126754                0.58870852                1.00630304               -2.25599529               -0.07078420                0.04843208               -1.30253969
               3.88975677                5.34408711               31.42426703                1.00000000               -0.26180544               -0.41317786                1.23612087               -0.04762076                0.02280263                1.73300333
               4.88713872                5.07435721               31.19417194                0.53483491               -0.17443417               -0.11460696                0.51201060                0.01786113                0.16070581               -1.40346060
               5.88626809                4.80439854               30.96679413                0.03747871                0.14970662                0.19893618               -0.19196714               -1.34865233               11.51122900               -4.61740104
               6.89013285                4.50539246               30.96373146                0.00010000                0.48124595               -0.27402394               -0.18621568               -2.91878735               23.09318541               -1.62694682
               7.89589301                4.20114073               30.96615995                0.00010000                0.64407633               -0.46775231               -0.33086048               -3.31686736               23.52503379                0.57403143
               8.90301438                3.89367515               30.96932398                0.00010000                0.78173746               -0.65626800               -0.49232590               -3.49599808               23.59966468                2.34740415
               9.91152776                3.58536122               30.97051713                0.00010000                0.95232180               -0.83618471               -0.65822152               -3.46151813               23.43714289                4.17071245
              10.92206081                3.27791178               30.96757528                0.06556541                1.03161005               -1.04745905               -0.81997026               -2.96569288               21.36933970                6.26650165
              11.93215996                2.97768136               30.92449072                0.26641685                0.77562907               -0.81297213               -0.50813249               -1.31136784                9.92073653                5.87498682
              12.93757339                2.70522537               30.68982696                0.59768682                0.51103059                0.04988068               -1.22649651               -0.02712971                0.18556688                2.10251277
              13.94238057                2.43460803               30.45145330                0.93879965                0.48071756                0.91288331               -1.99072471               -0.03792676                0.01090172               -1.39475064
               4.15751976                6.34033048               31.35781050                1.00000000               -0.18512298               -0.33955043                1.00242649               -0.04698843                0.02023248                1.69762853
               5.15566853                6.07364880               31.11213609                0.51376748               -0.08908088               -0.02836938                0.22731378                0.02214364                0.16954995               -1.39438875
               6.15573814                5.80682463               30.86938581                0.02875673                0.26998114                0.28749979               -0.52740408               -1.68614746               14.58503868               -4.44827747
               7.16106815                5.50412001               30.91202078                0.00010000                0.56500742               -0.01161414               -0.44079583               -3.53916191               29.04023694               -1.86210336
               8.16703829                5.19720750               30.95612120                0.00010000                0.65248794               -0.29897882               -0.46195336               -3.88593607               29.20765041                0.35049583
               9.17411791                4.88723732               30.99927536                0.00010000                0.78448796               -0.60689786               -0.51127892               -4.11736195               29.23061672                2.41171132
              10.18272805                4.57634479               31.04056421                0.00010000                0.94504457               -0.91161878               -0.58281848               -4.16061510               29.14383130                4.47154397
              11.19301880                4.26658925               31.07839700                0.07320616                0.91486260               -1.14625850               -0.67585051               -3.53448156               25.63261312                6.57985580
              12.20102530                3.97031435               31.04575403                0.27757548                0.57554356               -0.68833663               -0.09973333               -1.52644264               11.28800916                5.11075183
              13.20452967                3.70577000               30.79364632                0.61247362                0.36684336                0.04302814               -0.88566497               -0.03151548                0.17121158                1.72669944
              14.20836217                3.44302361               30.53817318                0.94796318                0.38324950                0.77010186               -1.72037019               -0.03702409                0.01213396               -1.64311667
               4.42218037                7.33729610               31.29113241                1.00000000               -0.10929229               -0.26852786                0.77254622               -0.04544474                0.02112389                1.67286298
               5.42108744                7.07378982               31.03011288                0.49425547               -0.00532184                0.05471204               -0.05165303                0.02321848                0.19556010               -1.37575754
               6.42207393                6.81014854               30.77249811                0.02064998                0.39396475                0.37531845               -0.85262304               -1.96062021               17.58889900               -4.37072458
               7.42896674                6.50516017               30.85933606                0.00010000                0.64915224                0.21658878               -0.68343038               -4.08620350               34.90270704               -1.92305007
               8.43505697                6.19516115               30.94525006                0.00010000                0.62815521               -0.10162795               -0.59009431               -4.48255907               34.95656546                0.25869564
               9.44152984                5.88153719               31.02985831                0.00010000                0.69532744               -0.50215386               -0.53504381               -4.78419297               35.01203211                2.37669228
              10.44896352                5.56712884               31.11307518                0.00010000                0.79358934               -0.88843294               -0.51678383               -4.89074866               35.00722806                4.58266127
              11.45740163                5.25498661               31.19341897                0.08106942                0.67434146               -1.14586290               -0.54176514               -4.00286982               29.54418387                6.95594172
              12.46245035                4.96391463               31.16306682                0.28912953                0.34160953               -0.61158222                0.30590876               -1.61730267               12.25068607                4.74567284
              13.46423382                4.70608593               30.89453405                0.62782909                0.23412615                0.00979813               -0.54575679               -0.03394582                0.18382269                1.47415000
              14.46713287                4.45001007               30.62245878                0.95732970                0.28990550                0.62894635               -1.44922801               -0.03816594                0.01512332               -1.81108471
               4.68362343                8.33495992               31.22429897                1.00000000               -0.03429633               -0.19995493                0.54368871               -0.04479302                0.02058619                1.64630235
               5.68328046                8.07474304               30.94814606                0.47606562                0.07659803                0.13366199               -0.32013566                0.01959284                0.22454448               -1.34757924
               6.68515539                7.81433100               30.67597975                0.01288556                0.55255032                0.45632764               -1.17018423               -2.17345312               20.54961943               -4.29432013
               7.69433147                7.50845178               30.80628201                0.00010000                0.79273523                0.41681749               -0.91059493               -4.46403401               40.71008352               -1.89767145
               8.70101009                7.19517494               30.93387921                0.00010000                0.60674457                0.07855169               -0.70856559               -4.90749205               40.70587398                0.18397454
               9.70646636                6.87719424               31.06015324                0.00010000                0.52267834               -0.33490607               -0.55298364               -5.24595238               40.87413053                2.19569279
              10.71146366                6.55857614               31.18675758                0.00010000                0.48546282               -0.75684347               -0.44399288               -5.46210033               41.11615510                4.46494219
              11.71617562                6.24367199               31.31325311                0.08915942                0.30581306               -1.06442066               -0.39196240               -4.35299523               33.26116737                7.25491672
              12.71757992                5.95808270               31.27806973                0.30100740                0.07898511               -0.56748384                0.70956052               -1.64233635               12.84230754                4.50935478
              13.71775532                5.70596597               30.99355220                0.64369009                0.10853322               -0.04077968               -0.20685337               -0.03751812                0.19957764                1.32529612
              14.71975058                5.45560254               30.70523627                0.96685446                0.19952643                0.49160138               -1.17759373               -0.03972781                0.01746370               -1.89182034
               4.94171827                9.33329700               31.15723712                0.98708153                0.03899541               -0.13091737                0.32344009               -0.04428970                0.04022246                1.63475229
               5.94210823                9.07646306               30.86638059                0.45906588                0.15889248                0.20799251               -0.58348563                0.01062368                0.26825229               -1.34022090
               6.94489612                8.81927509               30.57999111                0.00533505                0.83669430                0.52524123               -1.48334565               -2.34404544               23.51583871               -4.09471054
               7.95884211                8.51349652               30.75389612                0.00010000                1.16342758                0.44810502               -1.11830007               -4.56601573               46.46821718               -1.65626559
               8.96816467                8.19673219               30.92197796                0.00010000                0.71837436                0.08757742               -0.81084201               -4.72115899               46.33102696                0.11888747
               9.97320960                7.87483907               31.08818182                0.00010000                0.25395456               -0.09098994               -0.55799619               -5.00455624               46.69285224                1.75388818
              10.97324376                7.55199197               31.25836026                0.00010000               -0.11872209               -0.35860943               -0.35463003               -5.50050613               47.48977257                3.79499728
              11.97083516                7.23369819               31.43572979                0.09753677               -0.29670569               -0.77200912               -0.20691808               -4.64078368               36.99600779                6.99607745
              12.96730965                6.95256495               31.39140535                0.31318592               -0.24357683               -0.54263618                1.11074178               -1.68659484               13.22656750                4.19055452
              13.96596362                6.70527034               31.09160406                0.66009695               -0.01222373               -0.10388096                0.13243285               -0.04593561                0.24226005                1.29006101
              14.96706518                6.45984210               30.78742343                0.97653814                0.11015551                0.35874713               -0.90375287               -0.04174973                0.03052267               -1.90703346
               5.19640552               10.33234158               31.09029583                0.97346355                0.11093319               -0.05752081                0.11247643               -0.04226936                0.00261087                1.42193990
               6.19751485               10.07890289               30.78430695                0.44275732                0.24177500                0.27884260               -0.85598293                0.00086884                0.43771350               -1.19661487
               7.20124102                9.82483582               30.48690930                0.00122454                1.40196059                0.57535004               -1.78569335               -2.60174144               26.68262101               -3.04999192
               8.22555406                9.51741388               30.70551997                0.00010000                2.20016741               -0.23715381               -1.29603345               -3.56184070               52.10505959               -0.95527022
               9.24524436                9.19692649               30.90994213                0.00010000                1.27806936               -0.08910555               -0.88908246               -3.23360825               51.57947097                0.05679193
              10.25111545                8.87537444               31.11075619                0.00010000               -0.13249779                0.15523211               -0.54744602               -3.27950593               52.11478399                0.98742519
              11.24259441                8.55140395               31.31992855                0.00010000               -1.41642429                0.38965873               -0.25255789               -4.04579897               53.89720856                2.25315822
              12.22278696                8.22823181               31.55168230                0.10633170               -1.51592676                0.23026486                0.01280499               -3.90804576               41.04627088                4.78005668
              13.21227587                7.94722998               31.50051183                0.32567722               -0.66137486               -0.50706800                1.49780751               -1.85697576               13.93394580                2.95486738
              14.20955946                7.70388835               31.18997473                0.67699153               -0.12518967               -0.17630845                0.47597045               -0.06111710                0.47294311                1.15712832
              15.20977208                7.46277748               30.86950943                0.98618700                0.02126157                0.23368673               -0.62686408               -0.04612865               -0.01692101               -1.60702460
               5.44775026               11.33214659               31.01901394                0.98265074                0.18811010               -0.01949866               -0.11677006                0.12380660                0.68693056                1.20515467
               6.44963136               11.08203991               30.70520752                0.71683079                0.33000207                0.31370249               -1.11771038                0.14342616                1.69034930               -1.03684179
               7.45435030               10.83078209               30.41133987                0.49663411                3.29416358                0.59462724               -2.02937848               -3.35339522               30.21575547               -2.15657832
               8.51551463               10.50875345               30.66761692                0.44440268                4.55908252               -0.86604377               -1.41983770               -2.79554399               57.12628684               -0.59504414
               9.54553195               10.19495007               30.89818260                0.43423074                1.88136968               -0.19764149               -0.93534650               -1.51172840               56.08322243               -0.02984328
              10.55314202                9.87794371               31.12468910                0.44889693               -0.30307655                0.25692667               -0.52150140               -1.55558879               56.69906396                0.49337463
              11.53947042                9.55978515               31.36142990                0.48714191               -2.81469059                0.83812002               -0.15351850               -2.29441008               59.03661781                1.22324259
              12.49684821                9.23830349               31.63041628                0.55620668               -4.24784092                1.00716799                0.20519076               -3.46195271               45.27601189                3.00976030
              13.45451360                8.94242359               31.58936380                0.66718115               -2.38272170               -0.48063846                1.80466405               -2.60419336               16.35404476                1.94430730
              14.44919378                8.70174417               31.28536545                0.84426646               -0.30746307               -0.21441751                0.80982933                0.06804310                1.99585239                1.00994886
              15.44836434                8.46451583               30.95740271                0.99625690               -0.08294394                0.17383497               -0.32337064                0.13639153                0.80252680               -1.30586587
               2.96011699                1.45125527               32.70714114                1.00000000               -0.58763573               -0.64081119                2.18941695               -0.11147014               -1.48461663                1.51435057
               3.95424063                1.15551115               32.52065728                0.98981972               -0.53244298               -0.45879469                1.66254284               -0.07094627               -1.60018291               -0.21637505
               4.94946813                0.85864775               32.33201266                0.66340514               -0.56914615               -0.26703819                1.08734047               -0.27103760               -1.24798611               -1.12318252
               5.94285771                0.55570092               32.15287128                0.51502448               -0.73583971               -0.14672161                0.54608496               -0.40971215                0.64819897               -0.14353936
               6.93475134                0.23931482               32.00338682                0.45578753               -0.65533153                0.01395842               -0.00946541               -0.37577679                3.35237830               -0.13289227
               7.92975108               -0.09199777               31.88033438                0.45914384               -0.09638146                0.17487445               -0.60808766               -0.21976874                4.57388771                0.02443815
               8.93282371               -0.42872849               31.75710838                0.51815438                0.57321251                0.33378238               -1.19366836               -0.25151230                3.24010366                0.16012683
               9.94121533               -0.75927654               31.60781692                0.64286787                0.88018310                0.48592204               -1.73325821               -0.29097191                0.72865225                0.24301750
              10.95042737               -1.08065540               31.43365163                0.85859072                0.89998661                0.61813422               -2.25615405               -0.21094517               -1.22042978                0.53508636
              11.95921506               -1.39599966               31.24444019                1.00000000                0.91181817                0.75976850               -2.81080864               -0.09280968               -1.61064122                0.87574146
              12.96866373               -1.70916086               31.06178032                1.00000000                0.94486709                0.96731426               -3.33402934               -0.13562309               -1.25859383               -1.36844081
               3.25474641                2.44484716               32.63571685                1.00000000               -0.49114778               -0.61739726                1.94805724               -0.03814093                0.11774084                1.87782129
               4.24983493                2.15092321               32.44859517                0.78982468               -0.40417680               -0.41229936                1.40570098               -0.00251939                0.42395931               -0.59284112
               5.24666288                1.85597737               32.26764731                0.20105879               -0.07039384               -0.19478072                0.91768009               -0.29690287                2.19373177               -2.42387638
               6.24842706                1.55423370               32.11586708                0.00557468                0.40900195               -0.12898816                0.45104871               -0.95166074                4.78055409               -2.24814491
               7.25484291                1.23945440               31.98571136                0.00973643                0.65739960               -0.55153067               -0.04112994               -1.61514941                7.42697624                0.55888112
               8.26157505                0.90975097               31.88529200                0.01314157                0.45525266               -0.26718158               -0.57402858               -1.97357671                8.99692095                1.01276528
               9.26394797                0.57460933               31.78532702                0.01118441                0.13470090                0.10360981               -1.08972829               -1.71134931                7.66212514                1.26424072
              10.26426907                0.24558268               31.65829555                0.17370268                0.13657566                0.26340353               -1.55251748               -0.95533352                5.07883915                2.83022244
              11.26667948               -0.07447406               31.50752274                0.49412561                0.41353142                0.46041348               -1.99999186               -0.38508135                3.09622357                2.63999989
              12.27253969               -0.38840197               31.34151660                1.00000000                0.68946113                0.67710069               -2.43260483               -0.07914830                1.36032915                1.40020533
              13.28046870               -0.69948772               31.15598205                1.00000000                0.79290083                0.93062422               -2.92839195               -0.06701569                0.40958396               -1.50012037
               3.54720209                3.43890733               32.57168352                1.00000000               -0.41420448               -0.56300132                1.71520192               -0.05361315                0.22579254                2.11137066
               4.54306004                3.14726517               32.36905246                0.58483760               -0.34912514               -0.30389805                1.09188748               -0.02073448                0.76632635               -1.23654534
               5.54021958                2.85475214               32.17724327                0.06512129               -0.13562881               -0.01541275                0.56839332               -0.45708453                3.86832542               -4.65630366
               6.54034746                2.55312115               32.03673934                0.00010000                0.33557477               -0.51660298                0.28949977               -2.00258241               10.74130341               -1.62930779
               7.54693108                2.22828420               31.98171384                0.00010000                0.73885768               -0.90123140               -0.13560862               -3.19803313               14.26707449                0.81410284
               8.55512462                1.90265860               31.90976694                0.00010000                0.79169662               -0.73321352               -0.53492863               -3.37410432               13.39158652                2.03640040
               9.56276501                1.57334370               31.83535328                0.00010000                0.80337171               -0.37407695               -0.91764003               -3.12672729               13.29628508                2.99651754
              10.57119205                1.24599153               31.76022730                0.05127501                0.69726961               -0.24155485               -1.26067039               -2.08230691               10.21498423                4.78846704
              11.57671040                0.92855287               31.62318669                0.25501202                0.57268512               -0.34322537               -1.52498435               -0.83990492                5.26107265                6.97560420
              12.58264575                0.61754235               31.44864578                0.61012355                0.63922515                0.34900789               -1.97172449               -0.27707882                2.05319406                2.44215564
              13.58949491                0.30945162               31.24693043                0.95791929                0.68491510                0.98778943               -2.59303786               -0.22703215                0.72620533               -1.57472545
               3.83695847                4.43358714               32.50506240                1.00000000               -0.33830376               -0.49379088                1.47233688               -0.04923756                0.03452880                1.88445022
               4.83357544                4.14484525               32.28406173                0.54532980               -0.26466377               -0.19384324                0.79124545                0.00636190                0.27935348               -1.49151671
               5.83166520                3.85566911               32.06794109                0.04545047                0.06339519                0.14034117                0.14251486               -1.04720956                8.55218906               -5.26143191
               6.83484334                3.54390164               32.01247418                0.00010000                0.48398048               -0.68015065                0.05545242               -2.47770909               17.35598410               -0.27455085
               7.84134481                3.22142977               31.97090887                0.00010000                0.70950613               -0.63231427               -0.24190356               -3.18571601               18.48683372                0.55310720
               8.84903346                2.89508670               31.93596330                0.00010000                0.83678371               -0.73577988               -0.52287957               -3.44363848               18.75544320                2.18243724
               9.85808048                2.56712779               31.89753754                0.00010000                0.91901506               -0.71640870               -0.79001261               -3.32864793               18.23766472                3.78087944
              10.86741376                2.24075159               31.84996208                0.05522721                1.01250396               -0.76252375               -1.03921289               -2.85604869               16.94362473                5.19119438
              11.87833056                1.91866143               31.78384260                0.24954417                0.93427983               -0.97670486               -0.95507768               -1.24204155                8.54079219                7.89476467
              12.88609936                1.61857818               31.56607945                0.56987696                0.68894785                0.06420726               -1.59432960               -0.06435797                0.51794508                2.65822672
              13.89210952                1.32026807               31.33874455                0.91990415                0.60101580                1.05131419               -2.31444854               -0.07159866                0.05299330               -1.42958377
               4.12370112                5.42903151               32.43661377                1.00000000               -0.25958147               -0.41854989                1.23244082               -0.04855343                0.02290568                1.76933405
               5.12110530                5.14338830               32.19921787                0.52208423               -0.17410590               -0.10073210                0.49658386                0.02036585                0.17147800               -1.47338055
               6.12021900                4.85755896               31.96474659                0.03496192                0.19636610                0.23298503               -0.21847063               -1.50058934               11.88566372               -4.80028507
               7.12503262                4.53951814               31.96166944                0.00010000                0.59063495               -0.28300440               -0.22732662               -3.23669476               23.75653647               -1.79001746
               8.13203170                4.21563792               31.96264682                0.00010000                0.77606037               -0.50100061               -0.37302321               -3.67248000               24.11525007                0.48819260
               9.14055383                3.88794300               31.96418775                0.00010000                0.92477346               -0.70323684               -0.53599560               -3.87077412               24.18789765                2.31377369
              10.15052717                3.55901553               31.96372985                0.00010000                1.09918037               -0.88623673               -0.70006088               -3.82959754               24.03560532                4.17014857
              11.16253744                3.23074106               31.95922158                0.06251164                1.17579047               -1.09896039               -0.85140970               -3.32739393               22.21633788                6.27927387
              12.17404297                2.90901877               31.91935294                0.25943361                0.86072591               -0.88336402               -0.52376851               -1.49026440               10.49427417                6.05649899
              13.17975196                2.61882650               31.67746482                0.58210396                0.53200902                0.03075394               -1.25020971               -0.02209483                0.21188177                2.13391187
              14.18468316                2.33047791               31.43132293                0.92721143                0.49311998                0.94905383               -2.04005221               -0.03384657                0.01180337               -1.50216981
               4.40727383                6.42521614               32.36780620                1.00000000               -0.18185205               -0.34550065                0.99648160               -0.04712030                0.02088891                1.73670933
               5.40545531                6.14283060               32.11431706                0.50149432               -0.08751258               -0.01289685                0.20747309                0.02455950                0.18115686               -1.45668498
               6.40552358                5.86032882               31.86395585                0.02640358                0.32875902                0.32195462               -0.55943505               -1.86698153               15.02575119               -4.61242544
               7.41203049                5.53824155               31.90737665                0.00010000                0.69733877               -0.00829610               -0.48950853               -3.90694152               29.86088777               -2.00575569
               8.41947035                5.21140976               31.95124229                0.00010000                0.81049420               -0.32612052               -0.51519237               -4.28083153               29.97527705                0.26269145
               9.42824037                4.88102196               31.99388714                0.00010000                0.96100600               -0.65700596               -0.56725197               -4.52382853               29.98586964                2.36890218
              10.43869047                4.54940306               32.03446451                0.00010000                1.13111373               -0.97635090               -0.63711444               -4.55564489               29.89017782                4.45632919
              11.45086265                4.21877238               32.07141172                0.07001541                1.08746815               -1.21470107               -0.71950242               -3.93245832               26.71766166                6.56636026
              12.46043983                3.90099415               32.04470489                0.27036047                0.66678403               -0.74722019               -0.11248442               -1.73570111               12.03332417                5.28593859
              13.46419833                3.61919326               31.78469586                0.59653305                0.38449678                0.02819242               -0.90706412               -0.03033568                0.19872550                1.76456861
              14.46812977                3.33924915               31.52076987                0.93612018                0.39314434                0.80319861               -1.76438136               -0.03458532                0.01341658               -1.74230442
               4.68752978                7.42212150               32.29882712                1.00000000               -0.10459646               -0.27563931                0.76217015               -0.04675314                0.01947490                1.71227322
               5.68648381                7.14313037               32.02948674                0.48246423               -0.00306802                0.07067111               -0.07203560                0.02237338                0.20680189               -1.42615401
               6.68746842                6.86399805               31.76379826                0.01847894                0.46645153                0.40842341               -0.88975697               -2.16829900               18.09618027               -4.52468949
               7.69581285                6.53935222               31.85223302                0.00010000                0.80831172                0.22515965               -0.73898848               -4.49854250               35.87524212               -2.05188415
               8.70363465                6.20911551               31.93903562                0.00010000                0.81355593               -0.12602663               -0.65428645               -4.91635295               35.89113457                0.17765697
               9.71208396                5.87480288               32.02415918                0.00010000                0.90145998               -0.55516581               -0.60544066               -5.22239392               35.92521134                2.33391856
              10.72166385                5.53948851               32.10753973                0.00010000                1.01066063               -0.95972542               -0.58956295               -5.31215301               35.89506138                4.56503433
              11.73229718                5.20644704               32.18764464                0.07775256                0.86221084               -1.21853653               -0.60966043               -4.41820602               30.87081657                6.94476718
              12.73890807                4.89407437               32.16607892                0.28167352                0.42965346               -0.65643393                0.29485134               -1.83973944               13.17437309                4.92000476
              13.74089025                4.61939035               31.88898548                0.61149107                0.24858036                0.00054253               -0.56579945               -0.03547631                0.21291880                1.51362143
              14.74387968                4.34654188               31.60777658                0.94522985                0.29894311                0.65693388               -1.49040914               -0.03633689                0.01673958               -1.90713646
               4.96432103                8.41970335               32.22967775                0.99034625               -0.02948120               -0.20679171                0.53702273               -0.04526131                0.03043128                1.69359149
               5.96402622                8.14424403               31.94485502                0.46474119                0.08073553                0.14777426               -0.34170348                0.01451050                0.23653605               -1.39264964
               6.96593574                7.86849728               31.66406874                0.01090115                0.64579800                0.48585854               -1.21490976               -2.40349849               21.12529049               -4.44398823
               7.97694218                7.54274474               31.79687319                0.00010000                0.98784436                0.42498054               -0.97350904               -4.90826404               41.83605374               -2.01051669
               8.98569263                7.20888923               31.92642455                0.00010000                0.82386545                0.04957591               -0.78401342               -5.36414721               41.80162419                0.11416013
               9.99341949                6.86991865               32.05419381                0.00010000                0.75553105               -0.39090861               -0.63947098               -5.69300599               41.94193278                2.16035039
              11.00080325                6.53020855               32.18182983                0.00010000                0.72465903               -0.82604086               -0.54040659               -5.88815670               42.14771197                4.45691629
              12.00791267                6.19440165               32.30880031                0.08573588                0.49492416               -1.13373159               -0.49478638               -4.76241874               34.82606304                7.26717382
              13.01070173                5.88786547               32.28512885                0.29332819                0.15543075               -0.59850380                0.70098998               -1.86431960               13.93746689                4.68238967
              14.01102128                5.61920411               31.99139940                0.62693775                0.11991155               -0.04535716               -0.22521274               -0.04027622                0.23009776                1.36639904
              15.01309997                5.35238783               31.69327817                0.95448992                0.20786805                0.51443637               -1.21682797               -0.03854520                0.01942394               -1.98411570
               5.23754321                9.41798567               32.16046676                0.97675972                0.04368882               -0.13332386                0.32638148               -0.04328082                0.04881242                1.69589707
               6.23798009                9.14608585               31.86040878                0.44825006                0.16772622                0.21856531               -0.61526876                0.00622338                0.28137200               -1.39360875
               7.24089773                8.87371522               31.56490859                0.00354768                0.96377621                0.55088212               -1.53657465               -2.59300967               24.17190795               -4.23838594
               8.25725562                8.54785183               31.74237322                0.00010000                1.41400377                0.43841593               -1.18910253               -5.02347261               47.75439533               -1.74718664
               9.26917781                8.21010703               31.91344930                0.00010000                0.98244529                0.03413311               -0.89672875               -5.14996831               47.58502195                0.06585546
              10.27690452                7.86698471               32.08209507                0.00010000                0.51199562               -0.15252925               -0.66001217               -5.40104374               47.91526730                1.72991538
              11.27941772                7.52296769               32.25420097                0.00010000                0.12436765               -0.41110442               -0.47635481               -5.87653041               48.67496742                3.80012864
              12.27939188                7.18377241               32.43291480                0.09401565               -0.12992526               -0.82034529               -0.35277688               -5.01702553               38.79212257                7.04135088
              13.27681921                6.88210429               32.40249158                0.30528889               -0.19147542               -0.56064648                1.10553502               -1.90070708               14.47686214                4.35577130
              14.27556237                6.61848320               32.09285511                0.64287344               -0.00389332               -0.10494673                0.11646076               -0.04970736                0.27532302                1.33504277
              15.27674135                6.35683061               31.77821181                0.96388983                0.11789778                0.37667659               -0.94116852               -0.04106734                0.03330638               -1.99454001
               5.50725505               10.41703688               32.09142710                0.96347097                0.11660844               -0.05726986                0.11305850               -0.04301541               -0.00025370                1.47605932
               6.50842113               10.14861533               31.77555645                0.43244314                0.25272632                0.28922298               -0.89311670               -0.00154277                0.45906214               -1.24709323
               7.51230957                9.87951493               31.46876067                0.00122809                1.58298975                0.59645817               -1.84861810               -2.87977646               27.44052511               -3.15846574
               8.54008092                9.55151306               31.69218919                0.00010000                2.56254071               -0.33439090               -1.37306509               -3.92715402               53.55943402               -1.00759341
               9.56356039                9.20957189               31.90059593                0.00010000                1.62285112               -0.17807835               -0.98222760               -3.52734154               52.98646978                0.02670092
              10.57253795                8.86686806               32.10472028                0.00010000                0.14622787                0.08941725               -0.66058858               -3.52040271               53.48717367                0.97528533
              11.56648494                8.52198646               32.31669296                0.00010000               -1.20511919                0.35441245               -0.39421460               -4.28115815               55.24670665                2.26274875
              12.54843556                8.17799474               32.55086490                0.10275393               -1.42540747                0.25815761               -0.17500972               -4.16205337               43.06398329                4.83181827
              13.53797679                7.87665254               32.51548893                0.31760772               -0.65673719               -0.51166183                1.49691725               -2.06471168               15.32283994                3.07302959
              14.53530082                7.61710518               32.19467751                0.65929500               -0.11964912               -0.17507472                0.46339961               -0.06647562                0.51607780                1.20070727
              15.53558381                7.35992136               31.86307764                0.97321986                0.02829920                0.24721664               -0.66201481               -0.04605373               -0.01571112               -1.67746897
               5.77352598               11.41684027               32.01782705                0.97775690                0.19452048               -0.01966076               -0.11894195                0.13009803                0.70925256                1.24768503
               6.77547119               11.15187031               31.69384384                0.71181755                0.34392432                0.32549774               -1.15723360                0.14521182                1.75933478               -1.07811687
               7.78040447               10.88564439               31.39073236                0.49590933                3.65921916                0.61294612               -2.09530596               -3.72582516               31.09616221               -2.23354020
               8.84865557               10.54116401               31.65304430                0.44463844                5.14357527               -1.03490535               -1.49798627               -3.09748164               58.74256291               -0.62924359
               9.88327598               10.20654546               31.88836881                0.43439065                2.27131645               -0.30264318               -1.02961938               -1.64798898               57.62684664               -0.05111528
              10.89408190                9.86877305               32.11890064                0.44869088               -0.03040500                0.19049881               -0.63717855               -1.67008045               58.20429944                0.48242546
              11.88266788                9.53005594               32.35915537                0.48631619               -2.62985873                0.80694827               -0.30124920               -2.37358144               60.52922879                1.22554571
              12.84148473                9.18893556               32.63144830                0.55440533               -4.31266657                1.09408152                0.00118079               -3.60432818               47.47310341                3.04585357
              13.79641454                8.87187105               32.60742679                0.66309609               -2.52603420               -0.47814902                1.80722144               -2.85391736               17.88477661                2.02315418
              14.79096404                8.61498171               32.29342785                0.83527146               -0.31133156               -0.21234679                0.80156440                0.06151666                2.10207495                1.04959800
              15.79018791                8.36177494               31.95402408                0.98967154               -0.07761295                0.18535833               -0.35481817                0.13973321                0.83773257               -1.36105677
               3.13423875                1.53922687               33.72913406                1.00000000               -0.59516226               -0.64726912                2.20992092               -0.11235063               -1.51368542                1.55366173
               4.12828713                1.22650039               33.53736337                0.98020287               -0.54374002               -0.46121742                1.67880219               -0.07156351               -1.65427278               -0.25686998
               5.12336395                0.91255899               33.34293379                0.65969877               -0.60780165               -0.26561306                1.09635625               -0.29881083               -1.31016390               -1.13652952
               6.11613110                0.59172340               33.15835235                0.51414486               -0.81730255               -0.14506433                0.54974318               -0.45068248                0.59497768               -0.14808274
               7.10701790                0.25579437               33.00327232                0.45570720               -0.75214731                0.02217994               -0.01342536               -0.41278332                3.27079990               -0.13747585
               8.10108815               -0.09688442               32.87419740                0.45881252               -0.15568104                0.18791099               -0.61945414               -0.23930939                4.47668715                0.02451770
               9.10390428               -0.45584487               32.74507566                0.51679729                0.57665227                0.34821569               -1.21359137               -0.27132764                3.16684235                0.16523776
              10.11262120               -0.80819003               32.59033952                0.63943426                0.91914575                0.50093595               -1.76450167               -0.31793460                0.68016106                0.25187993
              11.12228720               -1.15043491               32.41086623                0.85140717                0.93954827                0.63447704               -2.30430787               -0.23498705               -1.28077883                0.54062399
              12.13141216               -1.48598047               32.21601923                1.00000000                0.94172079                0.78268800               -2.87842948               -0.10374793               -1.67262790                0.91328160
              13.14112161               -1.81915456               32.02803221                1.00000000                0.97094495                0.99993352               -3.42177233               -0.13836026               -1.30276654               -1.39009764
               3.44584172                2.53275417               33.65526362                1.00000000               -0.49362880               -0.62427547                1.96191361               -0.03878565                0.13560116                1.92048083
               4.44090543                2.22188822               33.46269167                0.77268111               -0.40386909               -0.41203177                1.41354341               -0.00457509                0.47038298               -0.66250771
               5.43776434                1.90990286               33.27686674                0.19571799               -0.04494263               -0.18634448                0.92580294               -0.34096517                2.27837214               -2.52990358
               6.44000658                1.59027275               33.12038707                0.00573966                0.47148185               -0.13833130                0.45267691               -1.06840805                4.86202658               -2.28408394
               7.44719398                1.25601617               32.98527142                0.00979924                0.72540481               -0.58960276               -0.04691899               -1.80417340                7.47273656                0.52099467
               8.45451468                0.90499469               32.87947417                0.01313478                0.48249162               -0.27832175               -0.58964306               -2.20600122                9.02808965                1.01478937
               9.45684381                0.54763729               32.77429110                0.01130099                0.11110968                0.12911364               -1.11752260               -1.92252840                7.72989922                1.30550195
              10.45673687                0.19681933               32.64256775                0.16888319                0.09943665                0.26939523               -1.59415895               -1.08938137                5.18350227                2.89871938
              11.45883254               -0.14409014               32.48724159                0.48344775                0.39988181                0.46740278               -2.05888208               -0.44526780                3.21616887                2.76178391
              12.46473451               -0.47815359               32.31674199                1.00000000                0.70397802                0.70045373               -2.51964312               -0.09388644                1.45848192                1.48587396
              13.47291210               -0.80915523               32.12616235                1.00000000                0.81775958                0.96897601               -3.03288579               -0.06933558                0.47901788               -1.55322186
               3.75519496                3.52674136               33.58886591                1.00000000               -0.41480109               -0.57006914                1.72179520               -0.05503240                0.22313492                2.15226751
               4.75104695                3.21825975               33.37995574                0.57066328               -0.35174231               -0.29715122                1.08856028               -0.02417905                0.81540854               -1.32735862
               5.74816011                2.90883210               33.18290195                0.06208238               -0.11986607                0.01055422                0.56292327               -0.53447792                4.09418656               -4.89181774
               6.74864962                2.58895677               33.03966636                0.00010000                0.40261941               -0.55466902                0.29558154               -2.22491918               11.01519328               -1.74781950
               7.75621250                2.24400231               32.98027413                0.00010000                0.83486928               -0.96622311               -0.15315707               -3.53478614               14.47725728                0.74324023
               8.76534701                1.89754914               32.90429324                0.00010000                0.87082878               -0.77020405               -0.56098758               -3.75205153               13.62907216                2.03039891
               9.77362907                1.54673740               32.82601966                0.00010000                0.86069937               -0.36638899               -0.95067509               -3.51227620               13.56583620                3.05208589
              10.78256100                1.19719787               32.74742369                0.04830128                0.73628402               -0.22256409               -1.30639005               -2.36704456               10.55099395                4.88498410
              11.78835475                0.85891314               32.60769735                0.24800118                0.60192604               -0.38035148               -1.58062294               -0.93685430                5.55341433                7.26147978
              12.79459952                0.52802861               32.42845386                0.59415351                0.66917118                0.36357366               -2.06325716               -0.29834051                2.16722851                2.54499543
              13.80173818                0.20022496               32.22038854                0.94587259                0.71386602                1.04684989               -2.70809917               -0.24518612                0.75377349               -1.67463105
               4.06170428                4.52135279               33.51978684                1.00000000               -0.33731658               -0.50056843                1.47219665               -0.05017393                0.03358555                1.92082007
               5.05833111                4.21594519               33.29192272                0.53207556               -0.26632558               -0.18127451                0.78047553                0.00748285                0.29510230               -1.57026464
               6.05637776                3.91011394               33.06926848                0.04272350                0.10034354                0.17729943                0.12223658               -1.16980654                8.86410536               -5.49727937
               7.06033798                3.57917937               33.01287419                0.00010000                0.57640584               -0.71335686                0.02349051               -2.73542534               17.85085633               -0.44697930
               8.06790588                3.23669171               32.96834371                0.00010000                0.82002890               -0.67155728               -0.27241535               -3.50607864               18.89081947                0.46671738
               9.07673856                2.88959061               32.93056292                0.00010000                0.95218379               -0.77611816               -0.55879376               -3.80199540               19.18032313                2.15426624
              10.08694956                2.54030951               32.88945594                0.00010000                1.02408396               -0.74500898               -0.82845535               -3.68227999               18.68742683                3.79849633
              11.09722024                2.19236804               32.83940646                0.05224006                1.11575825               -0.75751316               -1.07481482               -3.19016012               17.57769026                5.23856975
              12.10926472                1.84830283               32.77412863                0.24268324                1.01178218               -1.04820474               -0.99464552               -1.39013590                8.99085229                8.15648626
              13.11745588                1.52911788               32.54991525                0.55465076                0.71754779                0.06292944               -1.64701775               -0.06397649                0.56665457                2.70767216
              14.12361568                1.21178177               32.31523369                0.90863705                0.61597961                1.11571788               -2.39299651               -0.07549888                0.05818221               -1.53692674
               4.36500668                5.51672999               33.44891584                1.00000000               -0.25712253               -0.42507386                1.22783143               -0.04899560                0.02348639                1.80896086
               5.36243545                5.21463426               33.20410362                0.50922438               -0.17384404               -0.08494811                0.47921641                0.02295042                0.18326264               -1.54386674
               6.36152980                4.91237809               32.96242472                0.03235620                0.24639498                0.27052567               -0.24669459               -1.65644086               12.25918107               -4.98763998
               7.36736335                4.57468963               32.95918493                0.00010000                0.70749474               -0.28690324               -0.27095011               -3.55727162               24.42536582               -1.96300392
               8.37567969                4.23057117               32.95869949                0.00010000                0.91629752               -0.53095867               -0.41806187               -4.02676965               24.71904972                0.38782069
               9.38568930                3.88202678               32.95860407                0.00010000                1.07631726               -0.74733346               -0.58237971               -4.24297124               24.79270273                2.26620443
              10.39720604                3.53183722               32.95651591                0.00010000                1.25375852               -0.93240037               -0.74427033               -4.19608544               24.65845590                4.15728517
              11.41076447                3.18204761               32.95054708                0.05937780                1.32980799               -1.14373233               -0.88523745               -3.69883832               23.09618418                6.28212293
              12.42380220                2.83794905               32.91401535                0.25233461                0.95382865               -0.94978420               -0.55008901               -1.68087478               11.09624717                6.23798299
              13.42984105                2.52928719               32.66482276                0.56651357                0.55491165                0.02114182               -1.28449069               -0.02132052                0.24972666                2.16378936
              14.43490043                2.22253931               32.41065226                0.91569590                0.50593840                0.99710499               -2.09924260               -0.03144779                0.01386482               -1.60660074
               4.66491581                6.51285131               33.37774013                1.00000000               -0.17737905               -0.35299828                0.98590673               -0.04831127                0.01942864                1.77689367
               5.66314202                6.21424623               33.11628555                0.48911224               -0.08611163                0.00472593                0.18697758                0.02450169                0.19218696               -1.51536015
               6.66319358                5.91552445               32.85819711                0.02398024                0.39287235                0.35818858               -0.59386554               -2.05417318               15.46547497               -4.78233780
               7.67099947                5.57344131               32.90223060                0.00010000                0.84198821               -0.00318435               -0.54144425               -4.27905265               30.68692573               -2.15855371
               8.68003334                5.22607253               32.94581735                0.00010000                0.98068073               -0.35195711               -0.57153572               -4.67617767               30.75712816                0.16113896
               9.69061308                4.87464394               32.98793032                0.00010000                1.14868394               -0.70589445               -0.62547659               -4.92851894               30.75972869                2.30966848
              10.70300702                4.52166150               33.02782192                0.00010000                1.32592825               -1.03865088               -0.69199828               -4.94886429               30.66341499                4.42216470
              11.71713165                4.16949340               33.06400695                0.06673633                1.27003100               -1.27771240               -0.76123279               -4.34200294               27.84342386                6.52973358
              12.72840764                3.82930714               33.04350434                0.26302250                0.76537790               -0.80291396               -0.13228554               -1.95789510               12.81154798                5.45652489
              13.73243920                3.52954072               32.77550503                0.58056643                0.40374207                0.01838136               -0.93491361               -0.03148925                0.23450523                1.79638385
              14.73648248                3.23172387               32.50288555                0.92433338                0.40432777                0.84098637               -1.81607660               -0.03243332                0.01502396               -1.84387594
               4.96125062                7.50967002               33.30637581                0.99367413               -0.09982769               -0.28295999                0.75426234               -0.04603945                0.02897630                1.76106072
               5.96025235                7.21472878               33.02867217                0.47053737                0.00003156                0.08608906               -0.09262124                0.01750043                0.21934152               -1.47667708
               6.96125125                6.91954186               32.75470297                0.01625094                0.54909376                0.44082192               -0.93178625               -2.38266938               18.60228503               -4.68843599
               7.97123422                6.57462595               32.84455629                0.00010000                0.98511277                0.23299704               -0.79848513               -4.91562839               36.85472668               -2.19113522
               8.98095351                6.22353203               32.93216433                0.00010000                1.01478688               -0.15140381               -0.72172005               -5.35142189               36.83966655                0.08213702
               9.99152996                5.86790889               33.01774950                0.00010000                1.12128912               -0.60892896               -0.67745237               -5.65905845               36.85629727                2.27249751
              11.00337929                5.51106420               33.10128392                0.00010000                1.23744052               -1.03041408               -0.66110449               -5.73055796               36.80731934                4.52259085
              12.01627877                5.15649336               33.18122577                0.07433993                1.06088406               -1.28740460               -0.67171726               -4.84536126               32.24813356                6.89857269
              13.02459697                4.82189077               33.16896384                0.27409972                0.52578831               -0.69946562                0.27878268               -2.07580088               14.14170687                5.09041023
              14.02679453                4.52965482               32.88321806                0.59513270                0.26442467               -0.00582010               -0.59040715               -0.03814869                0.24907608                1.54802135
              15.02988547                4.23935904               32.59265060                0.93319370                0.30909309                0.68805640               -1.53796428               -0.03462529                0.01865483               -2.00662270
               5.25387750                8.50719211               33.23503942                0.97958298               -0.02573068               -0.21022137                0.54246470               -0.04441734                0.04122946                1.76065791
               6.25362019                8.21596801               32.94131199                0.45334274                0.08827635                0.15803392               -0.37006229                0.00951327                0.24948161               -1.44782729
               7.25564303                7.92434089               32.65168156                0.00887785                0.75382692                0.51367927               -1.26550544               -2.63740889               21.70509669               -4.60644153
               8.26869673                7.57810125               32.78681183                0.00010000                1.20394669                0.43054220               -1.04119899               -5.35706732               42.97178864               -2.13532453
               9.27972196                7.22304446               32.91819894                0.00010000                1.06015020                0.01729419               -0.86283447               -5.82230671               42.91082811                0.02965452
              10.28989973                6.86246536               33.04736382                0.00010000                1.00447163               -0.44989947               -0.72712523               -6.13789607               43.02452144                2.10559858
              11.29981139                6.50105322               33.17594945                0.00010000                0.97490611               -0.89663954               -0.63417663               -6.30879808               43.19628701                4.42050389
              12.30939786                6.14374531               33.30335738                0.08220914                0.69593847               -1.20163670               -0.59010087               -5.18135781               36.45494572                7.23521703
              13.31373016                5.81531783               33.29208953                0.28553805                0.24050501               -0.62852342                0.68842293               -2.10056863               15.09424119                4.85362068
              14.31420796                5.52942432               32.98904794                0.61015400                0.13256871               -0.04808676               -0.24724333               -0.04387546                0.26698893                1.40395655
              15.31638154                5.24548500               32.68089971                0.94217739                0.21735789                0.53963893               -1.26179459               -0.03730996                0.02173472               -2.08036870
               5.54281048                9.50546559               33.16376475                0.96635416                0.04833483               -0.13448196                0.33152094               -0.04440108                0.04859976                1.76514950
               6.54329383                9.21788946               32.85407522                0.43734218                0.17796764                0.22789743               -0.64958451                0.00460897                0.29680162               -1.45281567
               7.54636984                8.92981544               32.54925962                0.00192892                1.10477394                0.57509248               -1.59730482               -2.84384599               24.83968689               -4.39686723
               8.56538931                8.58323679               32.73011407                0.00010000                1.68867145                0.42448470               -1.26522948               -5.48633951               49.05423617               -1.84985605
               9.58014327                8.22387791               32.90404339                0.00010000                1.26869831               -0.02517300               -0.98619222               -5.58025888               48.85233834               -0.00003949
              10.59076328                7.85891090               33.07498158                0.00010000                0.78900585               -0.21953901               -0.76309316               -5.79421696               49.14752658                1.68894995
              11.59592338                7.49313141               33.24883316                0.00010000                0.38118606               -0.46743472               -0.59539550               -6.24388704               49.86504708                3.77862833
              12.59838700                7.13246063               33.42867425                0.09040025                0.04916025               -0.87053168               -0.49096301               -5.39691550               40.66736646                7.03871276
              13.59690659                6.80932030               33.41351605                0.29728067               -0.13185694               -0.57812360                1.09734122               -2.12888245               15.81245630                4.52140561
              14.59574986                6.52869309               33.09393328                0.62564418                0.00556608               -0.10472854                0.09732212               -0.05420636                0.31448311                1.37809057
              15.59701791                6.25015182               32.76860005                0.95130059                0.12680498                0.39654166               -0.98402393               -0.04032320                0.03652226               -2.08582304
               5.82814174               10.50450247               33.09255700                0.95338505                0.12207794               -0.05825997                0.11457755               -0.04309015               -0.00093170                1.53135505
               6.82936252               10.22052596               32.76644462                0.42202825                0.26385166                0.30066625               -0.93075413               -0.00204104                0.48475807               -1.29923337
               7.83341878                9.93584274               32.44993694                0.00124014                1.77724755                0.61762335               -1.91862498               -3.16158800               28.21388163               -3.27800935
               8.86490747                9.58659094               32.67805867                0.00010000                2.95119473               -0.43892123               -1.45583276               -4.29808127               55.03356167               -1.06820024
               9.89244267                9.22254100               32.89029757                0.00010000                1.99272094               -0.27479495               -1.07923296               -3.82235473               54.40706795               -0.01114294
              10.90476189                8.85807458               33.09754442                0.00010000                0.44706279                0.01602975               -0.77501561               -3.75791485               54.86475972                0.95297305
              11.90138393                8.49170452               33.31204426                0.00010000               -0.97456162                0.31199162               -0.53407297               -4.50779790               56.58586195                2.25530571
              12.88527066                8.12633467               33.54818211                0.09908425               -1.32319372                0.27965582               -0.35798600               -4.41486520               45.17477027                4.84904190
              13.87492005                7.80375536               33.53045017                0.30941895               -0.64891754               -0.51546746                1.49354212               -2.28409641               16.82197599                3.19245374
              14.87229231                7.52732975               33.19924273                0.64157534               -0.11312244               -0.17288147                0.44796382               -0.07256964                0.56533177                1.24382520
              15.87265760                7.25341583               32.85626913                0.96030362                0.03652947                0.26250035               -0.70255313               -0.04595997               -0.01403366               -1.75067428
               6.10990171               11.50430040               33.01663510                0.97281701                0.20110301               -0.02020799               -0.11918046                0.13623608                0.73231465                1.29464742
               7.11191274               11.22390279               32.68206284                0.70676692                0.35856892                0.33768276               -1.19983379                0.14839778                1.83614240               -1.12401616
               8.11707309               10.94216791               32.36943375                0.49514949                4.04083441                0.63251674               -2.16762981               -4.10678953               31.99933036               -2.31706076
               9.19272943               10.57445837               32.63765719                0.44485750                5.75697220               -1.21325772               -1.58235685               -3.40709920               60.38078502               -0.66767931
              10.23221254               10.21838201               32.87759022                0.43454713                2.68560116               -0.41589856               -1.12821416               -1.78435707               59.18449118               -0.07610319
              11.24644145                9.85923150               33.11194553                0.44845994                0.26473976                0.11569181               -0.75451969               -1.78258209               59.71313208                0.46621026
              12.23750733                9.49937125               33.35540492                0.48546518               -2.42012986                0.76667234               -0.44778154               -2.44654737               62.00473638                1.21833574
              13.19803886                9.13805374               33.63043989                0.55254937               -4.36388733                1.17190703               -0.20042091               -3.74119503               49.76756441                3.05887660
              14.15022958                8.79901095               33.62550823                0.65895929               -2.67004311               -0.47444082                1.80735558               -3.10996119               19.53838725                2.10338747
              15.14463799                8.52523546               33.30139673                0.82625747               -0.31515199               -0.20942908                0.79059020                0.05411240                2.21603821                1.08962200
              16.14392654                8.25540183               32.95030635                0.98311978               -0.07114508                0.19859969               -0.39169389                0.14353106                0.87429760               -1.41807639
               3.31338467                1.63006940               34.75133956                1.00000000               -0.60292247               -0.65444723                2.23193878               -0.11345881               -1.54189970                1.59306880
               4.30735545                1.29971715               34.55423332                0.97044466               -0.55543995               -0.46364781                1.69561333               -0.07250497               -1.70924046               -0.30111015
               5.30227587                0.96805126               34.35393979                0.65590667               -0.64683525               -0.26401232                1.10472302               -0.32646208               -1.37356283               -1.14796827
               6.29441874                0.62866982               34.16386615                0.51320609               -0.89767938               -0.14318098                0.55223501               -0.48979104                0.54181056               -0.15303517
               7.28432229                0.27256710               34.00311831                0.45562953               -0.84686309                0.03053858               -0.01874317               -0.44771281                3.19122347               -0.14177016
               8.27748148               -0.10206095               33.86794529                0.45847062               -0.21519266                0.20118748               -0.63312791               -0.25751889                4.38546379                0.02511111
               9.28001843               -0.48385463               33.73283656                0.51548125                0.57732500                0.36299994               -1.23731034               -0.28832905                3.10148377                0.17125332
              10.28902798               -0.85869540               33.57252689                0.63597902                0.95568254                0.51683074               -1.80187897               -0.34088648                0.63727559                0.26162234
              11.29913208               -1.22259364               33.38756547                0.84418449                0.97842741                0.65241393               -2.35957808               -0.25455366               -1.33859900                0.54529938
              12.30859653               -1.57917955               33.18687160                1.00000000                0.97251859                0.80604208               -2.95355033               -0.11226856               -1.73256616                0.94561175
              13.31858245               -1.93322310               32.99334488                1.00000000                0.99859262                1.03146171               -3.51707136               -0.14176698               -1.34635077               -1.41138115
               3.64260233                2.62352493               34.67495512                1.00000000               -0.49628645               -0.63199723                1.97706927               -0.03940294                0.15446984                1.96304026
               4.63763947                2.29508068               34.47686604                0.75542627               -0.40337065               -0.41151087                1.42140988               -0.00685323                0.52106296               -0.73728730
               5.63453492                1.96541114               34.28616337                0.19028104               -0.01882765               -0.17686110                0.93336436               -0.38629175                2.36725415               -2.64063341
               6.63726291                1.62723801               34.12492061                0.00590622                0.53378140               -0.14960910                0.45356003               -1.18391211                4.94404213               -2.31737504
               7.64521055                1.27287249               33.98477299                0.00986884                0.79271205               -0.62451914               -0.05327841               -1.98800184                7.51866000                0.47749634
               8.65311715                0.89995092               33.87349913                0.01314121                0.51209093               -0.28806115               -0.60597955               -2.43090313                9.06017791                1.01270268
               9.65545236                0.51977537               33.76297657                0.01144032                0.09357348                0.15376039               -1.14608273               -2.12725806                7.80085856                1.34720187
              10.65498862                0.14647291               33.62641237                0.16402776                0.06881271                0.27739546               -1.63747733               -1.21693118                5.29315119                2.96782178
              11.65682862               -0.21606950               33.46634509                0.47264439                0.38999741                0.47445354               -2.12070025               -0.49878011                3.33779915                2.88615162
              12.66278857               -0.57111912               33.29112374                0.98262962                0.71898611                0.72242736               -2.60274946               -0.10681853                1.55740818                1.56921625
              13.67120834               -0.92290848               33.09532433                1.00000000                0.84197688                1.00553835               -3.13246786               -0.07300747                0.55240571               -1.60715314
               3.96948512                3.61742946               34.60611942                1.00000000               -0.41529475               -0.57856612                1.72895842               -0.05644786                0.21949267                2.19249934
               4.96533217                3.29148694               34.39082367                0.55648602               -0.35462090               -0.28943003                1.08488880               -0.02795220                0.86754966               -1.42264807
               5.96239270                2.96451404               34.18850174                0.05898903               -0.10265087                0.03948082                0.55644771               -0.61741864                4.33428107               -5.13916834
               6.96327915                2.62567764               34.04265097                0.00010000                0.47283200               -0.58972652                0.30116213               -2.44574984               11.29271782               -1.88289533
               7.97184934                2.26007672               33.97865070                0.00010000                0.93406879               -1.02668623               -0.17279746               -3.86189478               14.68230013                0.65958178
               8.98196053                1.89217782               33.89854719                0.00010000                0.95509714               -0.80448625               -0.58980109               -4.12227993               13.87252068                2.01411502
               9.99095128                1.51922058               33.81633977                0.00010000                0.92868517               -0.35869563               -0.98782608               -3.88961012               13.84173132                3.10312384
              11.00053423                1.14685251               33.73409950                0.04524573                0.78986141               -0.20366605               -1.36124359               -2.65094458               10.89792680                4.99182801
              12.00674851                0.78689543               33.59157423                0.24085952                0.63824526               -0.42286672               -1.64392459               -1.03866557                5.84943539                7.56073430
              13.01329914                0.43526900               33.40738064                0.57793570                0.69762561                0.37409271               -2.14769755               -0.32344736                2.27587253                2.66384119
              14.02070102                0.08688767               33.19276844                0.93358884                0.74018859                1.10871522               -2.81170415               -0.26673624                0.78028718               -1.75937840
               4.29335841                4.61195361               34.53450633                1.00000000               -0.33625754               -0.50860111                1.47186095               -0.05064481                0.03312220                1.95848964
               5.28999584                4.28929208               34.29967124                0.51874127               -0.26812860               -0.16694004                0.76807020                0.00883261                0.31233858               -1.65109890
               6.28799584                3.96620076               34.07038582                0.03992605                0.13947014                0.21817438                0.10072924               -1.29599908                9.17636964               -5.74191635
               7.29278524                3.61544348               34.01294399                0.00010000                0.67383137               -0.73879983               -0.01074307               -2.99379883               18.35232022               -0.64459967
               8.30147247                3.25233876               33.96546057                0.00010000                0.93712250               -0.70780129               -0.30596993               -3.82190397               19.30626681                0.36492758
               9.31152769                2.88386120               33.92478742                0.00010000                1.07565035               -0.81390712               -0.59847901               -4.15531870               19.61656628                2.11404231
              10.32298548                2.51260146               33.88096843                0.00010000                1.13835975               -0.77126639               -0.87158584               -4.03298127               19.15483680                3.80922329
              11.33429489                2.14239959               33.82846578                0.04918329                1.23266693               -0.75347425               -1.11597663               -3.53504230               18.23003637                5.29399799
              12.34763881                1.77547316               33.76394969                0.23571462                1.10162507               -1.12463544               -1.04627506               -1.55465644                9.45335812                8.43238229
              13.35632739                1.43636273               33.53313909                0.53942781                0.74987371                0.06217530               -1.71050405               -0.06984496                0.61921864                2.78016755
              14.36263629                1.09926582               33.29088462                0.89739719                0.63089012                1.19031855               -2.47714795               -0.07966911                0.06168393               -1.62461247
               4.61379529                5.60725744               34.46117040                1.00000000               -0.25336113               -0.43297816                1.21861881               -0.05027276                0.02235854                1.84846753
               5.61126167                5.28814814               34.20880220                0.49626844               -0.17369865               -0.06686130                0.46049555                0.02331597                0.19500558               -1.61257741
               6.61032131                4.96887753               33.95981270                0.02968801                0.30017494                0.31015270               -0.27670019               -1.81771549               12.63198428               -5.18138519
               7.61726517                4.61090164               33.95625044                0.00010000                0.83361183               -0.28721833               -0.31761728               -3.87966571               25.10034399               -2.14745944
               8.62699355                4.24592069               33.95428558                0.00010000                1.06631416               -0.55855339               -0.46679857               -4.37806193               25.33778373                0.27198898
               9.63859146                3.87589968               33.95254016                0.00010000                1.23798593               -0.78956468               -0.63261510               -4.61113781               25.41557679                2.20474930
              10.65175327                3.50379525               33.94884444                0.00010000                1.41851149               -0.97615592               -0.79223251               -4.56099966               25.30660987                4.13376775
              11.66696169                3.13178302               33.94151683                0.05615601                1.49694862               -1.18556088               -0.92299942               -4.08193571               24.00395768                6.27898520
              12.68169224                2.76440272               33.90835116                0.24512253                1.05739477               -1.01485041               -0.58929511               -1.88683080               11.71932883                6.42570407
              13.68810958                2.43651251               33.65177501                0.55093720                0.58046106                0.01814547               -1.32988018               -0.02644258                0.29627516                2.20187194
              14.69330146                2.11069404               33.38933807                0.90422401                0.51918798                1.05537320               -2.16656512               -0.03020073                0.01653582               -1.70420425
               4.93057156                6.60329404               34.38752434                0.99714643               -0.17294917               -0.36070053                0.97811669               -0.04785464                0.02802837                1.82607338
               5.92884206                6.28795485               34.11805662                0.47660288               -0.08417657                0.02111258                0.16756218                0.01957890                0.20525897               -1.57335179
               6.92888802                5.97240381               33.85207854                0.02149451                0.46533506                0.39336799               -0.63181073               -2.24735217               15.90468133               -4.96215124
               7.93814876                5.60969912               33.89654777                0.00010000                1.00125853                0.00233206               -0.59714391               -4.65276386               31.52075194               -2.32222358
               8.94891319                5.24116769               33.93981157                0.00010000                1.16408036               -0.37720151               -0.63176071               -5.06939960               31.55572682                0.04528805
               9.96143037                4.86806990               33.98137761                0.00010000                1.34844722               -0.75401736               -0.68696043               -5.32952438               31.55507074                2.23457221
              10.97588214                4.49307834               34.02062454                0.00010000                1.53091673               -1.09912267               -0.74880864               -5.34004135               31.46652285                4.37125695
              11.99204871                4.11868837               34.05618707                0.06337406                1.46452878               -1.33574799               -0.80338063               -4.76419746               29.00681543                6.47514447
              13.00517271                3.75517615               34.04205918                0.25555528                0.87292560               -0.85526711               -0.16276795               -2.19525298               13.61817090                5.62799292
              14.00950722                3.43672564               33.76599759                0.56459656                0.42482511                0.01476792               -0.97078813               -0.03637206                0.27929912                1.82753171
              15.01366922                3.12037328               33.48444834                0.91261658                0.41619980                0.88506127               -1.87450241               -0.03092390                0.01711442               -1.94564253
               5.24351658                7.60004342               34.31391237                0.98249568               -0.09730958               -0.28832367                0.76231122               -0.04585710                0.04071323                1.83242695
               6.24254349                7.28857039               34.02763432                0.45854335                0.00567107                0.09647932               -0.11624317                0.01165588                0.23284753               -1.53508981
               7.24363000                6.97674489               33.74516253                0.01395455                0.64512639                0.47039974               -0.97878876               -2.59861461               19.11206399               -4.86539255
               8.25544601                6.61094829               33.83626332                0.00010000                1.18023845                0.23906783               -0.86235100               -5.33282101               37.84543375               -2.34220042
               9.26723477                6.23837666               33.92460122                0.00010000                1.23221532               -0.17822137               -0.79291975               -5.78424714               37.80600512               -0.02805924
              10.28009032                5.86081933               34.01061013                0.00010000                1.35496011               -0.66356797               -0.75172797               -6.09174135               37.80964949                2.19323990
              11.29433397                5.48181280               34.09431764                0.00010000                1.47448029               -1.10044780               -0.73224475               -6.14489898               37.74922559                4.45771242
              12.30957993                5.10506806               34.17421029                0.07083322                1.27079683               -1.35154316               -0.72941739               -5.28463136               33.67433117                6.82159110
              13.31974991                4.74729738               34.17165457                0.26638624                0.63025424               -0.73952344                0.25449552               -2.32684569               15.14843645                5.26051692
              14.32218501                4.43680787               33.87717734                0.57876794                0.28188913               -0.00788066               -0.62110660               -0.04292267                0.29339953                1.57972983
              15.32538769                4.12839526               33.57701729                0.92119951                0.32026827                0.72288575               -1.59171473               -0.03316552                0.02092583               -2.10889282
               5.55260049                8.59752757               34.24052704                0.96876465               -0.02267691               -0.21361754                0.55334600               -0.04542905                0.04180949                1.83727305
               6.55237372                8.28988444               33.93745378                0.44184403                0.09686743                0.16632586               -0.39970728                0.00810048                0.26366462               -1.50848628
               7.55453783                7.98181181               33.63875863                0.00678432                0.87434280                0.53888054               -1.32218157               -2.86906758               22.29569520               -4.78399568
               8.56986057                7.61448047               33.77604921                0.00010000                1.44096851                0.43297916               -1.11361958               -5.80489917               44.12271787               -2.27266607
               9.58335720                7.23760327               33.90916786                0.00010000                1.31494167               -0.01845299               -0.94516822               -6.27798193               44.03841298               -0.06941047
              10.59615941                6.85479854               34.03965130                0.00010000                1.26891118               -0.51181134               -0.81602870               -6.57794601               44.12759509                2.03223679
              11.60873543                6.47106939               34.16914630                0.00010000                1.23560485               -0.96836761               -0.72543134               -6.72245113               44.26875583                4.35736362
              12.62087150                6.09165751               34.29699829                0.07856971                0.90802851               -1.26730632               -0.67652653               -5.61036521               38.14759373                7.16146534
              13.62689600                5.74038569               34.29889731                0.27759701                0.33396888               -0.65628076                0.66921073               -2.35150414               16.30835926                5.02574654
              14.62755088                5.43656803               33.98645454                0.59337451                0.14675584               -0.04788175               -0.27421471               -0.04858367                0.31160817                1.43925475
              15.62983112                5.13483100               33.66804228                0.92991848                0.22802348                0.56747326               -1.31265957               -0.03617523                0.02443105               -2.18030684
               5.85789427                9.59577107               34.16709718                0.95587755                0.05269911               -0.13669728                0.33671671               -0.04438229                0.05078298                1.83467433
               6.85842126                9.29189691               33.84741709                0.42634577                0.18791727                0.23793003               -0.68297337                0.00570338                0.31627753               -1.51394458
               7.86165261                8.98752250               33.53296250                0.00194103                1.25676545                0.59843991               -1.66416959               -3.09268580               25.52158222               -4.56900060
               8.88355657                8.61960787               33.71706863                0.00010000                1.98522246                0.40627319               -1.34624393               -5.94919753               50.37432574               -1.96422239
               9.90135706                8.23800760               33.89372546                0.00010000                1.57543549               -0.09005313               -1.07895505               -6.00829857               50.13843211               -0.07839845
              10.91506528                7.85058311               34.06683321                0.00010000                1.08344621               -0.29174840               -0.86673935               -6.18175532               50.39598235                1.63162593
              11.92302599                7.46244545               34.24229306                0.00010000                0.64955217               -0.52742831               -0.71067617               -6.60160508               51.06767707                3.73069322
              12.92805632                7.07972194               34.42309554                0.08667793                0.23916598               -0.92237849               -0.61794154               -5.78100650               42.62247660                6.98836370
              13.92780931                6.73417176               34.42443841                0.28916108               -0.06441498               -0.59381223                1.08391957               -2.37060063               17.22910144                4.68912512
              14.92676802                6.43585023               34.09480155                0.60841332                0.01644670               -0.10248988                0.07392387               -0.05947117                0.36091933                1.42001798
              15.92813824                6.13974473               33.75853133                0.93874200                0.13702185                0.41852900               -1.03274937               -0.03959004                0.04021019               -2.18087121
               6.15946118               10.59479363               34.09371865                0.94321605                0.12751819               -0.05970270                0.11826384               -0.04393274               -0.00246597                1.59039578
               7.16073636               10.29464304               33.75694137                0.41150369                0.27559895                0.31283172               -0.97057974               -0.00194475                0.51419955               -1.35529072
               8.16497315                9.99378060               33.43038817                0.00125432                1.98275813                0.63935213               -1.99358489               -3.44464924               29.00580812               -3.40635023
               9.20039152                9.62260594               33.66307254                0.00010000                3.36214205               -0.54972436               -1.54367264               -4.67100820               56.53226799               -1.13662261
              10.23221600                9.23580220               33.87901128                0.00010000                2.38474660               -0.37847460               -1.17958850               -4.11609820               55.84710999               -0.05637318
              11.24808645                8.84896357               34.08921997                0.00010000                0.76742495               -0.06440334               -0.88987319               -3.99084109               56.25384771                0.92087285
              12.24756450                8.46052082               34.30601150                0.00010000               -0.72806966                0.26279490               -0.67007607               -4.72556955               57.92148945                2.23036342
              13.23352506                8.07320994               34.54370518                0.09530936               -1.21044014                0.29377878               -0.53134123               -4.66674977               47.37833250                4.83002122
              14.22335569                7.72850944               34.54535977                0.30110129               -0.63682836               -0.51745330                1.48575892               -2.51377833               18.42845329                3.31399159
              15.22078849                7.43451823               34.20363679                0.62387768               -0.10526846               -0.16920476                0.42863613               -0.07946004                0.62202701                1.28701579
              16.22125032                7.14320158               33.84902658                0.94745726                0.04618311                0.27971298               -0.74915780               -0.04584513               -0.01184773               -1.82678956
               6.45731679               11.59457702               34.01544344                0.96783831                0.20785957               -0.02166056               -0.11856634                0.14321358                0.75741237                1.34400472
               7.45939539               11.29815354               33.66984717                0.70167892                0.37399694                0.35105030               -1.24458833                0.15252906                1.92071676               -1.17256105
               8.46479673               11.00030954               33.34737976                0.49437563                4.43597095                0.65289386               -2.24597243               -4.49465040               32.92666006               -2.40738497
               9.54811481               10.60861338               33.62139716                0.44504851                6.39403663               -1.39925552               -1.67233761               -3.72124311               62.04587159               -0.70952230
              10.59267746               10.23043811               33.86580453                0.43469265                3.12075175               -0.53640941               -1.23086851               -1.91977046               60.76200318               -0.10453761
              11.61052984                9.84929504               34.10381025                0.44825380                0.57953867                0.03314649               -0.87292743               -1.89249931               61.23197894                0.44501272
              12.60426824                9.46770135               34.35019974                0.48460842               -2.18985668                0.71805262               -0.59106786               -2.51450220               63.46921552                1.20134601
              13.56673271                9.08559751               34.62743989                0.55064387               -4.40213936                1.23875777               -0.39489957               -3.87316771               52.15858141                3.04676152
              14.51622545                8.72382270               34.64357391                0.65473742               -2.81230117               -0.46867445                1.80307479               -3.36959321               21.31360860                2.18589806
              15.51048668                8.43246614               34.30923966                0.81725260               -0.31854057               -0.20520919                0.77567094                0.04563374                2.33925487                1.13045217
              16.50985464                8.14533899               33.94619020                0.97659141               -0.06320466                0.21374077               -0.43493504                0.14771650                0.91231403               -1.47713877
               3.49761324                1.72385713               35.77377284                1.00000000               -0.61111424               -0.66220090                2.25583526               -0.11483226               -1.56973233                1.63357969
               4.49150209                1.37521276               35.57127563                0.96060610               -0.56766833               -0.46606323                1.71332594               -0.07359871               -1.76563996               -0.34918010
               5.48625987                1.02515246               35.36502825                0.65206366               -0.68566542               -0.26242158                1.11264870               -0.35345221               -1.43883778               -1.15733776
               6.47778879                0.66655376               35.16939705                0.51224884               -0.97483229               -0.14133324                0.55266289               -0.52623961                0.48805420               -0.15833423
               7.46676322                0.28964962               35.00289745                0.45555440               -0.93548022                0.03840939               -0.02781078               -0.47963848                3.11241132               -0.14579372
               8.45907918               -0.10748988               34.86153484                0.45817070               -0.27054318                0.21367286               -0.65225589               -0.27392503                4.29793753                0.02609033
               9.46135236               -0.51269983               34.72032945                0.51413396                0.57793061                0.37779340               -1.26829604               -0.30239513                3.04096047                0.17754373
              10.47063779               -0.91072855               34.55430194                0.63252566                0.99090709                0.53316966               -1.84678173               -0.36005950                0.59765252                0.27127315
              11.48117050               -1.29708817               34.36367467                0.83691490                1.01718207                0.67123011               -2.42087869               -0.27153283               -1.39468561                0.54819181
              12.49098143               -1.67557251               34.15694823                1.00000000                1.00387755                0.82942105               -3.03185948               -0.12044670               -1.79136993                0.97419495
              13.50124805               -2.05134110               33.95769078                1.00000000                1.02666184                1.06192405               -3.61326254               -0.14576059               -1.39003636               -1.43256080
               3.84510928                2.71723512               35.69480500                1.00000000               -0.49908409               -0.64084965                1.99335913               -0.04014482                0.17404852                2.00574694
               4.84011844                2.37055212               35.49111986                0.73812260               -0.40272183               -0.41055836                1.42951537               -0.00966715                0.57598128               -0.81714712
               5.83705485                2.02252824               35.29553403                0.18477168                0.00796840               -0.16630887                0.94068482               -0.43265698                2.46074641               -2.75614810
               6.84027781                1.66514043               35.12945827                0.00607510                0.59669062               -0.16391350                0.45337804               -1.29641474                5.02748088               -2.34804245
               7.84898866                1.29003371               34.98420585                0.00994670                0.86184219               -0.65716244               -0.06123341               -2.16472563                7.56559260                0.42681192
               8.85751465                0.89464685               34.86735458                0.01316182                0.54795429               -0.29834836               -0.62413501               -2.64632200                9.09385173                1.00394533
               9.85994774                0.49107811               34.75136945                0.01160010                0.08583581                0.17539210               -1.17697640               -2.32423394                7.87523786                1.38461429
              10.85923137                0.09460315               34.60981821                0.15909446                0.04647056                0.28547856               -1.68227744               -1.34033458                5.40588697                3.03094459
              11.86087715               -0.29037587               34.44482759                0.46166440                0.38360317                0.48057019               -2.18299381               -0.54948124                3.46009801                3.00915914
              12.86690343               -0.66727830               34.26468700                0.96113150                0.73409411                0.74312942               -2.68347544               -0.12023352                1.65780301                1.65106914
              13.87555904               -1.04072186               34.06351300                1.00000000                0.86556048                1.04090999               -3.22770262               -0.07834300                0.62932338               -1.66176883
               4.19017632                3.71104013               35.62344508                1.00000000               -0.41606966               -0.58817535                1.73754728               -0.05747348                0.21569795                2.23273363
               5.18601563                3.36700159               35.40165352                0.54227334               -0.35789486               -0.28037227                1.08067400               -0.03169530                0.92338141               -1.52261778
               6.18301843                3.02182628               35.19403090                0.05583535               -0.08303029                0.07182036                0.54912845               -0.70742671                4.58966033               -5.39847138
               7.18435502                2.66327549               35.04568960                0.00010000                0.54719311               -0.62262557                0.30611045               -2.66440395               11.57472127               -2.03619926
               8.19396229                2.27650637               34.97681818                0.00010000                1.03766624               -1.08391700               -0.19534566               -4.17666047               14.88202958                0.56048579
               9.20510835                1.88654316               34.89249722                0.00010000                1.04745475               -0.83841859               -0.62247700               -4.48254931               14.12103039                1.98397758
              10.21491138                1.49080801               34.80626313                0.00010000                1.00883655               -0.35444007               -1.02988656               -4.25709688               14.12071519                3.14539178
              11.22528508                1.09498102               34.72019882                0.04213142                0.85754714               -0.18862362               -1.42077878               -2.93382195               11.24983335                5.09974395
              12.23206233                0.71252323               34.57481886                0.23359209                0.68188390               -0.47252957               -1.70656041               -1.14547650                6.15101807                7.86332289
              13.23892275                0.33929008               34.38549991                0.56151815                0.72529936                0.38025824               -2.22592273               -0.35221221                2.38375703                2.79133282
              14.24656831               -0.03052290               34.16415446                0.92115355                0.76455587                1.17208745               -2.90758685               -0.29133469                0.80609282               -1.83614912
               4.53203690                4.70547161               35.54922406                1.00000000               -0.33385091               -0.51794009                1.46735406               -0.05199703                0.03169110                1.99313280
               5.52869839                4.36494468               35.30728413                0.50527611               -0.27022438               -0.15021245                0.75448829                0.00853361                0.33036535               -1.73239657
               6.52663241                4.02396465               35.07128307                0.03705679                0.18056265                0.26156952                0.07837435               -1.42769701                9.48922648               -5.99736892
               7.53230964                3.65268792               35.01265933                0.00010000                0.77776869               -0.75694113               -0.04776713               -3.25334736               18.86097134               -0.87011220
               8.54218778                3.26835537               34.96222431                0.00010000                1.06261896               -0.74232119               -0.34347301               -4.13130416               19.73355593                0.24589323
               9.55356202                2.87787848               34.91859334                0.00010000                1.20900769               -0.85057861               -0.64306441               -4.50162152               20.06383887                2.06012191
              10.56636794                2.48398930               34.87202423                0.00010000                1.26388449               -0.79757730               -0.92020273               -4.37988108               19.63860318                3.81237473
              11.57883971                2.09083068               34.81708693                0.04603837                1.36453166               -0.75374989               -1.16244740               -3.88819690               18.89569184                5.35599369
              12.59365857                1.70017354               34.75320313                0.22864263                1.20328059               -1.20847998               -1.10679887               -1.73177715                9.92346309                8.71696214
              13.60290532                1.34032687               34.51570517                0.52419573                0.78498651                0.05880286               -1.77674780               -0.07983831                0.67585938                2.86828481
              14.60935830                0.98271989               34.26569073                0.88614764                0.64529788                1.27072060               -2.56077694               -0.08386244                0.06421266               -1.69837344
               4.87019024                5.70068133               35.47328822                1.00000000               -0.24969826               -0.44203991                1.21260366               -0.04965293                0.03089234                1.89497621
               5.86769326                5.36399734               35.21331353                0.48323120               -0.17344976               -0.04988012                0.44367442                0.01854751                0.20989975               -1.68100625
               6.86672125                5.02705767               34.95689072                0.02694528                0.36020452                0.34834762               -0.30907121               -1.98485136               13.00515564               -5.38609742
               7.87489735                4.64813667               34.95283258                0.00010000                0.97121974               -0.28519822               -0.36784782               -4.20129482               25.78287315               -2.34545546
               8.88614564                4.26165994               34.94936351                0.00010000                1.22723152               -0.58463544               -0.52012972               -4.72374151               25.97266567                0.13959789
               9.89944198                3.86953158               34.94595177                0.00010000                1.41079607               -0.83065344               -0.68784716               -4.97319847               26.05728399                2.12922172
              10.91436156                3.47485647               34.94067126                0.00010000                1.59474611               -1.01879320               -0.84519184               -4.92327379               25.97997243                4.10047682
              11.93133690                3.07990603               34.93208709                0.05286978                1.67845154               -1.22639258               -0.96579042               -4.47546156               24.93353170                6.27229521
              12.94793059                2.68835363               34.90222945                0.23780719                1.17213674               -1.08049732               -0.64129557               -2.10689641               12.35716430                6.62191787
              13.95477964                2.34046614               34.63822516                0.53534863                0.60872108                0.01810814               -1.38321401               -0.03657066                0.35075912                2.25006057
              14.96010502                1.99489151               34.36732095                0.89279189                0.53253780                1.12059552               -2.23838232               -0.02921374                0.01921370               -1.79458686
               5.20441182                6.69663081               35.39730247                0.98554053               -0.17188189               -0.36827376                0.98949449               -0.04683614                0.04069139                1.89891316
               6.20269300                6.36394708               35.11963680                0.46402238               -0.08078818                0.03162422                0.14929302                0.01333308                0.22002472               -1.63678858
               7.20279605                6.03093160               34.84556090                0.01895090                0.54942353                0.42481221               -0.67366834               -2.44104208               16.34686979               -5.15562549
               8.21368147                5.64698395               34.89028773                0.00010000                1.17609915                0.00719114               -0.65698115               -5.02310384               32.36571411               -2.49827349
               9.22631804                5.25666266               34.93318214                0.00010000                1.36100283               -0.40226960               -0.69659452               -5.45686920               32.37346171               -0.08513982
              10.24090153                4.86126541               34.97419112                0.00010000                1.56049902               -0.80157952               -0.75273138               -5.72423379               32.37397806                2.14444203
              11.25752802                4.46361344               35.01284575                0.00010000                1.74658930               -1.15798866               -0.80897781               -5.72802533               32.30105033                4.30595366
              12.27583331                4.06630283               35.04793934                0.05991938                1.67162572               -1.38960359               -0.84737467               -5.19791467               30.20234165                6.40770830
              13.29096053                3.67856359               35.04024898                0.24797940                0.99013590               -0.90453269               -0.20575209               -2.44728669               14.44733312                5.80529107
              14.29563603                3.34068903               34.75608927                0.54861353                0.44813704                0.01631676               -1.01485683               -0.04558136                0.33344957                1.86221767
              15.29992327                3.00513180               34.46539550                0.90092260                0.42872429                0.93478687               -1.93873240               -0.02977026                0.01963188               -2.04650217
               5.53462099                7.69331586               35.32162203                0.97126298               -0.09618562               -0.29390231                0.77928054               -0.04618312                0.04313671                1.91555636
               6.53365913                7.36462983               35.02634731                0.44645281                0.01212707                0.10342186               -0.13955795                0.01034779                0.24684930               -1.59842424
               7.53486353                7.03555391               34.73512719                0.01162331                0.75225398                0.49647066               -1.03031441               -2.80919469               19.63113672               -5.05733374
               8.54870421                6.64828049               34.82730927                0.00010000                1.39316350                0.24293313               -0.93062131               -5.74394879               38.85198242               -2.50556368
               9.56272680                6.25361455               34.91630594                0.00010000                1.46511570               -0.20653288               -0.86831745               -6.21052030               38.79373376               -0.15245731
              10.57800653                5.85349999               35.00271494                0.00010000                1.60184210               -0.71891957               -0.82897436               -6.51730924               38.78880306                2.09770686
              11.59476364                5.45169669               35.08663903                0.00010000                1.72109654               -1.16941880               -0.80391730               -6.55372695               38.72470488                4.37316498
              12.61242846                5.05211395               35.16663742                0.06725094                1.49175079               -1.41067305               -0.78384824               -5.73341535               35.14424204                6.72024708
              13.62459866                4.67026298               35.17405376                0.25858351                0.74356735               -0.77573332                0.21918420               -2.59204572               16.18840033                5.43490497
              14.62729980                4.34079247               34.87079593                0.56239409                0.30127047               -0.00519144               -0.65890038               -0.05083037                0.34701073                1.61190408
              15.63062407                4.01358725               34.56081631                0.90925865                0.33242633                0.76165138               -1.65143019               -0.03195177                0.02364966               -2.21334457
               5.86086022                8.69075276               35.24610634                0.95787334               -0.01983196               -0.21741917                0.56384951               -0.04545836                0.04347522                1.91441990
               6.86066190                8.36601551               34.93331784                0.43023791                0.10506392                0.17465779               -0.42781561                0.01015893                0.28149915               -1.57149337
               7.86296149                8.04086101               34.62523793                0.00465699                1.00399796                0.56259892               -1.38369337               -3.09432468               22.89980054               -4.97525146
               8.88074186                7.65184262               34.76453944                0.00010000                1.69633175                0.43242646               -1.19041975               -6.24601782               45.29425578               -2.42214140
               9.89688813                7.25253200               34.89929557                0.00010000                1.58656715               -0.05740127               -1.03106774               -6.72675311               45.18890026               -0.18198957
              10.91247320                6.84688702               35.03104325                0.00010000                1.54756941               -0.57626192               -0.90633030               -7.00990724               45.25593406                1.94210198
              11.92783952                6.44022506               35.16144082                0.00010000                1.50627605               -1.04083114               -0.81436447               -7.12733534               45.37161784                4.27027037
              12.94259872                6.03808936               35.28982685                0.07486928                1.13007920               -1.32964680               -0.75320571               -6.04567051               39.89734910                7.05067206
              13.95044110                5.66304893               35.30547375                0.26954113                0.43482172               -0.68113206                0.64111966               -2.61601078               17.57211966                5.20236265
              14.95129515                5.34058520               34.98356365                0.57656965                0.16267900               -0.04406389               -0.30723848               -0.05542884                0.36535999                1.47442394
              15.95369468                5.02036483               34.65464652                0.91771575                0.23995276                0.59814219               -1.36966268               -0.03511258                0.02767003               -2.28370620
               6.18318632                9.68896747               35.17049908                0.94528203                0.05677390               -0.13943166                0.34442553               -0.04511034                0.05259769                1.90797954
               7.18375406                9.36812298               34.84041575                0.41525948                0.19818057                0.24872752               -0.71782225                0.00767594                0.33881097               -1.57916280
               8.18714994                9.04680589               34.51597622                0.00195072                1.41794011                0.62187311               -1.73493616               -3.33758430               26.22034435               -4.75264989
               9.21211286                8.65692902               34.70318919                0.00010000                2.29986992                0.38436758               -1.43159927               -6.40757478               51.71897503               -2.08916742
              10.23314733                8.25246653               34.88246429                0.00010000                1.90012280               -0.15987714               -1.17470899               -6.43024784               51.44849795               -0.16801736
              11.25011532                7.84197475               35.05764679                0.00010000                1.39336281               -0.36860119               -0.97049671               -6.56105177               51.66641367                1.55962895
              12.26101459                7.43088007               35.23461964                0.00010000                0.92879318               -0.59099764               -0.82129718               -6.94823726               52.29102945                3.65890546
              13.26869118                7.02552102               35.41631542                0.08287640                0.43840087               -0.97493066               -0.73092716               -6.16747061               44.65128670                6.89131059
              14.26978261                6.65664034               35.43519444                0.28090501                0.00920709               -0.60746171                1.06281976               -2.62467126               18.71876580                4.86210956
              15.26887533                6.33991119               35.09541176                0.59117071                0.02899762               -0.09766212                0.04520972               -0.06596787                0.41616423                1.46233688
              16.27036256                6.02555009               34.74794507                0.92624633                0.14872333                0.44281704               -1.08785363               -0.03879045                0.04450496               -2.27978632
               6.50164699               10.68796413               35.09492228                0.93297370                0.13300038               -0.06182780                0.12317106               -0.04459805               -0.00388292                1.65263721
               7.50297700               10.37099006               34.74703303                0.40090579                0.28783888                0.32584903               -1.01196430               -0.00144823                0.54768279               -1.41477342
               8.50740377               10.05329848               34.41006524                0.00126649                2.19763652                0.66155669               -2.07298932               -3.72768650               29.81764207               -3.54303863
               9.54692973                9.65952997               34.64718522                0.00010000                3.79168346               -0.66551723               -1.63585509               -5.04273930               58.05976434               -1.21183721
              10.58323744                9.24933446               34.86670580                0.00010000                2.79544462               -0.48808886               -1.28282327               -4.40613978               57.31183359               -0.10809916
              11.60283862                8.83951500               35.07974695                0.00010000                1.10455352               -0.15117813               -1.00431365               -4.21794236               57.66091205                0.88003422
              12.60532851                8.42840511               35.29864274                0.00010000               -0.46747888                0.20708104               -0.80030814               -4.93384159               59.26169264                2.18966953
              13.59348904                8.01859075               35.53755528                0.09142728               -1.08855034                0.29992661               -0.69044728               -4.91801416               49.67114230                4.77339061
              14.58355750                7.65089969               35.56016535                0.29267158               -0.62114988               -0.51698459                1.47178255               -2.75197078               20.13596747                3.43965731
              15.58106604                7.33863196               35.20781545                0.60616631               -0.09582143               -0.16362114                0.40441171               -0.08735251                0.68764460                1.33121273
              16.58164107                7.02922117               34.84128598                0.93466784                0.05750304                0.29908614               -0.80255463               -0.04561972               -0.00906337               -1.90607404
               6.81624250               11.68773092               35.01426377                0.96282663                0.21482565               -0.02332159               -0.11706713                0.15045517                0.78395987                1.39665389
               7.81839075               11.37463996               34.65717108                0.69652440                0.39069024                0.36498974               -1.29168572                0.15668138                2.01284983               -1.22441608
               8.82405630               11.06003703               34.32451430                0.49357262                4.84156694                0.67385505               -2.32918767               -4.88581098               33.87979577               -2.50389575
               9.91522209               10.64361868               34.60421044                0.44522374                7.04916033               -1.59112911               -1.76751498               -4.03737712               63.74166185               -0.75426021
              10.96503951               10.24270475               34.85297285                0.43483883                3.57318649               -0.66297118               -1.33724486               -2.05316713               62.36457967               -0.13575397
              11.98668582                9.83895119               35.09448698                0.44802650                0.91112463               -0.05638034               -0.99167941               -1.99943236               62.76760237                0.41950558
              12.98326200                9.43502169               35.34358356                0.48374261               -1.94247513                0.66165810               -0.72927845               -2.57823278               64.93019996                1.17551444
              13.94783632                9.03151955               35.62254190                0.54868164               -4.42800081                1.29287992               -0.57686117               -4.00132432               54.64487478                3.00818736
              14.89470199                8.64630065               35.66156972                0.65047117               -2.95147601               -0.45990454                1.79186869               -3.62959067               23.20615819                2.27199048
              15.88880680                8.33663877               35.31691015                0.80825373               -0.32151215               -0.19931869                0.75562190                0.03563412                2.47374809                1.17266796
              16.88827174                8.03153182               34.94160765                0.97009366               -0.05350574                0.23106471               -0.48551970                0.15237144                0.95233039               -1.53851260
               3.68698443                1.82067667               36.79645627                1.00000000               -0.61972006               -0.67090428                2.28204352               -0.11624353               -1.59830208                1.67532179
               4.68078723                1.45304509               36.58849984                0.95072008               -0.58033646               -0.46852426                1.73179414               -0.07490227               -1.82446129               -0.40130762
               5.67537770                1.08389296               36.37619276                0.64815878               -0.72383022               -0.26074303                1.11939608               -0.37984552               -1.50722141               -1.16448294
               6.66631063                0.70538070               36.17491941                0.51124797               -1.04724915               -0.13960853                0.54991955               -0.55991765                0.43201475               -0.16406371
               7.65443272                0.30703443               36.00256209                0.45546478               -1.01511978                0.04535660               -0.04229331               -0.50862881                3.03217007               -0.14986948
               8.64600823               -0.11317862               35.85490018                0.45788137               -0.31810904                0.22460696               -0.67886459               -0.28867325                4.21115494                0.02708764
               9.64807054               -0.54238374               35.70747064                0.51277707                0.58137911                0.39177217               -1.30754199               -0.31389724                2.98304568                0.18340896
              10.65763581               -0.96430247               35.53559126                0.62905101                1.02607738                0.54973920               -1.89856684               -0.37635356                0.56128654                0.28037648
              11.66859209               -1.37393564               35.33914790                0.82958210                1.05586027                0.69051281               -2.48570214               -0.28656711               -1.44798996                0.54908790
              12.67875302               -1.77517320               35.12623441                1.00000000                1.03522669                0.85237720               -3.11035181               -0.12853490               -1.84856782                0.99994358
              13.68929662               -2.17351875               34.92107962                1.00000000                1.05436015                1.09112117               -3.70713666               -0.14993440               -1.43349519               -1.45285121
               4.05345357                2.81396763               36.71482230                1.00000000               -0.50235099               -0.65057973                2.01189289               -0.04088934                0.19496500                2.04946059
               5.04843006                2.44835985               36.50545634                0.72076842               -0.40210654               -0.40873862                1.43841844               -0.01276773                0.63549745               -0.90247932
               6.04541144                2.08128553               36.30497707                0.17918848                0.03553239               -0.15486908                0.94796840               -0.48015536                2.55911053               -2.87665366
               7.04914071                1.70398461               36.13398818                0.00624481                0.66073236               -0.18140517                0.45198127               -1.40609227                5.11255051               -2.37666063
               8.05862609                1.30748800               35.98354832                0.01003112                0.93449382               -0.68832316               -0.07169630               -2.33337834                7.61397909                0.36693253
               9.06783059                0.88906745               35.86101643                0.01319373                0.59337000               -0.31013849               -0.64598748               -2.85130372                9.12846749                0.98532284
              10.07049349                0.46153398               35.73943704                0.01177621                0.09088188                0.19286923               -1.21167825               -2.51395378                7.95176857                1.41372277
              11.06964823                0.04119493               35.59276682                0.15409903                0.03341461                0.29405658               -1.72990491               -1.46125645                5.52052478                3.08405236
              12.07116178               -0.36703051               35.42268522                0.45055122                0.38054988                0.48609938               -2.24581597               -0.59843320                3.58240872                3.12949914
              13.07725922               -0.76664943               35.23745423                0.93941048                0.74905210                0.76253439               -2.76197878               -0.13456785                1.75970208                1.73197023
              14.08614282               -1.16260754               35.03077028                1.00000000                0.88836012                1.07528469               -3.31870155               -0.08495210                0.70944336               -1.71671757
               4.41738220                3.80766507               36.64087037                1.00000000               -0.41682242               -0.59972504                1.74541735               -0.05854949                0.20923072                2.26875329
               5.41321397                3.44487032               36.41243715                0.52806657               -0.36161850               -0.26878581                1.07562123               -0.03777135                0.98266836               -1.62764336
               6.41014983                3.08079558               36.19948430                0.05264322               -0.06138335                0.10540194                0.54250477               -0.80619966                4.86124594               -5.67073932
               7.41198631                2.70175260               36.04877318                0.00010000                0.62662431               -0.65431792                0.30969206               -2.88024454               11.86089189               -2.20977603
               8.42268232                2.29326797               35.97474378                0.00010000                1.14749360               -1.13883565               -0.22184564               -4.47752485               15.07563878                0.44270187
               9.43493618                1.88061861               35.88609765                0.00010000                1.14908365               -0.87291844               -0.66030603               -4.83101837               14.37373442                1.93586549
              10.44566399                1.46147364               35.79574204                0.00010000                1.10194968               -0.35465756               -1.07750747               -4.61347440               14.40102678                3.17415714
              11.45697517                1.04157867               35.70568393                0.03895366                0.94018941               -0.17818732               -1.48447506               -3.21528473               11.60683874                5.20329669
              12.46446778                0.63578635               35.55744302                0.22620617                0.73317557               -0.52838340               -1.76834813               -1.25865645                6.46055602                8.16193050
              13.47163868                0.24007749               35.36286219                0.54493608                0.75230092                0.38263042               -2.30038452               -0.38508280                2.49220537                2.92304982
              14.47951379               -0.15201305               35.13461671                0.90859487                0.78751099                1.23696945               -2.99740983               -0.31872425                0.83151444               -1.90928689
               4.77787209                4.80197313               36.56385341                1.00000000               -0.33279591               -0.52932618                1.46692388               -0.04988394                0.04014785                2.03314955
               5.77454413                4.44298413               36.31476101                0.49182168               -0.27334610               -0.13474887                0.74533477                0.00318184                0.35391861               -1.81651625
               6.77240517                4.08339357               36.07195331                0.03411282                0.22596452                0.30410865                0.05418145               -1.56651645                9.80453124               -6.26691893
               7.77906343                3.69089826               36.01198865                0.00010000                0.89022027               -0.76942304               -0.08775559               -3.51093741               19.37750531               -1.12640077
               8.79020958                3.28471129               35.95859111                0.00010000                1.19705633               -0.77565742               -0.38585634               -4.43219052               20.17300102                0.10735327
               9.80300455                2.87160908               35.91192613                0.00010000                1.35271854               -0.88661380               -0.69370654               -4.83886270               20.52148448                1.99061670
              10.81726395                2.45444083               35.86256438                0.00010000                1.40126360               -0.82451862               -0.97532717               -4.72122516               20.13746566                3.80602976
              11.83102982                2.03763118               35.80521683                0.04283692                1.51129417               -0.76010761               -1.21488491               -4.24700211               19.57111839                5.42211871
              12.84748983                1.62240182               35.74181371                0.22146416                1.31635721               -1.29955618               -1.17524010               -1.91991559               10.39997204                9.00288522
              13.85735697                1.24100318               35.49760414                0.50889722                0.82297962                0.05260667               -1.84418231               -0.09376971                0.73869710                2.96479628
              14.86394942                0.86213185               35.23966908                0.87491131                0.65924557                1.35552923               -2.64279671               -0.08811540                0.06625733               -1.76417595
               5.13436251                5.79707855               36.48542247                0.98900874               -0.25053350               -0.45173168                1.22884334               -0.04808961                0.04500726                1.96599395
               6.13185717                5.44217534               36.21767569                0.47014081               -0.17285646               -0.03994153                0.43162514                0.01195943                0.22758084               -1.75358150
               7.13090538                5.08687775               35.95363128                0.02415770                0.42963340                0.38306291               -0.34380427               -2.15209432               13.38110670               -5.60550463
               8.14044984                4.68636414               35.94889348                0.00010000                1.12111508               -0.28206483               -0.42189210               -4.51722703               26.47548402               -2.55862558
               9.15332768                4.27775482               35.94388299                0.00010000                1.39897745               -0.60944073               -0.57877796               -5.06041682               26.62470862               -0.01034193
              10.16842939                3.86288634               35.93878322                0.00010000                1.59448550               -0.87067578               -0.74918564               -5.32648937               26.71807265                2.03940268
              11.18521739                3.44498327               35.93194060                0.00010000                1.78223751               -1.06055873               -0.90447956               -5.28094260               26.67770369                4.05794193
              12.20407414                3.02637651               35.92220102                0.04949497                1.87400380               -1.26694845               -1.01508207               -4.87627787               25.87945090                6.26365474
              13.22269746                2.60979522               35.89552525                0.23038946                1.29795598               -1.14720766               -0.70595958               -2.33836377               13.00593602                6.82578251
              14.23003326                2.24112962               35.62411073                0.51975302                0.63983394                0.01980193               -1.44248438               -0.05124865                0.41434611                2.30608633
              15.23549414                1.87509753               35.34457043                0.88139184                0.54608854                1.19080168               -2.31296702               -0.02821058                0.02179778               -1.88022966
               5.48671672                6.79293849               36.40731423                0.97393588               -0.17325946               -0.37639371                1.01367031               -0.04700586                0.04425258                1.98650541
               6.48498412                6.44218530               36.12104248                0.45136155               -0.07711141                0.03727580                0.13387563                0.01172373                0.23455395               -1.70460135
               7.48517449                6.09105482               35.83860517                0.01635463                0.64288428                0.45217193               -0.71866942               -2.62714702               16.79654570               -5.36402477
               8.49784181                5.68525696               35.88340814                0.00010000                1.36522745                0.01105813               -0.72084232               -5.38376366               33.22534339               -2.68719384
               9.51247904                5.27252247               35.92587968                0.00010000                1.57022548               -0.42703729               -0.76656473               -5.83426476               33.21228022               -0.22990226
              10.52924632                4.85419557               35.96632298                0.00010000                1.78379391               -0.84824984               -0.82377813               -6.10944584               33.21778184                2.04047289
              11.54815492                4.43322965               36.00444498                0.00010000                1.97229953               -1.21511207               -0.87381706               -6.11075745               33.16778292                4.22903239
              12.56869231                4.01229221               36.03923957                0.05640651                1.89072652               -1.43955091               -0.89496885               -5.63980415               31.42355047                6.33269863
              13.58596945                3.59945767               36.03794414                0.24032547                1.11686886               -0.95122572               -0.26248092               -2.71155252               15.29332178                5.99107529
              14.59102969                3.24139922               35.74570045                0.53263947                0.47399728                0.02209745               -1.06659473               -0.05901817                0.39778247                1.90202245
              15.59544939                2.88594789               35.44567369                0.88928476                0.44197064                0.98899090               -2.00783802               -0.02884385                0.02234350               -2.14668720
               5.83492877                7.78955068               36.32949798                0.95997836               -0.09534554               -0.29997861                0.79654189               -0.04646856                0.04478961                1.99984981
               6.83397531                7.44292086               36.02484316                0.43427266                0.01810053                0.11004137               -0.16104752                0.01292508                0.26376595               -1.66457552
               7.83529078                7.09592119               35.72455624                0.00921996                0.86658022                0.52014610               -1.08493957               -3.00989006               20.16233452               -5.26281226
               8.85130692                6.68658530               35.81765089                0.00010000                1.62064982                0.24503815               -1.00291392               -6.14304400               39.87810487               -2.68055264
               9.86770377                6.26921408               35.90723487                0.00010000                1.71131877               -0.23586729               -0.94818410               -6.62557972               39.80573956               -0.28989943
              10.88553329                5.84592134               35.99403064                0.00010000                1.86009102               -0.77434179               -0.90987047               -6.93232669               39.79671426                1.98814019
              11.90490559                5.42068103               36.07823929                0.00010000                1.97583737               -1.23677349               -0.87717854               -6.95532916               39.73700744                4.27326141
              12.92505004                4.99758550               36.15853333                0.06355671                1.72269052               -1.46496327               -0.83613519               -6.19085327               36.65215391                6.60196970
              13.93935941                4.59077071               36.17603826                0.25064709                0.86563170               -0.80827059                0.17082998               -2.86908891               17.25494907                5.61771446
              14.94236267                4.24157157               35.86399933                0.54600660                0.32302631                0.00207283               -0.70429224               -0.06188721                0.41144675                1.64720600
              15.94581993                3.89487735               35.54398869                0.89736837                0.34572579                0.80401137               -1.71708229               -0.03095359                0.02684531               -2.31980990
               6.17904699                8.78693892               36.25180403                0.94690951               -0.01748703               -0.22179748                0.57659695               -0.04607264                0.04517696                1.99443960
               7.17887212                8.44438613               35.92889747                0.41858337                0.11326317                0.18388051               -0.45654910                0.01319276                0.30212297               -1.63810743
               8.18131225                8.10145775               35.61108476                0.00243168                1.14079627                0.58605011               -1.44817332               -3.31165624               23.51937625               -5.17804988
               9.20168804                7.69015772               35.75224082                0.00010000                1.96595778                0.42967226               -1.27109995               -6.67557641               46.48976304               -2.58242134
              10.22063140                7.26780513               35.88854651                0.00010000                1.87223984               -0.09885266               -1.12053310               -7.16416711               46.36608134               -0.30639919
              11.23913284                6.83870873               36.02152470                0.00010000                1.83763870               -0.64246821               -0.99826415               -7.43030192               46.41417370                1.83794217
              12.25738418                6.40849418               36.15285901                0.00010000                1.78263625               -1.11296932               -0.90083226               -7.52217155               46.51114049                4.16359311
              13.27478556                5.98299295               36.28193418                0.07106116                1.36087086               -1.38828880               -0.82168442               -6.48723538               41.69935829                6.91077976
              14.28460160                5.58329225               36.31171970                0.26137825                0.54498708               -0.70241801                0.60184347               -2.89116951               18.87733306                5.38744137
              15.28568530                5.24144068               35.98030977                0.55978707                0.18085852               -0.03632020               -0.34718940               -0.06430674                0.42974269                1.51187707
              16.28821877                4.90202811               35.64064902                0.90556451                0.25334624                0.63160979               -1.43315409               -0.03416674                0.03142226               -2.39056480
               6.51911289                9.78511473               36.17398569                0.93467818                0.06074455               -0.14286200                0.35363092               -0.04587389                0.05445432                1.98478157
               7.51972034                9.44659847               35.83306064                0.40407000                0.20865826                0.26030554               -0.75364721                0.01012015                0.36477843               -1.64800288
               8.52328606                9.10764219               35.49826377                0.00195349                1.58638337                0.64620035               -1.80903173               -3.57790839               26.93698273               -4.94669010
               9.55144801                8.69517874               35.68843665                0.00010000                2.62916815                0.35951110               -1.52071432               -6.85734819               53.09158843               -2.22341800
              10.57586942                8.26723702               35.87023128                0.00010000                2.23950958               -0.23367334               -1.27322510               -6.84236213               52.78699717               -0.26715274
              11.59623820                7.83307198               36.04742327                0.00010000                1.71542634               -0.44923306               -1.07404552               -6.92902328               52.96485995                1.47550377
              12.61017795                7.39842164               36.22586712                0.00010000                1.21345298               -0.65719459               -0.92605585               -7.28232063               53.54362851                3.56678881
              13.62050726                6.96981972               36.40847700                0.07895520                0.64551675               -1.02708415               -0.82980082               -6.55297785               46.74853661                6.75311060
              14.62308828                6.57672235               36.44569480                0.27249041                0.09167101               -0.61824755                1.03219638               -2.88806380               20.27225183                5.04413336
              15.62234068                6.24084517               36.09570574                0.57396807                0.04367180               -0.08982949                0.01022822               -0.07386762                0.48215431                1.50694350
              16.62396172                5.90750954               35.73677425                0.91383668                0.16210416                0.46947020               -1.14978214               -0.03810065                0.04936789               -2.38257818
               6.85516203               10.78408168               36.09618207                0.92263703                0.13850296               -0.06438094                0.12931968               -0.04551951               -0.00551911                1.71849960
               7.85654705               10.44959224               35.73670208                0.39021791                0.30058899                0.33953240               -1.05491617               -0.00092051                0.58532206               -1.47767961
               8.86117381               10.11438175               35.38892838                0.00127340                2.41995937                0.68456552               -2.15616256               -4.00885355               30.65122913               -3.68739690
               9.90494624                9.69734794               35.63035543                0.00010000                4.23585624               -0.78505046               -1.73191131               -5.41043011               59.61937004               -1.29309896
              10.94589093                9.26313166               35.85335481                0.00010000                3.22107568               -0.60240402               -1.38858783               -4.69003904               58.80613040               -0.16514742
              11.96936776                8.82972407               36.06913370                0.00010000                1.45495457               -0.24334362               -1.11765305               -4.43741979               59.09278361                0.83212688
              12.97499002                8.39535029               36.29000534                0.00010000               -0.19712299                0.14541774               -0.92284656               -5.13167232               60.61608952                2.13500642
              13.96542530                7.96245126               36.52989623                0.08743850               -0.95875742                0.29841485               -0.83176434               -5.16431011               52.04780250                4.68167410
              14.95581487                7.57092730               36.57479542                0.28410916               -0.60022702               -0.51342928                1.44956470               -2.99575495               21.93542139                3.57222425
              15.95342076                7.23964409               36.21172503                0.58850094               -0.08434377               -0.15575393                0.37430952               -0.09633721                0.76391572                1.37769682
              16.95412800                6.91141752               35.83297549                0.92194358                0.07072421                0.32079265               -0.86339426               -0.04542998               -0.00575078               -1.98868839
               7.18718138               11.78382711               36.01310209                0.95777481                0.22204726               -0.02545715               -0.11493337                0.15813661                0.81226473                1.45244274
               8.18940186               11.45338912               35.64401345                0.69136579                0.40859504                0.37968758               -1.34093593                0.16079973                2.11314467               -1.27925197
               9.19535328               11.12133350               35.30079601                0.49273894                5.25438212                0.69517469               -2.41631929               -5.27762114               34.86014232               -2.60610929
              10.29448950               10.67947773               35.58604686                0.44538955                7.71696159               -1.78702100               -1.86741432               -4.35290221               65.47091078               -0.80131877
              11.34969252               10.25518894               35.83905963                0.43498670                4.03908377               -0.79427166               -1.44704640               -2.18347296               63.99703983               -0.16901469
              12.37527117                9.82820510               36.08397666                0.44780742                1.25623974               -0.15189675               -1.11012341               -2.10260568               64.32686278                0.39075097
              13.37481731                9.40132999               36.33561417                0.48283768               -1.68135654                0.59797047               -0.86019098               -2.63812535               66.39749555                1.14188732
              14.34164404                8.97578802               36.61590266                0.54666307               -4.44184743                1.33367540               -0.74145135               -4.12193689               57.21892856                2.94427646
              15.28598036                8.56645376               36.67941128                0.64613633               -3.08601614               -0.44735404                1.77137167               -3.88634752               25.20786711                2.36258890
              16.27992372                8.23773009               36.32435209                0.79926339               -0.32370525               -0.19139983                0.72938554                0.02387816                2.62232934                1.21714459
              17.27950626                7.91392540               35.93647980                0.96363649               -0.04174627                0.25078792               -0.54432867                0.15735690                0.99456929               -1.60250564
               3.88156004                1.92063149               37.81941371                1.00000000               -0.62836728               -0.68212658                2.30995246               -0.11774429               -1.62863642                1.71964248
               4.87527637                1.53327360               37.60591152                0.94073585               -0.59320844               -0.47083652                1.75045625               -0.07713996               -1.88715985               -0.45758114
               5.86969588                1.14429419               37.38741618                0.64419783               -0.76083126               -0.25905626                1.12397622               -0.40599757               -1.58017742               -1.16960675
               6.86005975                0.74513495               37.18039544                0.51018603               -1.11350111               -0.13815078                0.54300480               -0.59093799                0.37246027               -0.17051544
               7.84742585                0.32467978               37.00205159                0.45538178               -1.08330038                0.05108910               -0.06328265               -0.53436654                2.94867074               -0.15419193
               8.83839374               -0.11918064               36.84795755                0.45756556               -0.35518295                0.23364772               -0.71375947               -0.30205794                4.12335212                0.02755065
               9.84032219               -0.57296446               36.69417861                0.51144902                0.58962613                0.40456125               -1.35500989               -0.32352240                2.92707396                0.18847116
              10.85018626               -1.01947215               36.51633061                0.62555070                1.06226749                0.56636749               -1.95631283               -0.39008717                0.52888361                0.28863803
              11.86156754               -1.45318105               36.31396063                0.82214617                1.09460447                0.71000414               -2.55247828               -0.30001890               -1.49688957                0.54812945
              12.87207835               -1.87801328               36.09474119                1.00000000                1.06600922                0.87466103               -3.18681491               -0.13651312               -1.90317790                1.02313485
              13.88288773               -2.29977943               35.88354805                1.00000000                1.08093776                1.11861414               -3.79605380               -0.15380769               -1.47617213               -1.47191370
               4.26774050                2.91381023               37.73504286                1.00000000               -0.50668713               -0.66237008                2.03562092               -0.04113244                0.21628552                2.09226065
               5.26267362                2.52856523               37.51988823                0.70339941               -0.40176353               -0.40647682                1.44872474               -0.01639572                0.69951266               -0.99446775
               6.25970522                2.14170362               37.31449340                0.17355232                0.06419724               -0.14294687                0.95558781               -0.53001790                2.66285167               -3.00254633
               7.26395757                1.74375344               37.13849789                0.00641310                0.72673781               -0.20277240                0.44917706               -1.51296582                5.19943928               -2.40504124
               8.27423998                1.32519067               36.98277192                0.01011774                1.01188555               -0.71810838               -0.08589801               -2.49364272                7.66283335                0.29547191
               9.28419528                0.88315584               36.85443483                0.01323220                0.64963728               -0.32342987               -0.67340091               -3.04592421                9.16295332                0.95452808
              10.28723273                0.43108115               36.72713588                0.01196607                0.10992036                0.20641385               -1.25209446               -2.69704362                8.02893165                1.43176950
              11.28639369               -0.01380847               36.57522011                0.14905970                0.03025958                0.30345496               -1.78195505               -1.58137777                5.63584197                3.12523648
              12.28783792               -0.44608101               36.39991127                0.43926424                0.38093622                0.49072010               -2.30978542               -0.64652729                3.70494095                3.24719404
              13.29401241               -0.86926667               36.20944743                0.91746837                0.76389464                0.78072233               -2.83826158               -0.14987289                1.86302975                1.81188832
              14.30311581               -1.28859329               35.99713896                1.00000000                0.91033995                1.10859969               -3.40507135               -0.09257133                0.79229128               -1.77170716
               4.65122738                3.90738409               37.65835343                1.00000000               -0.41723239               -0.61138634                1.75238299               -0.05979450                0.20709412                2.30585605
               5.64705506                3.52514406               37.42316594                0.51389820               -0.36600361               -0.25947103                1.07521252               -0.04728014                1.04930545               -1.73558896
               6.64390731                3.14143525               37.20488100                0.04941475               -0.03708386                0.13878358                0.53699595               -0.91371952                5.14977927               -5.95988181
               7.64631338                2.74107950               37.05188344                0.00010000                0.71216450               -0.68569181                0.31046785               -3.09266266               12.15041078               -2.40668317
               8.65815060                2.31031762               36.97238126                0.00010000                1.26356965               -1.19137222               -0.25349976               -4.76292003               15.26239703                0.30283335
               9.67158477                1.87435077               36.87929109                0.00010000                1.25975185               -0.90752985               -0.70470180               -5.16653180               14.62926607                1.86671999
              10.68334564                1.43116382               36.78471299                0.00010000                1.20680488               -0.35849082               -1.13235779               -4.95799940               14.68119579                3.18600233
              11.69572087                0.98659695               36.69050931                0.03571279                1.03747761               -0.17177841               -1.55377576               -3.49557058               11.96869910                5.29799573
              12.70409519                0.55663335               36.53945190                0.21869528                0.79361525               -0.58849881               -1.83151616               -1.37814958                6.77899074                8.45171527
              13.71159318                0.13760117               36.33949222                0.52818220                0.77971847                0.38204561               -2.37337998               -0.42146553                2.60089723                3.05643042
              14.71968956               -0.27760744               36.10420626                0.89596088                0.80963818                1.30379713               -3.08260360               -0.34897393                0.85642245               -1.98087621
               5.03102466                4.90158250               37.57856253                0.99363561               -0.33478017               -0.54218477                1.48452935               -0.05284019                0.05639021                2.09111685
               6.02767686                4.52337581               37.32219082                0.47833749               -0.27646337               -0.12499102                0.74057610               -0.00610948                0.37975022               -1.90298279
               7.02549539                4.14447930               37.07236670                0.03111108                0.27725446                0.34302338                0.02988303               -1.70589628               10.12245782               -6.55476173
               8.03322195                3.73003960               37.01090422                0.00010000                1.01074602               -0.77674200               -0.13080931               -3.76370636               19.90383248               -1.41604993
               9.04571032                3.30136323               36.95450718                0.00010000                1.33982448               -0.80765419               -0.43393954               -4.72174417               20.62413186               -0.05240253
              10.06001844                2.86500524               36.90471921                0.00010000                1.50581193               -0.92139859               -0.75159009               -5.16454229               20.98851532                1.90397196
              11.07582655                2.42391134               36.85251768                0.00010000                1.54971525               -0.85145600               -1.03841844               -5.05485451               20.64996559                3.78884191
              12.09101274                1.98275596               36.79278923                0.03954759                1.67220756               -0.77202846               -1.27523954               -4.60709620               20.25324658                5.49020801
              13.10927070                1.54214901               36.72969832                0.21419310                1.44055737               -1.39472483               -1.25310129               -2.11686454               10.88194165                9.28311670
              14.11982389                1.13837425               36.47882153                0.49359107                0.86414256                0.04451871               -1.91391724               -0.11190782                0.80961073                3.06516318
              15.12655356                0.73748265               36.21283480                0.86368091                0.67296642                1.44448754               -2.72364135               -0.09255898                0.06788806               -1.82606435
               5.40658395                5.89654039               37.49786509                0.97706630               -0.25478810               -0.46485434                1.26172881               -0.04882998                0.04892003                2.05268540
               6.40403607                5.52264424               37.22194603                0.45698324               -0.17291799               -0.03441154                0.42549166                0.00857992                0.24407745               -1.83156356
               7.40312559                5.14829572               36.95001463                0.02128786                0.50596248                0.41234215               -0.37989140               -2.31168361               13.76294448               -5.83924361
               8.41415532                4.72554466               36.94439474                0.00010000                1.28122430               -0.27784715               -0.47936896               -4.82196549               27.18011345               -2.78797878
               9.42875008                4.29416453               36.93778796                0.00010000                1.57952495               -0.63252453               -0.64321497               -5.38416878               27.29423821               -0.17827663
              10.44574582                3.85592279               36.93096805                0.00010000                1.78738773               -0.90889008               -0.81766225               -5.66782058               27.39744342                1.93537739
              11.46449783                3.41413470               36.92258167                0.00010000                1.97977266               -1.10079688               -0.97167179               -5.63129417               27.39837478                4.00698507
              12.48534127                2.97115638               36.91178545                0.04606722                2.08208878               -1.30657321               -1.07286519               -5.28017122               26.83640515                6.25457340
              13.50613961                2.52873885               36.88811026                0.22289239                1.43400559               -1.21384591               -0.78443130               -2.57847269               13.66281358                7.03557470
              14.51402138                2.13849155               36.60937547                0.50416622                0.67409831                0.02333157               -1.50752037               -0.07091529                0.48879052                2.36757651
              15.51962157                1.75128231               36.32106161                0.87002029                0.56001898                1.26485728               -2.38974737               -0.02741786                0.02418449               -1.96359850
               5.77784037                6.89228541               37.41757587                0.96230663               -0.17472340               -0.38586739                1.03840526               -0.04765953                0.04583169                2.07519936
               6.77609314                6.52268758               37.12231431                0.43868942               -0.07395332                0.04195426                0.12090943                0.01404222                0.25092723               -1.77510195
               7.77636130                6.15272614               36.83118751                0.01370211                0.74103454                0.47611792               -0.76470450               -2.80140132               17.25565429               -5.58530477
               8.79091383                5.72448266               36.87587088                0.00010000                1.56437518                0.01460514               -0.78822120               -5.72905166               34.10166150               -2.88839880
               9.80764881                5.28871274               36.91785084                0.00010000                1.78890170               -0.45073968               -0.84195545               -6.19717282               34.07309180               -0.38833202
              10.82669186                4.84682744               36.95771555                0.00010000                2.01591384               -0.89308572               -0.90102111               -6.48133853               34.08702033                1.92424260
              11.84796708                4.40189540               36.99536941                0.00010000                2.20566528               -1.26934004               -0.94481818               -6.48498363               34.06651893                4.14341784
              12.87080517                3.95662449               37.03003997                0.05279695                2.11995014               -1.48488195               -0.94844418               -6.08460037               32.66450742                6.25595395
              13.89036609                3.51787210               37.03499936                0.23255631                1.25284822               -0.99485730               -0.33477961               -2.98457918               16.15180860                6.18781300
              14.89586213                3.13884088               36.73475738                0.51665655                0.50287918                0.03178657               -1.12588748               -0.07676896                0.47427223                1.94744735
              15.90042367                2.76277979               36.42523874                0.87769604                0.45615396                1.04667053               -2.08158086               -0.02807448                0.02530964               -2.24715321
               6.14482642                7.88882305               37.33755287                0.94864631               -0.09502350               -0.30657822                0.81525343               -0.04714609                0.04659784                2.08604071
               7.14387619                7.52348333               37.02312636                0.42206551                0.02380313                0.11741499               -0.18231081                0.01627605                0.28325356               -1.73416953
               8.14530248                7.15781808               36.71342840                0.00675323                0.98557499                0.54331725               -1.14117173               -3.20010991               20.70672906               -5.47892203
               9.16358769                6.72583676               36.80725099                0.00010000                1.85796782                0.24628868               -1.07865941               -6.52533958               40.92551694               -2.86610637
              10.18246184                6.28514974               36.89734226                0.00010000                1.96743499               -0.26525656               -1.03269963               -7.02493059               40.84378785               -0.43885183
              11.20293639                5.83806108               36.98451753                0.00010000                2.12696333               -0.82871034               -0.99515647               -7.33247644               40.83536868                1.86727229
              12.22500111                5.38874790               37.06909546                0.00010000                2.23680918               -1.30131505               -0.95336588               -7.34582879               40.78874044                4.16297186
              13.24767257                4.94145874               37.14991471                0.05981956                1.96152655               -1.51316016               -0.88835573               -6.64930820               38.19061423                6.47452375
              14.26423164                4.50884171               37.17747035                0.24261897                0.99528675               -0.83654437                0.10796542               -3.15426885               18.34136775                5.81317566
              15.26757831                4.13912728               36.85671008                0.52966211                0.34753063                0.01377234               -0.75759684               -0.07637140                0.48864399                1.68749609
              16.27118225                3.77221572               36.52647466                0.88552914                0.36039459                0.84940862               -1.78879976               -0.03010806                0.03041475               -2.42868510
               6.50757689                8.88615385               37.25763828                0.93588209               -0.01532621               -0.22689913                0.59093745               -0.04684265                0.04677674                2.07780383
               7.50742363                8.52503588               36.92418686                0.40681804                0.12143895                0.19374913               -0.48573140                0.01669979                0.32581533               -1.70815236
               8.51000567                8.16359248               36.59627446                0.00218485                1.28258730                0.61051970               -1.51479858               -3.52081728               24.15494074               -5.39114366
               9.53307537                7.72940843               36.73911744                0.00010000                2.24601056                0.42546406               -1.35524379               -7.08977167               47.71118889               -2.75232837
              10.55492588                7.28340761               36.87688491                0.00010000                2.16843991               -0.14172851               -1.21364517               -7.58581948               47.57275052               -0.44069208
              11.57644417                6.83025323               37.01107796                0.00010000                2.13634833               -0.70926239               -1.09225941               -7.83491070               47.60645249                1.72304528
              12.59765285                6.37586910               37.14342418                0.00010000                2.06405109               -1.18391912               -0.98582916               -7.90298084               47.69280044                4.04321886
              13.61772519                5.92636129               37.27339316                0.06714982                1.59796643               -1.44187806               -0.88263427               -6.92831149               43.54756923                6.75006462
              14.62961217                5.50114121               37.31751062                0.25309138                0.66177485               -0.71972114                0.54905561               -3.17388528               20.21608508                5.58608247
              15.63096069                5.13911633               36.97661986                0.54301224                0.20162235               -0.02462352               -0.39471137               -0.07562924                0.50697069                1.55379151
              16.63364462                4.77976797               36.62598344                0.89347196                0.26839313                0.66781722               -1.50349515               -0.03330343                0.03573861               -2.50084345
               6.86612550                9.88428506               37.17757170                0.92396597                0.06460437               -0.14680642                0.36423476               -0.04669032                0.05638119                2.06568054
               7.86677155                9.52735831               36.82534280                0.39280931                0.21940415                0.27238904               -0.79039286                0.01284534                0.39430734               -1.72049277
               8.87051358                9.17002847               36.47979559                0.00194618                1.76027921                0.67129105               -1.88603974               -3.81214666               27.67275240               -5.15090537
               9.90197713                8.73434604               36.67277490                0.00010000                2.96935335                0.33246712               -1.61324037               -7.29489879               54.49451775               -2.36587766
              10.92990065                8.28231517               36.85699978                0.00010000                2.58997754               -0.31022248               -1.37449813               -7.24071529               54.15781390               -0.37399169
              11.95377668                7.82387583               37.03616588                0.00010000                2.04663916               -0.53245437               -1.17746524               -7.28230311               54.29737895                1.38229425
              12.97083344                7.36506952               37.21609852                0.00010000                1.50287759               -0.72554565               -1.02472743               -7.60098655               54.83413041                3.45921788
              13.98383423                6.91262118               37.39971940                0.07494273                0.85827311               -1.07813606               -0.91393840               -6.93462076               48.90832734                6.58193911
              14.98799890                6.49444729               37.45583837                0.26398667                0.18023643               -0.62567534                0.99026487               -3.15807066               21.87964198                5.23918408
              15.98743896                6.13863481               37.09561632                0.55673951                0.06070003               -0.07883908               -0.03183833               -0.08358071                0.56094639                1.55580034
              16.98921290                5.78557207               36.72494942                0.90146425                0.17739371                0.49869419               -1.21922888               -0.03724835                0.05511110               -2.48941710
               7.22049659               10.88321772               37.09750867                0.91226449                0.14405343               -0.06726692                0.13654400               -0.04642713               -0.00721672                1.78817142
               8.22193713               10.53048366               36.72593470                0.37947552                0.31392030                0.35369335               -1.09925820               -0.00056119                0.62741609               -1.54406987
               9.22677500               10.17701831               36.36694199                0.00127247                2.64767860                0.70755599               -2.24203784               -4.28568625               31.50793967               -3.83925977
              10.27489070                9.73605778               36.61254699                0.00010000                4.69033937               -0.90682963               -1.83157663               -5.77077969               61.21390323               -1.37967429
              11.32058179                9.27720316               36.83893405                0.00010000                3.65765306               -0.72001789               -1.49678785               -4.96518886               60.33442706               -0.22637521
              12.34804376                8.81960415               37.05739389                0.00010000                1.81529898               -0.33977741               -1.22966333               -4.64765558               60.55675259                0.77893334
              13.35688777                8.36135819               37.28018581                0.00010000                0.08056242                0.07861313               -1.03655816               -5.31765521               61.99588011                2.06971430
              14.34965501                7.90479857               37.52091999                0.08330661               -0.82253155                0.28855164               -0.95172321               -5.40734670               54.50240325                4.55951416
              15.34043713                7.48862770               37.58915664                0.27539164               -0.57453565               -0.50632851                1.41675193               -3.24240128               23.81568004                3.71408593
              16.33816430                7.13753954               37.21530164                0.57082429               -0.07059989               -0.14536411                0.33749257               -0.10699741                0.85322209                1.42784429
              17.33902514                6.78974185               36.82401809                0.90930575                0.08608411                0.34505019               -0.93246551               -0.04502861               -0.00165461               -2.07511125
               7.57066507               11.88293972               37.01196511                0.95266949                0.22946612               -0.02779936               -0.11210369                0.16609318                0.84211084                1.51157906
               8.57295973               11.53443218               36.63035236                0.68613562                0.42803353                0.39485139               -1.39206221                0.16425409                2.22200683               -1.33734626
               9.57922574               11.18417959               36.27618792                0.49185980                5.67084739                0.71612844               -2.50640078               -5.66606157               35.86900815               -2.71340078
              10.68637668               10.71620945               36.56686215                0.44550465                8.39123804               -1.98483255               -1.97166192               -4.66464056               67.23590508               -0.85025464
              11.74705051               10.26791481               36.82403192                0.43511802                4.51459288               -0.92883483               -1.56008260               -2.30958648               65.66363141               -0.20353482
              12.77666854                9.81708028               37.07228451                0.44758863                1.61177021               -0.25238637               -1.22795457               -2.20117349               65.91744560                0.35980807
              13.77928591                9.36664178               37.32637974                0.48194258               -1.41253782                0.52835920               -0.98244587               -2.69458910               67.88289448                1.10243605
              14.74841778                8.91839221               37.60771288                0.54457707               -4.44380064                1.35936443               -0.88357933               -4.23977559               59.87824176                2.85748003
              15.69040990                8.48432072               37.69699715                0.64171068               -3.21164608               -0.43069860                1.73997157               -4.13595818               27.30934332                2.45982518
              16.68418486                8.13572752               37.33149786                0.79028843               -0.32510930               -0.18120194                0.69615684                0.00967443                2.78842854                1.26483939
              17.68390771                7.79247307               36.93072107                0.95722423               -0.02771519                0.27312177               -0.61210710                0.16281190                1.03977911               -1.66966038
               4.08141609                2.02381122               38.84265531                1.00000000               -0.63745188               -0.69380966                2.33962272               -0.11987320               -1.65989699                1.76970409
               5.07504157                1.61594003               38.62350897                0.93068713               -0.60629270               -0.47239686                1.76877637               -0.08042065               -1.95373061               -0.51889620
               6.06929023                1.20634638               38.39867229                0.64013802               -0.79585728               -0.25766032                1.12591760               -0.43186902               -1.65810608               -1.17289763
               7.05912442                0.78576548               38.18577950                0.50910833               -1.17231031               -0.13696938                0.53172311               -0.61916761                0.30899692               -0.17806485
               8.04584402                0.34250992               38.00129644                0.45521323               -1.13880868                0.05578371               -0.09086830               -0.55720218                2.86121201               -0.15915473
               9.03634825               -0.12558216               37.84062499                0.45728164               -0.38025322                0.24066263               -0.75682595               -0.31419488                4.03303141                0.02707804
              10.03823896               -0.60452886               37.68037044                0.51013761                0.60416119                0.41638588               -1.41072042               -0.33153959                2.87193772                0.19244079
              11.04843147               -1.07630871               37.49646500                0.62203541                1.10023749                0.58296585               -2.01959307               -0.40145230                0.50119664                0.29588916
              12.06024371               -1.53487433               37.28809833                0.81463368                1.13352846                0.72964286               -2.62028018               -0.31175616               -1.53976153                0.54527303
              13.07110204               -1.98412298               37.06249812                1.00000000                1.09578770                0.89602843               -3.25940519               -0.14421813               -1.95381868                1.04388672
              14.08215946               -2.43013886               36.84515855                1.00000000                1.10574241                1.14389656               -3.87742751               -0.15697671               -1.51719723               -1.48935356
               4.48808853                3.01687312               38.75553472                1.00000000               -0.51187559               -0.67743486                2.06385678               -0.04155723                0.23447844                2.13332144
               5.48296978                2.61121607               38.53443084                0.68610206               -0.40148590               -0.40420424                1.46050002               -0.02361998                0.76710206               -1.09130743
               6.48005882                2.20376978               38.32408882                0.16784600                0.09405967               -0.13108692                0.96361708               -0.58412941                2.77318606               -3.13581727
               7.48485097                1.78439579               38.14297172                0.00657712                0.79435040               -0.22764363                0.44431629               -1.61660876                5.28754869               -2.43598384
               8.49594582                1.34306776               37.98183036                0.01019945                1.09373603               -0.74602733               -0.10498884               -2.64463736                7.71054767                0.21051642
               9.50672569                0.87682447               37.84754842                0.01326984                0.71705078               -0.33746046               -0.70795146               -3.22956169                9.19487207                0.91027087
              10.51028684                0.39963499               37.71439515                0.01216803                0.14319946                0.21703760               -1.30073954               -2.87363970                8.10416319                1.43780922
              11.50958968               -0.07047905               37.55712772                0.14398935                0.03732210                0.31390847               -1.84001514               -1.70170635                5.75111390                3.15349384
              12.51103328               -0.52757790               37.37648951                0.42787121                0.38512195                0.49539642               -2.37573599               -0.69313340                3.82806488                3.36156037
              13.51729212               -0.97516269               37.18068900                0.89531274                0.77861472                0.79774872               -2.91220013               -0.16608787                1.96788740                1.89041029
              14.52660558               -1.41869989               36.96266885                1.00000000                0.93134558                1.14062222               -3.48598885               -0.10098450                0.87734532               -1.82619518
               4.89189905                4.01026252               38.67591803                1.00000000               -0.42265365               -0.62946580                1.77570370               -0.05791758                0.22145891                2.35350318
               5.88767251                3.60785595               38.43394140                0.49984235               -0.37355639               -0.25358401                1.08805526               -0.05863398                1.12724554               -1.85303363
               6.88442792                3.20372464               38.21022422                0.04614183               -0.00891253                0.16974621                0.53034531               -1.02806095                5.45441948               -6.26752640
               7.88749426                2.78121261               38.05498254                0.00010000                0.80473405               -0.71649161                0.30705345               -3.29933233               12.44486315               -2.63076735
               8.90052260                2.32758938               37.96967379                0.00010000                1.38477601               -1.24056082               -0.29113850               -5.03062903               15.44166666                0.13879157
               9.91518978                1.86766863               37.87200361                0.00010000                1.37735424               -0.94064516               -0.75700615               -5.48694120               14.88561838                1.77473856
              10.92806969                1.39981189               37.77309489                0.00010000                1.32102310               -0.36430089               -1.19608488               -5.28963881               14.95923525                3.17951333
              11.94161024                0.92996946               37.67460841                0.03241741                1.14974990               -0.16808736               -1.63143591               -3.77269289               12.33410038                5.38140772
              12.95106468                0.47503360               37.52081270                0.21105050                0.86460138               -0.65081495               -1.89871952               -1.50371881                7.10604105                8.72851229
              13.95890227                0.03183200               37.31539459                0.51133144                0.80747437                0.37929447               -2.44672231               -0.46197103                2.70972329                3.18952242
              14.96721417               -0.40732641               37.07296464                0.88327881                0.83119009                1.37275512               -3.16375008               -0.38208762                0.88050339               -2.05164911
               5.29174332                5.00428380               38.59354400                0.98132952               -0.34083432               -0.55717992                1.52321440               -0.04994373                0.06957066                2.16964589
               6.28833498                4.60614439               38.32957253                0.46478771               -0.28011922               -0.12176835                0.74167105               -0.01012206                0.40997818               -1.99382775
               7.28614094                4.20716470               38.07255097                0.02805852                0.33323053                0.37737109                0.00694610               -1.83953929               10.44704185               -6.86276523
               8.29499959                3.77006596               38.00937246                0.00010000                1.13681435               -0.77873579               -0.17686633               -4.00618158               20.43877189               -1.73954836
               9.30887722                3.31825654               37.94991232                0.00010000                1.48823852               -0.83718726               -0.48826990               -4.99689330               21.08596879               -0.23415434
              10.32476436                2.85801156               37.89689433                0.00010000                1.66580064               -0.95355468               -0.81766824               -5.47564046               21.46322712                1.79960439
              11.34219324                2.39234898               37.84179601                0.00010000                1.70748784               -0.87703219               -1.11109208               -5.37772822               21.17364309                3.76040131
              12.35891412                1.92615920               37.77971204                0.03622570                1.84515658               -0.78761062               -1.34604528               -4.96398814               20.93823354                5.55902727
              13.37909637                1.45940580               37.71675169                0.20681463                1.57492963               -1.49139578               -1.34368522               -2.32184841               11.36827271                9.55395500
              14.39041271                1.03242320               37.45932579                0.47824434                0.90921375                0.03566525               -1.98786822               -0.13475727                0.88991893                3.16704302
              15.39728064                0.60875521               37.18519626                0.85249595                0.68679347                1.53740150               -2.80398436               -0.09722976                0.06885808               -1.88642438
               5.68717901                5.99911892               38.51065705                0.96504117               -0.25898344               -0.47645560                1.29399652               -0.04917597                0.04880151                2.14494736
               6.68458917                5.60542058               38.22618552                0.44378314               -0.17317229               -0.03207234                0.42260322                0.01045975                0.26073870               -1.90991953
               7.68371556                5.21127206               37.94603345                0.01836264                0.58448053                0.43851292               -0.41533002               -2.45963083               14.15095494               -6.08741080
               8.69627878                4.76563790               37.93930610                0.00010000                1.44617833               -0.27166125               -0.53961126               -5.11071540               27.89691313               -3.03329682
               9.71263913                4.31084563               37.93101869                0.00010000                1.76528777               -0.65275069               -0.71363450               -5.69106883               27.98029037               -0.36409869
              10.73158454                3.84859754               37.92242997                0.00010000                1.98641776               -0.94403114               -0.89412807               -5.99352935               28.09400123                1.81769299
              11.75236748                3.38227124               37.91250717                0.00010000                2.18445597               -1.13823767               -1.04829501               -5.97063215               28.13960876                3.94879490
              12.77527366                2.91421725               37.90074372                0.04257327                2.29981179               -1.34385858               -1.14165418               -5.68135858               27.79844460                6.24719738
              13.79836372                2.44520568               37.87983663                0.21531351                1.57920256               -1.27759855               -0.87934685               -2.82400511               14.32545562                7.25079315
              14.80685771                2.03254530               37.59396032                0.48855737                0.71209132                0.02951770               -1.57938176               -0.09605091                0.57645021                2.43350157
              15.81260555                1.62342162               37.29677548                0.85870305                0.57478360                1.34182812               -2.46930993               -0.02675763                0.02654947               -2.04707089
               6.07815648                6.99475469               38.42808233                0.95059438               -0.17654457               -0.39549192                1.06364417               -0.04843794                0.04782057                2.16449056
               7.07639103                6.60550294               38.12346066                0.42592170               -0.07127346                0.04721663                0.10848440                0.01779736                0.26949117               -1.84962512
               8.07673101                6.21593496               37.82331108                0.01096327                0.84103396                0.49918678               -0.81053933               -2.96425200               17.72436275               -5.81720063
               9.09321171                5.76463273               37.86764372                0.00010000                1.76825983                0.01893573               -0.85849749               -6.05544049               34.99408629               -3.10140656
              10.11209620                5.30520153               37.90904057                0.00010000                2.01282250               -0.47213310               -0.92289689               -6.54139649               34.95550883               -0.55954873
              11.13346816                4.83913094               37.94830256                0.00010000                2.25323401               -0.93465813               -0.98527479               -6.83571906               34.98114102                1.79743186
              12.15716088                4.36958422               37.98554862                0.00010000                2.44421735               -1.31927753               -1.02367948               -6.84665868               34.99618094                4.05237570
              13.18235251                3.89928203               38.02027069                0.04913978                2.35636629               -1.52472371               -1.01027285               -6.52583141               33.91833928                6.18305414
              14.20428821                3.43385383               38.03124855                0.22469234                1.39616226               -1.03413571               -0.42396827               -3.26204040               17.01922723                6.39786089
              15.21027575                3.03301355               37.72318270                0.50071134                0.53523243                0.04568530               -1.19320863               -0.09942573                0.56567479                1.99899582
              16.21499286                2.63559177               37.40404207                0.86613979                0.47171064                1.10686638               -2.16052561               -0.02750128                0.02847429               -2.34952386
               6.46471375                7.99120908               38.34580305                0.93724230               -0.09488995               -0.31392631                0.83528689               -0.04797259                0.04817916                2.17555283
               7.46376485                7.60636492               38.02119694                0.40977516                0.02934875                0.12518482               -0.20350119                0.02039639                0.30538710               -1.80751625
               8.46530073                7.22125580               37.70173281                0.00423354                1.10692737                0.56663639               -1.19845544               -3.37994142               21.26398310               -5.70553834
               9.48590340                6.76601661               37.79607771                0.00010000                2.10061311                0.24772538               -1.15746639               -6.88815854               41.99423750               -3.06155155
              10.50731299                6.30140297               37.88658087                0.00010000                2.22920324               -0.29338865               -1.12206060               -7.40412722               41.90835487               -0.59790792
              11.53048747                5.82990438               37.97412752                0.00010000                2.39851156               -0.88048264               -1.08569737               -7.71314079               41.90578974                1.73783146
              12.55528322                5.35588569               38.05917197                0.00010000                2.49999807               -1.36143652               -1.03393212               -7.72087502               41.88108607                4.04692582
              13.58048743                4.88372277               38.14076621                0.05597772                2.20540842               -1.55462397               -0.94371153               -7.10323620               39.75294351                6.34690340
              14.59939139                4.42452297               38.17819756                0.23450739                1.13219100               -0.86039669                0.02848424               -3.44276864               19.44237739                6.02503853
              15.60313125                4.03345901               37.84884739                0.51332325                0.37538420                0.02983592               -0.81922310               -0.09439402                0.58121531                1.73435669
              16.60689907                3.64555895               37.50821269                0.87376024                0.37678267                0.89723537               -1.86712784               -0.02933037                0.03452807               -2.54064530
               6.84688536                8.98847617               38.26362278                0.92480479               -0.01331150               -0.23255687                0.60664774               -0.04772482                0.04838108                2.16517319
               7.84675224                8.60800664               37.91918284                0.39501530                0.12975634                0.20379281               -0.51524697                0.02046339                0.35266488               -1.78198633
               8.84948048                8.22726769               37.58078879                0.00216442                1.42745620                0.63503783               -1.58307719               -3.72055574               24.80685887               -5.61485435
               9.87530137                7.76958724               37.72513594                0.00010000                2.53227047                0.42075154               -1.44267064               -7.48515807               48.95926586               -2.93123860
              10.90012589                7.29933376               37.86427360                0.00010000                2.47106271               -0.18474578               -1.31067355               -7.98721086               48.81072075               -0.58321730
              11.92472262                6.82152129               37.99967951                0.00010000                2.43995463               -0.77512234               -1.18913000               -8.21893457               48.83568151                1.60066919
              12.94892499                6.34235549               38.13314243                0.00010000                2.34639443               -1.25206640               -1.07074556               -8.26539613               48.92147863                3.91506374
              13.97165051                5.86818955               38.26428149                0.06316134                1.83858073               -1.48955509               -0.93763996               -7.36315319               45.43239549                6.57825135
              14.98569660                5.41664589               38.32270082                0.24470962                0.78506913               -0.73314826                0.48098616               -3.45932328               21.57968399                5.80187728
              15.98735189                5.03361027               37.97241554                0.52628289                0.22548876               -0.00898078               -0.45035126               -0.08960547                0.60010717                1.60199123
              16.99020638                4.65353648               37.61057912                0.88145231                0.28544841                0.70638018               -1.58146476               -0.03244562                0.04084896               -2.61510457
               7.22469832                9.98655794               38.18127038                0.91325495                0.06842848               -0.15122311                0.37607425               -0.04770354                0.05824789                2.15102392
               8.22538260                9.61044077               37.81725279                0.38150563                0.23053463                0.28473262               -0.82792994                0.01542149                0.42745516               -1.79687216
               9.22930901                9.23395655               37.46054298                0.00192652                1.93757835                0.69682724               -1.96482658               -4.03846525               28.42851187               -5.36473976
              10.26413417                8.77443164               37.65617184                0.00010000                3.31628584                0.30399849               -1.70915576               -7.71588095               55.92963472               -2.51611834
              11.29563472                8.29770805               37.84274132                0.00010000                2.94764360               -0.38808679               -1.47878694               -7.62115188               55.56397424               -0.48697735
              12.32308704                7.81440193               38.02387397                0.00010000                2.38361558               -0.61685906               -1.28141869               -7.61676327               55.66926397                1.28303136
              13.34330704                7.33084437               38.20537257                0.00010000                1.79234619               -0.79460677               -1.11827178               -7.90068604               56.17109727                3.34191771
              14.35893396                6.85393167               38.39019823                0.07078218                1.07385841               -1.12707392               -0.98206767               -7.30661732               51.12269893                6.38684451
              15.36478420                6.40986000               38.46550010                0.25536409                0.27572927               -0.62978298                0.93448624               -3.43010251               23.52994673                5.45103701
              16.36444855                6.03327939               38.09506898                0.53957119                0.08067661               -0.06454199               -0.08166412               -0.09507976                0.65527518                1.61065822
              17.36639774                5.65968655               37.71238968                0.88917678                0.19491884                0.53035811               -1.29703761               -0.03650321                0.06165539               -2.60080960
               7.59816563               10.98545170               38.09891295                0.90181971                0.14964299               -0.07060618                0.14485112               -0.04750242               -0.00909925                1.86185177
               8.59966206               10.61370129               37.71471692                0.36861318                0.32773389                0.36830531               -1.14486607               -0.00054447                0.67484673               -1.61397206
               9.60472031               10.24120423               37.34408763                0.00126215                2.87850924                0.73085359               -2.32998357               -4.55597160               32.38909238               -3.99780277
              10.65723225                9.77566721               37.59372390                0.00010000                5.15061289               -1.02946610               -1.93474680               -6.12013890               62.84523769               -1.47148353
              11.70773257                9.29157202               37.82341905                0.00010000                4.10093988               -0.83927753               -1.60758683               -5.22875209               61.90068286               -0.29073484
              12.73925104                8.80918411               38.04454043                0.00010000                2.18244775               -0.43909487               -1.34071179               -4.84617208               62.05962551                0.72241877
              13.75138152                8.32646336               38.26927418                0.00010000                0.36257410                0.00732432               -1.14148615               -5.48981183               63.41305740                1.99670848
              14.74650253                7.84564807               38.51086177                0.07908402               -0.68173473                0.27100918               -1.04723669               -5.63778110               57.02570546                4.41330583
              15.73774683                7.40405023               38.60313046                0.26655115               -0.54393893               -0.49453781                1.37122085               -3.48653029               25.76288657                3.86777368
              16.73562375                7.03231943               38.21847488                0.55321174               -0.05424149               -0.13224827                0.29322470               -0.11933826                0.95864969                1.48299253
              17.73666200                6.66414364               37.81432618                0.89671754                0.10382504                0.37198396               -1.01047551               -0.04469442                0.00303784               -2.16570615
               7.96724910               11.98514582               38.01086002                0.94755394                0.23700861               -0.03058820               -0.10842903                0.17445215                0.87374139                1.57413034
               8.96961918               11.61780688               37.61617221                0.68087708                0.44872783                0.41055899               -1.44483411                0.16710234                2.34052432               -1.39852858
               9.97622365               11.24857363               37.25066799                0.49096785                6.08722073                0.73693956               -2.59911890               -6.04789361               36.90804702               -2.82606277
              11.09136360               10.75384232               37.54661362                0.44562505                9.06595662               -2.18248915               -2.07988265               -4.96942105               69.03812736               -0.90072271
              12.15754279               10.28092250               37.80785798                0.43525764                4.99543324               -1.06495180               -1.67634838               -2.43009257               67.36813104               -0.23854728
              13.19127226                9.80562003               38.05941757                0.44734907                1.97520244               -0.35640758               -1.34522380               -2.29446086               67.54619323                0.32797272
              14.19704683                9.33099085               38.31596525                0.48103120               -1.13403987                0.45274944               -1.09608411               -2.74687766               69.39932239                1.05889494
              15.16859147                8.85935185               38.59823108                0.54241535               -4.43322971                1.37037827               -0.99876407               -4.34218650               62.61047328                2.75205008
              16.10838224                8.39996925               38.71421071                0.63723546               -3.33115465               -0.40809879                1.69552232               -4.37233011               29.49605689                2.56569129
              17.10196837                8.03063443               38.33827523                0.78134005               -0.32634104               -0.16850020                0.65532375               -0.00768842                2.97563422                1.31671059
              18.10185542                7.66712623               37.92423766                0.95083647               -0.01129522                0.29825850               -0.68940903                0.16852226                1.08821725               -1.74034580
               4.28665480                2.13026676               39.86620616                1.00000000               -0.64700150               -0.70528240                2.37176755               -0.12318162               -1.69229656                1.82229933
               5.28018479                1.70105193               39.64128704                0.92061522               -0.61957929               -0.47452745                1.78696670               -0.08550286               -2.02356377               -0.58635910
               6.27426322                1.27000316               39.40993453                0.63607413               -0.82846298               -0.25678192                1.12599832               -0.45665013               -1.73982270               -1.17396452
               7.26361553                0.82718922               39.19102990                0.50799489               -1.22293049               -0.13584956                0.51694100               -0.64356714                0.24201689               -0.18698372
               8.24980461                0.36042886               39.00023422                0.45507410               -1.18175787                0.05947990               -0.12359156               -0.57679503                2.76811927               -0.16492515
               9.23998037               -0.13248593               38.83282103                0.45698003               -0.39418354                0.24685677               -0.80751820               -0.32494072                3.93790948                0.02572311
              10.24192094               -0.63716507               38.66596420                0.50880949                0.62509643                0.42779587               -1.47486412               -0.33811913                2.81576565                0.19518748
              11.25248230               -1.13487981               38.47593875                0.61852679                1.14091299                0.59977991               -2.08901882               -0.41071318                0.47828134                0.30198264
              12.26473920               -1.61905794               38.26155502                0.80703859                1.17297305                0.74937754               -2.68884382               -0.32200124               -1.57491312                0.54034796
              13.27594176               -2.09351731               38.02955309                1.00000000                1.12418613                0.91623833               -3.32642912               -0.15155303               -1.99891039                1.06209454
              14.28722292               -2.56458711               37.80599950                1.00000000                1.12811583                1.16638313               -3.94851652               -0.15897070               -1.55565696               -1.50471098
               4.71463782                3.12321394               39.77631999                1.00000000               -0.51762633               -0.69109444                2.09557267               -0.04297781                0.25227407                2.18181812
               5.70946156                2.69630665               39.54909823                0.66883994               -0.40048782               -0.40551136                1.47436717               -0.03348066                0.84070673               -1.18823591
               6.70662807                2.26743534               39.33376574                0.16211698                0.12527234               -0.11902931                0.97115658               -0.63922928                2.89093670               -3.27879511
               7.71196701                1.82583073               39.14738422                0.00673172                0.86230833               -0.25629061                0.43654828               -1.71330661                5.37551717               -2.47136071
               8.72387423                1.36102366               38.98067215                0.01026608                1.17804595               -0.77086856               -0.12908202               -2.78449188                7.75415725                0.11121620
               9.73552793                0.86998264               38.84027580                0.01329472                0.79312247               -0.35072240               -0.75122086               -3.40075480                9.21959713                0.85289810
              10.73973668                0.36711289               38.70112109                0.01237668                0.18968396                0.22591480               -1.35969985               -3.04300222                8.17438291                1.43247499
              11.73932161               -0.12888201               38.53841981                0.13886982                0.05506254                0.32602977               -1.90646922               -1.82371466                5.86578846                3.16834939
              12.74083794               -0.61156417               38.35239655                0.41634725                0.39346045                0.49996825               -2.44494816               -0.73911388                3.95239086                3.47235207
              13.74719082               -1.08435493               38.15120343                0.87297355                0.79325398                0.81360704               -2.98370992               -0.18325845                2.07419360                1.96676268
              14.75670301               -1.55292328               37.92741919                1.00000000                0.95121993                1.17096443               -3.56026586               -0.11000506                0.96382929               -1.87935298
               5.13960982                4.11644488               39.69386750                0.99384681               -0.43160496               -0.64887712                1.81431043               -0.06425817                0.24012375                2.41799177
               6.13529377                3.69294170               39.44492705                0.48586053               -0.38276331               -0.25257606                1.10619764               -0.07072057                1.20730478               -1.97435636
               7.13195456                3.26762257               39.21548791                0.04282354                0.02336533                0.19897121                0.52403542               -1.14350286                5.77177443               -6.59622539
               8.13576108                2.82206341               39.05802451                0.00010000                0.90041523               -0.74528258                0.29813837               -3.49710268               12.74394687               -2.88192592
               9.14996286                2.34501149               38.96655849                0.00010000                1.50574808               -1.28442085               -0.33514618               -5.27651037               15.61198501               -0.05056716
              10.16587604                1.86049962               38.86415097                0.00010000                1.49813384               -0.97058333               -0.81779518               -5.78934484               15.14017333                1.66001416
              11.17992554                1.36735323               38.76079129                0.00010000                1.44045124               -0.37029037               -1.26975674               -5.60569055               15.23205923                3.15501505
              12.19468507                0.87164079               38.65788060                0.02904829                1.27521491               -0.16583962               -1.72030390               -4.04558378               12.70169444                5.45349740
              13.20542984                0.39094142               38.50147751                0.20331091                0.94753195               -0.71158224               -1.97281074               -1.63507423                7.44038442                8.98759789
              14.21363571               -0.07724517               38.29055778                0.49442098                0.83648451                0.37521499               -2.52205188               -0.50611810                2.81733986                3.32046299
              15.22215953               -0.54116783               38.04093126                0.87056177                0.85238212                1.44332995               -3.24086177               -0.41792664                0.90332066               -2.12127836
               5.56035901                5.11023640               39.60902682                0.96898041               -0.34895625               -0.57719342                1.56770986               -0.05346631                0.06988339                2.25464538
               6.55686945                4.69125513               39.33702424                0.45121641               -0.28613565               -0.11919931                0.74970563               -0.01204819                0.43721032               -2.09406563
               7.55463630                4.27141477               39.07250562                0.02494774                0.38832954                0.40824091               -0.01474763               -1.96302502               10.77578884               -7.18674045
               8.56463604                3.81092508               39.00736689                0.00010000                1.26357589               -0.77279726               -0.22534440               -4.23661313               20.98133856               -2.09595434
               9.57990782                3.33533524               38.94474179                0.00010000                1.63816239               -0.86285926               -0.54897196               -5.25424775               21.55641767               -0.43785672
              10.59739929                2.85057097               38.88836584                0.00010000                1.82869449               -0.98155950               -0.89238016               -5.76834168               21.94326587                1.67765941
              11.61648171                2.35970708               38.83029584                0.00010000                1.87112247               -0.89976216               -1.19437437               -5.68595250               21.70521148                3.72114292
              12.63482174                1.86780120               38.76586832                0.03283104                2.02703495               -0.80495527               -1.42953126               -5.31036293               21.62043249                5.62927432
              13.65702241                1.37420419               38.70282462                0.19937740                1.71779804               -1.58417839               -1.45002290               -2.53247727               11.85640403                9.81094468
              14.66917770                0.92314937               38.43906416                0.46290815                0.95836922                0.02749179               -2.06795340               -0.16425210                0.98102318                3.26934033
              15.67618979                0.47594332               38.15675511                0.84132835                0.70120915                1.63314498               -2.88493666               -0.10246960                0.06898981               -1.94729950
               5.97650303                6.10490101               39.52374502                0.95296527               -0.26285888               -0.49035877                1.32462130               -0.05027442                0.05101516                2.23497826
               6.97387444                5.69055771               39.23039810                0.43048925               -0.17394592               -0.02857360                0.42020144                0.01355726                0.28001295               -1.99222775
               7.97302411                5.27578739               38.94170803                0.01539577                0.66169505                0.46340009               -0.44914994               -2.59605219               14.54438707               -6.34803518
               8.98710834                4.80660746               38.93360251                0.00010000                1.61039505               -0.26210754               -0.60207978               -5.38015365               28.62347819               -3.29421661
              10.00523201                4.32775430               38.92351527                0.00010000                1.95145112               -0.66878301               -0.78998402               -5.97733541               28.68078773               -0.56736528
              11.02613737                3.84086843               38.91308549                0.00010000                2.18721236               -0.97462168               -0.97906678               -6.29944876               28.80559045                1.68702310
              12.04897626                3.34935799               38.90161577                0.00010000                2.39216702               -1.17144872               -1.13552658               -6.29429438               28.89816687                3.88475023
              13.07398071                2.85554168               38.88895237                0.03902482                2.52279281               -1.37690578               -1.22372550               -6.07249241               28.75925188                6.24403610
              14.09943212                2.35925785               38.87052332                0.20762064                1.73154140               -1.33679054               -0.99283802               -3.07104039               14.99190040                7.47338865
              15.10861153                1.92330466               38.57778783                0.47298404                0.75450643                0.03921769               -1.65924312               -0.12791889                0.67994468                2.50448391
              16.11452225                1.49149507               38.27167541                0.84741455                0.59107116                1.42043941               -2.55305680               -0.02672783                0.02870832               -2.13267459
               6.38804011                7.10042922               39.43884876                0.93884790               -0.17859025               -0.40536770                1.08954809               -0.04959710                0.04904727                2.25780152
               7.38625421                6.69068366               39.12448400                0.41307671               -0.06873042                0.05265576                0.09644882                0.02166355                0.29001465               -1.92831571
               8.38666550                6.28068277               38.81497672                0.00820237                0.94059243                0.52211028               -0.85631913               -3.11617319               18.20164287               -6.06129341
               9.40506606                5.80568292               38.85870093                0.00010000                1.97173204                0.02530216               -0.93125020               -6.36035791               35.90088752               -3.32608679
              10.42610015                5.32195958               38.89939290                0.00010000                2.23702862               -0.48978769               -1.00949072               -6.86286368               35.85796923               -0.74299566
              11.44980663                4.83107853               38.93801006                0.00010000                2.49112122               -0.97138367               -1.07725707               -7.16788774               35.89876602                1.66146948
              12.47592257                4.33627811               38.97489582                0.00010000                2.68326958               -1.36326875               -1.11184180               -7.19037917               35.95484568                3.95891758
              13.50347202                3.84026308               39.00983451                0.04541315                2.59580221               -1.55778380               -1.08337667               -6.95422949               35.17867000                6.11931222
              14.52783861                3.34746838               39.02651999                0.21677970                1.54550388               -1.06838201               -0.53161825               -3.53817325               17.89335583                6.62402057
              15.53438210                2.92393372               38.71089320                0.48477294                0.57179011                0.06384547               -1.26909729               -0.12701617                0.67493096                2.05798740
              16.53927442                2.50435210               38.38202823                0.85464590                0.48923156                1.16853480               -2.24578963               -0.02716399                0.03204402               -2.45514800
               6.79500222                8.09679365               39.35425861                0.92581173               -0.09480479               -0.32196241                0.85641526               -0.04906831                0.04969311                2.26883453
               7.79405417                7.69161083               39.01905633                0.39742447                0.03495836                0.13283258               -0.22454877                0.02463245                0.33003763               -1.88514418
               8.79570138                7.28622960               38.68945929                0.00235909                1.22851020                0.59012293               -1.25642921               -3.54865423               21.83361423               -5.94422702
               9.81862437                6.80711351               38.78410166                0.00010000                2.34388731                0.25033017               -1.23928689               -7.22806161               43.08337918               -3.26708441
              10.84257913                6.31795855               38.87490105                0.00010000                2.49183549               -0.31883804               -1.21660145               -7.75880847               42.99895288               -0.76623576
              11.86846108                5.82144076               38.96280358                0.00010000                2.67025009               -0.92791850               -1.18245050               -8.06917960               43.00819710                1.60198428
              12.89598413                5.32209261               39.04841682                0.00010000                2.76223840               -1.41541651               -1.12086076               -8.07484451               43.01440743                3.92981021
              13.92370585                4.82438600               39.13104048                0.05206765                2.45069384               -1.58843905               -1.00495390               -7.54298539               41.33258917                6.22733345
              14.94499801                4.33789021               39.17804004                0.22630631                1.27408158               -0.87960785               -0.06940148               -3.72856190               20.55464103                6.25636724
              15.94918748                3.92458157               38.84032562                0.49701282                0.40720997                0.05004195               -0.88957816               -0.11610074                0.69321589                1.78907512
              16.95314221                3.51486577               38.48913210                0.86204259                0.39547258                0.94683950               -1.95335221               -0.02857904                0.03949402               -2.65688271
               7.19742440                9.09398997               39.26977124                0.91372529               -0.01134821               -0.23891411                0.62362876               -0.04879433                0.04982170                2.25694277
               8.19731091                8.69334031               38.91388192                0.38312884                0.13826718                0.21379791               -0.54502633                0.02445686                0.38280716               -1.86008209
               9.20018974                8.29248523               38.56461292                0.00213138                1.57324811                0.66026208               -1.65259184               -3.90936988               25.47522907               -5.84978789
              10.22877588                7.81068953               38.71026403                0.00010000                2.82034939                0.41611048               -1.53343191               -7.85776450               50.23404861               -3.11946118
              11.25659673                7.31558282               38.85067144                0.00010000                2.77565506               -0.22641890               -1.41214512               -8.36352414               50.08093681               -0.73287086
              12.28428898                6.81252016               38.98729536                0.00010000                2.74418520               -0.83826092               -1.29006723               -8.57717078               50.10415744                1.47353795
              13.31148043                6.30796978               39.12200927                0.00010000                2.62628675               -1.31582460               -1.15726073               -8.60394384               50.20095404                3.78436634
              14.33681471                5.80849430               39.25464036                0.05909769                2.07956871               -1.53041026               -0.99058629               -7.78193649               47.34688933                6.40696782
              15.35307181                5.32987622               39.32713034                0.23625507                0.91349080               -0.74259173                0.39563596               -3.74153299               22.96156894                6.03820473
              16.35508453                4.92493456               38.96761283                0.50958113                0.25313189                0.01035305               -0.51464567               -0.10599587                0.71291040                1.65777313
              17.35813444                4.52328889               38.59435415                0.86950122                0.30499153                0.74715230               -1.66822905               -0.03144691                0.04690291               -2.73416074
               7.59532566               10.09201537               39.18509319                0.90244222                0.07223964               -0.15624282                0.38914600               -0.04874436                0.06023534                2.24098991
               8.59604805                9.69588679               38.80878421                0.37007039                0.24195556                0.29722432               -0.86621193                0.01839711                0.46525069               -1.87755566
               9.60016477                9.29943484               38.44049906                0.00189450                2.11617176                0.72260062               -2.04528164               -4.25454739               29.20501702               -5.58958718
              10.63837149                8.81543572               38.63859179                0.00010000                3.66566208                0.27483996               -1.80848611               -8.11582607               57.39744226               -2.67410625
              11.67347801                8.31343017               38.82742405                0.00010000                3.30796092               -0.46555116               -1.58668681               -7.97889960               57.00796842               -0.60498907
              12.70453071                7.80467554               39.01053751                0.00010000                2.72265548               -0.70056212               -1.38701392               -7.92809423               57.08494650                1.18047220
              13.72793112                7.29577612               39.19373309                0.00010000                2.08149870               -0.86350535               -1.20865271               -8.17752972               57.56285308                3.22037870
              14.74616068                6.79377780               39.38007805                0.06657207                1.28979826               -1.17312308               -1.03554475               -7.66198101               53.38097336                6.17922341
              15.75372708                6.32303838               39.47452809                0.24665881                0.37471036               -0.63018271                0.86208842               -3.69896079               25.21132447                5.68230917
              16.75365489                5.92478863               39.09398304                0.52245931                0.10387622               -0.04707115               -0.13987888               -0.10862578                0.76922117                1.67259183
              17.75580461                5.52980882               38.69900867                0.87696109                0.21497208                0.56454245               -1.38411580               -0.03553939                0.06931680               -2.71714163
               7.98870668               11.09086512               39.10040570                0.89131948                0.15527094               -0.07435886                0.15431346               -0.04853874               -0.01106115                1.93979136
               8.99025939               10.69928480               38.70303738                0.35769419                0.34215912                0.38321154               -1.19175009               -0.00068408                0.72826180               -1.68792469
               9.99554986               10.30693724               38.32034232                0.00124272                3.11023183                0.75313809               -2.42035402               -4.81589816               33.29616524               -4.16522807
              11.05246402                9.81618633               38.57385205                0.00010000                5.61145276               -1.15100788               -2.04127998               -6.45438448               64.51499182               -1.56825494
              12.10777892                9.30627180               38.80678231                0.00010000                4.54585605               -0.95820809               -1.72151083               -5.47731179               63.50822291               -0.35750610
              13.14338115                8.79850892               39.03057966                0.00010000                2.55243304               -0.53950396               -1.45169030               -5.03088495               63.60785553                0.66454360
              14.15882758                8.29069967               39.25735609                0.00010000                0.64658438               -0.06692964               -1.23882020               -5.64746771               64.88018266                1.91991888
              15.15631283                7.78503184               39.49997526                0.07472023               -0.53729113                0.24583968               -1.11887300               -5.86029976               59.60751116                4.25083116
              16.14808175                7.31727256               39.61658106                0.25757200               -0.50856289               -0.47821664                1.31080968               -3.72394511               27.76202764                4.03525667
              17.14614158                6.92399314               39.22116613                0.53563871               -0.03492297               -0.11638036                0.24084789               -0.13385563                1.08404341                1.54390353
              18.14738329                6.53457974               38.80380858                0.88422432                0.12417193                0.40171834               -1.09816435               -0.04421045                0.00872263               -2.26083776
               8.37751552               12.09052819               39.00979653                0.94241910                0.24467266               -0.03369240               -0.10373716                0.18316691                0.90710663                1.64035904
               9.37996225               11.70355102               38.60145568                0.67558716                0.47148751                0.42662205               -1.49917301                0.16875668                2.46934370               -1.46338265
              10.38694527               11.31449760               38.22420554                0.49001739                6.49934951                0.75603631               -2.69395984               -6.41723148               37.97918630               -2.94563458
              11.50994924               10.79241556               38.52526450                0.44571221                9.73319520               -2.37707669               -2.19181755               -5.26305801               70.87901138               -0.95232652
              12.58160918               10.29426601               38.79050495                0.43538338                5.47679458               -1.20057877               -1.79605244               -2.54347885               69.11362936               -0.27346453
              13.61948513                9.79388546               39.04538003                0.44711475                2.34248353               -0.46234640               -1.46260195               -2.38102548               69.21973778                0.29672166
              14.62845885                9.29443753               39.30445806                0.48011171               -0.85516694                0.37378537               -1.20076570               -2.79641609               70.96118087                1.01370296
              15.60238179                8.79869459               39.58773759                0.54017793               -4.40859845                1.36627537               -1.08881237               -4.44127797               65.40522693                2.63366999
              16.54028688                8.31347405               39.73090760                0.63267924               -3.43555987               -0.37985188                1.63602994               -4.59116565               31.75282505                2.68125805
              17.53367060                7.92246103               39.34460434                0.77242684               -0.32698423               -0.15321132                0.60646989               -0.02864105                3.18865709                1.37332014
              18.53374719                7.53784318               38.91693289                0.94449265                0.00765992                0.32634394               -0.77667671                0.17460555                1.14045975               -1.81497523
               4.49740839                2.24002954               40.89009067                1.00000000               -0.65664645               -0.71813951                2.40665821               -0.12699189               -1.72516391                1.87901499
               5.49084193                1.78859047               40.65924830                0.91044351               -0.63287354               -0.47791301                1.80632519               -0.09161929               -2.09580311               -0.65806329
               6.48475092                1.33520467               40.42119225                0.63191692               -0.85884302               -0.25641716                1.12608632               -0.47960026               -1.82448542               -1.17310264
               7.47366507                0.86931718               40.19611832                0.50678008               -1.26678186               -0.13432059                0.50048247               -0.66447044                0.17204486               -0.19732893
               8.45941528                0.37833557               39.99882461                0.45490722               -1.21443062                0.06322410               -0.15970167               -0.59250933                2.66812544               -0.17165815
               9.44937645               -0.13997723               39.82447462                0.45665706               -0.39893620                0.25297176               -0.86419254               -0.33449971                3.83429273                0.02315623
              10.45143656               -0.67093889               39.65087316                0.50746604                0.65149130                0.43963035               -1.54747693               -0.34330440                2.75469041                0.19696435
              11.46240628               -1.19523118               39.45468462                0.61501117                1.18472737                0.61772650               -2.16680933               -0.41820463                0.45828639                0.30700446
              12.47513111               -1.70575042               39.23432146                0.79939303                1.21365398                0.76970740               -2.75986177               -0.33089174               -1.60053003                0.53293797
              13.48667936               -2.20618176               38.99596953                1.00000000                1.15111993                0.93496351               -3.38629178               -0.15870230               -2.03624825                1.07769638
              14.49815350               -2.70307246               38.76618822                1.00000000                1.14741461                1.18537461               -4.00623354               -0.15935596               -1.59023436               -1.51715340
               4.94757754                3.23284814               40.79744617                1.00000000               -0.52393678               -0.70570060                2.13030179               -0.04497827                0.27063307                2.23629427
               5.94233817                2.78381134               40.56391818                0.65156523               -0.39929855               -0.40738301                1.48950994               -0.04256869                0.92040197               -1.28755120
               6.93959157                2.33264049               40.34351195                0.15627441                0.15583698               -0.10722066                0.97779866               -0.69111720                3.01540086               -3.42935443
               7.94545491                1.86797397               40.15170268                0.00687081                0.92729131               -0.28628761                0.42593124               -1.80175689                5.46326119               -2.51264235
               8.95813739                1.37896781               39.97924872                0.01030579                1.26068896               -0.79135881               -0.15796016               -2.91004637                7.79081143               -0.00230866
               9.97066869                0.86255249               39.83252400                0.01328930                0.87465486               -0.36219498               -0.80249797               -3.55632004                9.23180111                0.78382346
              10.97563049                0.33345741               39.68720115                0.01257790                0.24806547                0.23381665               -1.42970673               -3.20308571                8.23493857                1.41809895
              11.97563000               -0.18905391               39.51899834                0.13370840                0.08334955                0.34110342               -1.98450643               -1.94795635                5.97779996                3.17047323
              12.97729748               -0.69805335               39.32759055                0.40475074                0.40616779                0.50539519               -2.51974052               -0.78570637                4.07886932                3.57919832
              13.98375335               -1.19683213               39.12101480                0.85037224                0.80765791                0.82811415               -3.05256786               -0.20247015                2.18222690                2.04001323
              14.99345064               -1.69121871               38.89146354                1.00000000                0.96972853                1.19922769               -3.62643400               -0.11965239                1.05092336               -1.93002436
               5.39458243                4.22591553               40.71220424                0.98115039               -0.43842248               -0.66744733                1.85097643               -0.06884094                0.25915142                2.48788632
               6.39019820                3.78044281               40.45606535                0.47178862               -0.39082383               -0.25096594                1.11971276               -0.07965270                1.29145628               -2.09595006
               7.38676595                3.33306025               40.22070493                0.03942299                0.05522047                0.22846358                0.51905457               -1.25644431                6.10114240               -6.94367179
               8.39130261                2.86359142               40.06094531                0.00010000                0.99349441               -0.77025518                0.28316978               -3.68082870               13.04492911               -3.15981635
               9.40663584                2.36250839               39.96297086                0.00010000                1.62289216               -1.32125867               -0.38509281               -5.49716606               15.77258174               -0.26498118
              10.42376045                1.85277887               39.85564771                0.00010000                1.61727045               -0.99611273               -0.88655926               -6.06820111               15.39015293                1.52397540
              11.43898125                1.33373744               39.74769975                0.00010000                1.55987284               -0.37550303               -1.35340474               -5.90117436               15.49597896                3.11421957
              12.45495791                0.81159089               39.64020233                0.02562689                1.41069727               -0.16365856               -1.82107327               -4.31079835               13.06999627                5.51609960
              13.46719519                0.30435748               39.48135648                0.19547294                1.04187040               -0.76838856               -2.05614211               -1.77396191                7.78003424                9.22692419
              14.47579532               -0.18961948               39.26495355                0.47744831                0.86692149                0.37060366               -2.60180444               -0.55480289                2.92205126                3.44770539
              15.48453362               -0.67908790               39.00814740                0.85782928                0.87383030                1.51418873               -3.31550362               -0.45544701                0.92459746               -2.18953207
               5.83714614                5.21949920               40.62489819                0.95646608               -0.35457569               -0.59594868                1.60402010               -0.05518133                0.06805330                2.34268084
               6.83360039                4.77879202               40.34456664                0.43752061               -0.29160381               -0.11632695                0.75721762               -0.01306074                0.46378566               -2.19775084
               7.83131407                4.33720977               40.07225602                0.02176709                0.43949022                0.43900000               -0.03509004               -2.07951095               11.10589767               -7.52703088
               8.84239019                3.85256887               40.00486557                0.00010000                1.38462775               -0.75859508               -0.27608330               -4.45143122               21.52736324               -2.48275320
               9.85900662                3.35254264               39.93893288                0.00010000                1.78427136               -0.88305932               -0.61567999               -5.49012825               22.03267262               -0.66294381
              10.87807562                2.84263023               39.87904673                0.00010000                1.98941795               -1.00425425               -0.97537363               -6.03799499               22.42626144                1.53844484
              11.89879498                2.32594735               39.81790852                0.00010000                2.03591841               -0.91855844               -1.28823906               -5.97373107               22.24114071                3.67133785
              12.91879399                1.80767291               39.75112141                0.02938756                2.21168137               -0.82295516               -1.52593010               -5.63876140               22.29414665                5.70198709
              13.94302861                1.28657888               39.68775123                0.19182855                1.86543460               -1.66897023               -1.57354388               -2.74609486               12.34388091               10.05285429
              14.95610268                0.81057995               39.41796672                0.44754205                1.01249661                0.02127098               -2.15596724               -0.20023141                1.08369664                3.37359526
              15.96327854                0.33906507               39.12749752                0.83021621                0.71758628                1.72914559               -2.96971302               -0.10794155                0.06785746               -2.01045994
               6.27489314                6.21399655               40.53714947                0.94085152               -0.26667278               -0.50510345                1.35581549               -0.05198835                0.05234621                2.32778729
               7.27222642                5.77811627               40.23458955                0.41722495               -0.17471280               -0.02568169                0.41820794                0.01533335                0.29977250               -2.08021881
               8.27139889                5.34184025               39.93705045                0.01236252                0.73573484                0.48740308               -0.48223295               -2.72319442               14.94088645               -6.62165717
               9.28694111                4.84841952               39.92726450                0.00010000                1.76865084               -0.24785082               -0.66658018               -5.62849779               29.35659479               -3.57082804
              10.30677190                4.34484721               39.91521901                0.00010000                2.13273642               -0.67934001               -0.87209972               -6.23929490               29.39301824               -0.78800785
              11.32959584                3.83269379               39.90284864                0.00010000                2.38460191               -0.99939970               -1.07254353               -6.58079953               29.52988880                1.54350342
              12.35446394                3.31536627               39.88979664                0.00010000                2.59776545               -1.19929092               -1.23385565               -6.59618180               29.67082822                3.81554987
              13.38155115                2.79513179               39.87626921                0.03542332                2.74511598               -1.40463768               -1.32052158               -6.44402252               29.71304297                6.24704897
              14.40936626                2.27097808               39.85997987                0.19989476                1.88766782               -1.38806829               -1.12492290               -3.31289124               15.66163022                7.70417883
              15.41930451                1.81080594               39.56077546                0.45739448                0.80191444                0.05277825               -1.74750337               -0.16598051                0.80276782                2.58270923
              16.42540455                1.35549501               39.24571434                0.83618120                0.61000448                1.49835298               -2.64330013               -0.02683565                0.03098319               -2.22232421
               6.70786694                7.20939713               40.44987329                0.92702945               -0.18035811               -0.41666299                1.11590812               -0.05092259                0.05031028                2.35507715
               7.70606335                6.77827839               40.12538964                0.40020985               -0.06600017                0.05739172                0.08485180                0.02496032                0.31251424               -2.01220980
               8.70654693                6.34695783               39.80618470                0.00536784                1.03749630                0.54474065               -0.90203343               -3.25688719               18.68587892               -6.31814798
               9.72681328                5.84761185               39.84901871                0.00010000                2.16997647                0.03461512               -1.00658276               -6.64069344               36.81979453               -3.56341334
              10.74994646                5.33895584               39.88885076                0.00010000                2.45636422               -0.50237452               -1.10191443               -7.15756950               36.77840578               -0.93889056
              11.77594057                4.82264224               39.92675741                0.00010000                2.72434420               -1.00175147               -1.17758742               -7.47272551               36.83828133                1.51686841
              12.80443335                4.30196153               39.96331179                0.00010000                2.91805827               -1.39989112               -1.21061545               -7.50957753               36.94013636                3.86471039
              13.83430173                3.77958016               39.99860315                0.04162014                2.83316425               -1.58340998               -1.17011858               -7.35895901               36.44029061                6.06924608
              14.86109663                3.25881752               40.02061618                0.20880435                1.69822035               -1.09690553               -0.65933050               -3.80559209               18.77455077                6.86821166
              15.86826614                2.81163551               39.69780076                0.46884141                0.61335295                0.08574702               -1.35358017               -0.15931991                0.80691761                2.12559313
              16.87336369                2.36903212               39.35912628                0.84320764                0.50975523                1.23001824               -2.33941443               -0.02676663                0.03652866               -2.56617628
               7.13611217                8.20566329               40.36293135                0.91434904               -0.09472446               -0.33083421                0.87879568               -0.05024442                0.05104917                2.36673697
               8.13516492                7.77926411               40.01670597                0.38501899                0.04077590                0.13993663               -0.24550256                0.02875616                0.35734227               -1.96795278
               9.13692768                7.35273507               39.67660422                0.00231045                1.34821553                0.61371683               -1.31482271               -3.70481285               22.41491251               -6.19576227
              10.16212923                6.84911182               39.77129197                0.00010000                2.58312203                0.25480203               -1.32437682               -7.54124073               44.19147004               -3.48379619
              11.18859013                6.33479972               39.86224884                0.00010000                2.75032023               -0.34012492               -1.31688357               -8.08431171               44.11469631               -0.94388798
              12.21713564                5.81265876               39.95047851                0.00010000                2.93721725               -0.96920569               -1.28662935               -8.39519451               44.14218775                1.46093536
              13.24733447                5.28736845               40.03675476                0.00010000                3.01901742               -1.46174926               -1.21631800               -8.40147251               44.18875257                3.81506588
              14.27751599                4.76346359               40.12066714                0.04810558                2.69323001               -1.61444094               -1.07548902               -7.95814941               42.92292900                6.12284272
              15.30119907                4.24903997               40.17680953                0.21806983                1.41937570               -0.89477900               -0.18696809               -4.00419135               21.67656062                6.50825823
              16.30590350                3.81252088               39.83105583                0.48075134                0.44384602                0.07364025               -0.96881332               -0.14122188                0.82959644                1.85208389
              17.31007599                3.38009537               39.46914565                0.85039425                0.41724910                0.99722872               -2.04904581               -0.02764447                0.04549834               -2.77905703
               7.55966042                9.20278044               40.27609536                0.90255973               -0.00937120               -0.24600051                0.64196354               -0.04989108                0.05134163                2.35337453
               8.55956670                8.78107712               39.90828231                0.37121509                0.14712714                0.22350460               -0.57516289                0.02842712                0.41671303               -1.94332201
               9.56260296                8.35923216               39.54773695                0.00208580                1.71785545                0.68501725               -1.72303951               -4.08475762               26.16004399               -6.09753264
              10.59392381                7.85270789               39.69446730                0.00010000                3.10551681                0.41248328               -1.62788702               -8.20250163               51.53505263               -3.31756969
              11.62471330                7.33215334               39.83603070                0.00010000                3.07720648               -0.26511572               -1.51890636               -8.70957573               51.38387932               -0.88938220
              12.65546794                6.80325813               39.97387816                0.00010000                3.04428847               -0.89658393               -1.39664718               -8.90427517               51.41363580                1.34358250
              13.68559907                6.27272655               40.10999721                0.00010000                2.89996403               -1.37316652               -1.24842550               -8.91388487               51.53420367                3.65581382
              14.71346722                5.74729134               40.24446977                0.05493536                2.31782221               -1.56411717               -1.04542803               -8.17810845               49.28450164                6.24670557
              15.73195551                5.24092194               40.33061353                0.22770052                1.04595344               -0.74922526                0.29046847               -4.01381968               24.35779679                6.29644330
              16.73438629                4.81310832               39.96212263                0.49293227                0.28531513                0.03285250               -0.58802777               -0.12481734                0.85062956                1.72129160
              17.73766181                4.38897670               39.57721454                0.85761453                0.32755190                0.78969526               -1.76508532               -0.03032089                0.05421530               -2.85917049
               7.97852099               10.20074328               40.18905330                0.89162121                0.07607573               -0.16181259                0.40361681               -0.04987717                0.06227669                2.33582607
               8.97928174                9.78373420               39.79992855                0.35866289                0.25403893                0.30971003               -0.90543539                0.02080507                0.50780746               -1.96342289
               9.98360177                9.36643541               39.41963735                0.00185036                2.29381403                0.74805123               -2.12739628               -4.45733645               30.00304375               -5.82613700
              11.02515802                8.85736149               39.62000212                0.00010000                4.01233054                0.24607557               -1.91153532               -8.48848660               58.89885676               -2.84014675
              12.06384838                8.32949740               39.81100758                0.00010000                3.66594514               -0.54061726               -1.69919134               -8.30891427               58.49159346               -0.72754322
              13.09847693                7.79472708               39.99613369                0.00010000                3.05875902               -0.78128369               -1.49605532               -8.21129246               58.54838979                1.07686240
              14.12502356                7.25990512               40.18119952                0.00010000                2.36407500               -0.92948919               -1.29821841               -8.42776629               59.01739226                3.09958669
              15.14575843                6.73218124               40.36948733                0.06228880                1.50410734               -1.21430965               -1.08179971               -7.99445525               55.67251770                5.97126859
              16.15510570                6.23405546               40.48274187                0.23781796                0.47969814               -0.62730400                0.77057770               -3.95811569               26.91434052                5.93556759
              17.15535239                5.81317793               40.09227140                0.50538680                0.13135519               -0.02660574               -0.20719488               -0.12376904                0.90820072                1.74194663
              18.15773281                5.39588928               39.68470736                0.86482674                0.23804165                0.60129846               -1.48185259               -0.03437800                0.07836408               -2.83951832
               8.39268104               11.19954419               40.10199922                0.88077569                0.16096394               -0.07859711                0.16501711               -0.04968963               -0.01329595                2.02203174
               9.39429068               10.78727132               39.69088191                0.34673412                0.35739513                0.39842171               -1.23997243               -0.00178505                0.78821515               -1.76633901
              10.39982894               10.37419319               39.29568054                0.00121365                3.34007056                0.77495393               -2.51201675               -5.06225650               34.23033980               -4.34043201
              11.46109209                9.85762940               39.55289830                0.00010000                6.06702408               -1.26952948               -2.15158056               -6.76829026               66.22449640               -1.67037126
              12.52116942                9.32134100               39.78898884                0.00010000                4.98711449               -1.07447357               -1.83948103               -5.70727439               65.15984230               -0.42627190
              13.56083438                8.78763245               40.01550662                0.00010000                2.92100754               -0.63866825               -1.56434932               -5.19836246               65.20759521                0.60667101
              14.57958957                8.25413676               40.24449777                0.00010000                0.92966984               -0.14220768               -1.33093159               -5.78689830               66.40986173                1.84453029
              15.57942778                7.72300515               40.48848431                0.07023294               -0.38965329                0.21596721               -1.17182752               -6.06364360               62.23617462                4.07840577
              16.57179651                7.22837586               40.62934666                0.24851690               -0.46753406               -0.45570680                1.23254537               -3.94813266               29.79937496                4.21860842
              17.57007709                6.81257620               40.22329183                0.51813268               -0.01224774               -0.09767547                0.17975020               -0.15046780                1.23437871                1.61100684
              18.57155155                6.40100267               39.79236289                0.87182166                0.14744584                0.43444124               -1.19670574               -0.04361827                0.01559365               -2.36134842
               8.80207293               12.19917134               40.00878528                0.93722813                0.25241153               -0.03728511               -0.09785465                0.19231853                0.94238383                1.71020804
               9.80459705               11.79170263               39.58618875                0.67027127                0.49628135                0.44313110               -1.55502505                0.16879419                2.60998934               -1.53192783
              10.81199856               11.38193449               39.19678879                0.48907915                6.90236838                0.77413009               -2.78997215               -6.76962517               39.08328892               -3.07033203
              11.94264441               10.83197090               39.50277727                0.44578250               10.38506406               -2.56585015               -2.30757469               -5.54109549               72.75921277               -1.00531009
              13.01969984               10.30800793               39.77193693                0.43550110                5.95347484               -1.33330627               -1.91978384               -2.64781786               70.90288842               -0.30778558
              14.06171391                9.78195371               40.03016553                0.44689262                2.71065271               -0.56787391               -1.58133593               -2.45939527               70.94521823                0.26694894
              15.07391289                9.25706097               40.29194994                0.47917548               -0.57337237                0.29242022               -1.29903469               -2.84032438               72.58192261                0.97110570
              16.05024646                8.73650059               40.57645483                0.53788148               -4.36704475                1.34954381               -1.15475828               -4.52411332               68.25866605                2.50503018
              16.98657200                8.22494133               40.74693131                0.62806150               -3.52651200               -0.34345301                1.55853043               -4.78625936               34.06684176                2.80783834
              17.97971622                7.81122442               40.35040463                0.76352773               -0.32822453               -0.13517801                0.54944003               -0.05424831                3.43285653                1.43504322
              18.98000751                7.40457811               39.90870413                0.93822304                0.02912844                0.35754365               -0.87440942                0.18096374                1.19699475               -1.89416231
               4.71383626                2.35313605               41.91433933                1.00000000               -0.66691182               -0.73097962                2.44408836               -0.13149467               -1.75746944                1.93923578
               5.70716714                1.87855089               41.67741355                0.90038661               -0.64663856               -0.48123173                1.82738745               -0.09804946               -2.16956711               -0.73418208
               6.70090349                1.40190170               41.43245625                0.62775963               -0.88715363               -0.25661301                1.12750921               -0.49903867               -1.91176626               -1.16934321
               7.68942407                0.91207392               41.20103955                0.50554791               -1.30463359               -0.13230282                0.48441718               -0.68057062                0.09811165               -0.20875189
               8.67481081                0.39614748               40.99704019                0.45469867               -1.24031928                0.06837475               -0.19763884               -0.60394082                2.55990490               -0.17905518
               9.66461768               -0.14812156               40.81553718                0.45630880               -0.40030347                0.26075794               -0.92462115               -0.34208005                3.71879389                0.01941888
              10.66680475               -0.70588178               40.63501467                0.50611674                0.67910228                0.45300513               -1.62693706               -0.34664235                2.68228314                0.19785316
              11.67819973               -1.25736715               40.43260256                0.61150503                1.23194700                0.63768905               -2.25565643               -0.42393072                0.43449134                0.31175156
              12.69144369               -1.79493737               40.20635779                0.79176347                1.25751531                0.79221345               -2.84050433               -0.33882180               -1.61631319                0.52284213
              13.70335003               -2.32205392               39.96182725                1.00000000                1.17685888                0.95152453               -3.43813056               -0.16593957               -2.06128240                1.08957715
              14.71498086               -2.84548082               39.72587483                1.00000000                1.16308296                1.19978656               -4.04754560               -0.15837392               -1.61809731               -1.52530575
               5.18710647                3.34582625               41.81892603                1.00000000               -0.53026479               -0.71927351                2.16510190               -0.04704921                0.28870316                2.29554640
               6.18180382                2.87373858               41.57888843                0.63426690               -0.39774404               -0.40883275                1.50378835               -0.05178082                1.00588673               -1.38938047
               7.17915159                2.39933557               41.35332171                0.15039081                0.18458257               -0.09483138                0.98353474               -0.73968602                3.14640957               -3.58583353
               8.18549547                1.91075090               41.15590284                0.00698728                0.98587806               -0.31848648                0.41343950               -1.87673385                5.54970400               -2.56004955
               9.19886915                1.39683123               40.97751294                0.01030604                1.33580210               -0.80598905               -0.19047382               -3.01817958                7.81881592               -0.12915995
              10.21221151                0.85448602               40.82422584                0.01323435                0.95459852               -0.37110228               -0.85855975               -3.69252138                9.22782321                0.70419358
              11.21796112                0.29864827               40.67252696                0.01274419                0.31383507                0.24060152               -1.50781947               -3.34952680                8.27807577                1.39727305
              12.21848821               -0.25099026               40.49872968                0.12856945                0.12188688                0.36034238               -2.07520756               -2.07174858                6.08085092                3.16282208
              13.22039885               -0.78701523               40.30200174                0.39316725                0.42370750                0.51282941               -2.60508582               -0.83563988                4.20701433                3.68335038
              14.22696236               -1.31253868               40.09015207                0.82747771                0.82125812                0.84054695               -3.11683894               -0.22659695                2.29243177                2.10737806
              15.23682402               -1.83348295               39.85489051                1.00000000                0.98616539                1.22441815               -3.68206568               -0.13028184                1.13660586               -1.97848911
               5.65707063                4.33875058               41.73088703                0.96835986               -0.44484221               -0.68407379                1.88370205               -0.07379802                0.27972853                2.56430589
               6.65262220                3.87037424               41.46732130                0.45761660               -0.39865890               -0.24813327                1.13000371               -0.08809915                1.37922449               -2.21951954
               7.64909745                3.40000508               41.22586900                0.03593082                0.08857633                0.25965281                0.51247181               -1.36831547                6.43956235               -7.30683387
               8.65439373                2.90570419               41.06368790                0.00010000                1.08073239               -0.79000414                0.26125409               -3.84831976               13.34497013               -3.46210598
               9.67071210                2.38002770               40.95885664                0.00010000                1.72782405               -1.35015066               -0.43915452               -5.68684156               15.92272069               -0.50406950
              10.68895021                1.84445640               40.84641979                0.00010000                1.72891964               -1.01735433               -0.96135528               -6.31800443               15.63345061                1.36705300
              11.70529049                1.29893025               40.73372319                0.00010000                1.67390239               -0.38056588               -1.44505417               -6.16739894               15.74812154                3.05888191
              12.72242826                0.74983970               40.62145913                0.02217150                1.54944094               -0.16178389               -1.93005641               -4.56186386               13.43481099                5.57017659
              13.73627931                0.21531922               40.46035467                0.18753989                1.14287776               -0.81734397               -2.14609248               -1.92134117                8.12040282                9.44531617
              14.74528582               -0.30524298               40.23852169                0.46044226                0.89922324                0.36690214               -2.68908844               -0.60843518                3.01998313                3.57186680
              15.75426377               -0.82099245               39.97462119                0.84517059                0.89779577                1.58250616               -3.39594045               -0.49188060                0.94343022               -2.25678950
               6.12238319                5.33214478               41.64110722                0.94393038               -0.35958462               -0.61344630                1.63655846               -0.05692801                0.06589689                2.43633090
               7.11878734                4.86877591               41.35216860                0.42377900               -0.29639321               -0.11219521                0.76177821               -0.01347196                0.48977828               -2.30555381
               8.11645532                4.40452863               41.07180382                0.01852243                0.48595533                0.47102474               -0.05668689               -2.18778302               11.43463117               -7.88256762
               9.12850645                3.89495081               41.00184522                0.00010000                1.49623951               -0.73332162               -0.32929193               -4.65112307               22.07386570               -2.89757260
              10.14638011                3.36982822               40.93242819                0.00010000                1.92212135               -0.89757194               -0.68771486               -5.70078635               22.51276977               -0.90957608
              11.16694887                2.83413894               40.86885837                0.00010000                2.14248618               -1.02142922               -1.06546000               -6.27919804               22.91085222                1.38110736
              12.18922984                2.29103696               40.80453106                0.00010000                2.19565458               -0.93322670               -1.39132016               -6.23415539               22.77993821                3.61017029
              13.21086197                1.74577406               40.73534972                0.02590257                2.39124394               -0.84193899               -1.63393035               -5.93844954               22.95564673                5.77555048
              14.23705472                1.19663789               40.67135374                0.18420213                2.01216855               -1.74213755               -1.71241122               -2.95477689               12.83080568               10.28023780
              15.25110534                0.69479936               40.39594482                0.43221657                1.07153146                0.01838997               -2.25138072               -0.24120611                1.20031830                3.48459021
              16.25848534                0.19816717               40.09736085                0.81914191                0.73800074                1.82061422               -3.06305368               -0.11320103                0.06530455               -2.07716464
               6.58266980                6.32648165               41.55086133                0.92865137               -0.27008842               -0.51979463                1.38650429               -0.05361010                0.05323023                2.42499289
               7.57996891                5.86813034               41.23876226                0.40388843               -0.17514553               -0.02264326                0.41579671                0.01748335                0.31985672               -2.17399891
               8.57916689                5.40942557               40.93206337                0.00928466                0.80513831                0.51187024               -0.51562049               -2.83969435               15.33830741               -6.90908035
               9.59607168                4.89103776               40.92027091                0.00010000                1.91706794               -0.22818092               -0.73354331               -5.85299321               30.09368299               -3.86400539
              10.61750825                4.36207626               40.90607327                0.00010000                2.30429168               -0.68381426               -0.95976188               -6.47302506               30.11491328               -1.02688192
              11.64215751                3.82402781               40.89163462                0.00010000                2.57320028               -1.01764506               -1.17431051               -6.83240949               30.26545283                1.38573023
              12.66897225                3.28026572               40.87693866                0.00010000                2.79504106               -1.22113806               -1.34323442               -6.86885862               30.45542848                3.73970474
              13.69805834                2.73300092               40.86254194                0.03172769                2.95931088               -1.42619943               -1.43198687               -6.78388882               30.65709381                6.25480805
              14.72815847                2.18047647               40.84802486                0.19209349                2.04370379               -1.43174752               -1.27510956               -3.53993973               16.33785181                7.94492290
              15.73893241                1.69512481               40.54283777                0.44186998                0.85528342                0.06829269               -1.84225464               -0.20758115                0.94978158                2.67006811
              16.74526414                1.21541983               40.21880941                0.82501926                0.63317274                1.57150507               -2.74225125               -0.02706844                0.03405426               -2.31765226
               7.03801362                7.32174889               41.46116692                0.91522153               -0.18205300               -0.42876625                1.14359128               -0.05237523                0.05136555                2.45718594
               8.03619309                6.86832305               41.12618103                0.38733576               -0.06298056                0.06143835                0.07330217                0.02881878                0.33672268               -2.10269295
               9.03675401                6.41476603               40.79693606                0.00266198                1.13013987                0.56682628               -0.94855952               -3.38445545               19.17593547               -6.58904418
              10.05879589                5.89038719               40.83856928                0.00010000                2.35877753                0.04756166               -1.08494629               -6.89383144               37.74874570               -3.81513210
              11.08392956                5.35615193               40.87735461                0.00010000                2.66576709               -0.50877095               -1.20053308               -7.42114443               37.71515190               -1.14858854
              12.11211123                4.81378603               40.91445831                0.00010000                2.94749982               -1.02445490               -1.28694055               -7.74481648               37.79837115                1.36245722
              13.14287956                4.26661419               40.95068351                0.00010000                3.14311027               -1.42786086               -1.32135099               -7.79688292               37.95049532                3.76924204
              14.17497344                3.71725008               40.98643214                0.03778362                3.06262342               -1.60123372               -1.27233095               -7.72799688               37.69967977                6.03403355
              15.20413203                3.16800294               41.01333338                0.20074230                1.85184597               -1.12092225               -0.80745449               -4.05514001               19.66692297                7.13008821
              16.21201036                2.69616522               40.68382160                0.45300858                0.66109594                0.10882840               -1.44528405               -0.19473913                0.96834412                2.20113448
              17.21735394                2.22959727               40.33523994                0.83185141                0.53435886                1.28882711               -2.44287316               -0.02637495                0.04207701               -2.68432337
               7.48847397                8.31790633               41.37183452                0.90285024               -0.09458295               -0.34066864                0.90269204               -0.05153776                0.05235630                2.46943267
               8.48752814                7.86935910               41.01414628                0.37259550                0.04698305                0.14641212               -0.26664063                0.03331263                0.38772990               -2.05718716
               9.48941363                7.42076210               40.66316284                0.00225116                1.46405056                0.63677081               -1.37383526               -3.84592458               23.00744410               -6.46162006
              10.51680915                6.89198899               40.75761413                0.00010000                2.81364433                0.26203947               -1.41333091               -7.82369786               45.31716894               -3.71334542
              11.54568652                6.35190085               40.84856337                0.00010000                2.99948852               -0.35577465               -1.42375734               -8.37581929               45.25468478               -1.13202668
              12.57679892                5.80353871               40.93707100                0.00010000                3.19420169               -1.00247020               -1.39978935               -8.68541959               45.30739338                1.31439130
              13.60957055                5.25170850               41.02409046                0.00010000                3.26553650               -1.49864484               -1.32290246               -8.69345628               45.40358496                3.70373223
              14.64210965                4.70097625               41.10953070                0.04408137                2.92849873               -1.63209321               -1.15977153               -8.33677440               44.52026976                6.03794357
              15.66814053                4.15805803               41.17430068                0.20973039                1.56668208               -0.90650944               -0.32663526               -4.26160027               22.81126245                6.78100699
              16.67344329                3.69730138               40.82094936                0.46452152                0.48660017                0.09898029               -1.05669670               -0.16879468                0.99720826                1.92188141
              17.67787253                3.24119637               40.44815119                0.83882725                0.44292357                1.04732505               -2.15564788               -0.02645175                0.05292180               -2.90911392
               7.93407732                9.31493551               41.28261051                0.89138058               -0.00737414               -0.25391511                0.66197264               -0.05108565                0.05289180                2.45457104
               8.93400358                8.87125129               40.90237866                0.35922536                0.15641540                0.23298109               -0.60601901                0.03289776                0.45515578               -2.03275646
               9.93720563                8.42750145               40.53015213                0.00202862                1.85898022                0.71032060               -1.79482540               -4.24424331               26.86160293               -6.35895528
              10.97118318                7.89562798               40.67770629                0.00010000                3.38289140                0.41063951               -1.72663060               -8.51478858               52.86164002               -3.52687979
              12.00486345                7.34903644               40.82029331                0.00010000                3.37060007               -0.29898380               -1.63219631               -9.01997825               52.71980997               -1.05338878
              13.03859518                6.79373663               40.95936242                0.00010000                3.33547231               -0.94771941               -1.51112164               -9.19437492               52.76520113                1.21144265
              14.07157290                6.23664130               41.09704076                0.00010000                3.16466197               -1.42206061               -1.34811156               -9.18868257               52.92385968                3.53329304
              15.10188842                5.68460821               41.23373180                0.05075083                2.55009906               -1.58938060               -1.10829244               -8.54047594               51.23784054                6.10381269
              16.12257488                5.14987275               41.33293971                0.21909431                1.18038469               -0.75207096                0.16272562               -4.26870424               25.76725179                6.57649478
              17.12549612                4.69814482               40.95585228                0.47630716                0.32300237                0.05784888               -0.67106241               -0.14594306                1.02031552                1.79109834
              18.12903493                4.25054377               40.55905244                0.84580851                0.35388131                0.83368627               -1.87395122               -0.02873310                0.06327333               -2.99226894
               8.37482070               10.31282803               41.19316552                0.88076847                0.07994548               -0.16808669                0.41958525               -0.05102756                0.06430773                2.43538281
               9.37562016                9.87401872               40.79067550                0.34717170                0.26656837                0.32232622               -0.94579369                0.02396352                0.55648862               -2.05512932
              10.38015207                9.43496851               40.39795113                0.00179456                2.46791159                0.77378501               -2.21101745               -4.64411489               30.82344540               -6.07467692
              11.42497839                8.90020178               40.60036108                0.00010000                4.35131177                0.21878837               -2.01898571               -8.82924298               60.43372958               -3.01514191
              12.46717831                8.34592117               40.79344022                0.00010000                4.01640881               -0.61097173               -1.81773838               -8.60567360               60.01629967               -0.85484695
              13.50530657                7.78458433               40.98061640                0.00010000                3.38735060               -0.85630632               -1.61124558               -8.46124755               60.06340604                0.97325182
              14.53492532                7.22326729               41.16776872                0.00010000                2.63810573               -0.99007227               -1.39139805               -8.64607330               60.54038463                2.98430679
              15.55806868                6.66918863               41.35844205                0.05784230                1.71522552               -1.24878760               -1.12862772               -8.29758304               57.99373534                5.77303911
              16.56922983                6.14301661               41.48993964                0.22891145                0.58923642               -0.62087297                0.65660166               -4.20217155               28.63560215                6.21114944
              17.56985341                5.69845836               41.08983914                0.48837994                0.16350699               -0.00323879               -0.28453454               -0.14148550                1.07881988                1.81772445
              18.57249997                5.25787010               40.66937162                0.85278214                0.26465592                0.64061168               -1.59192065               -0.03291976                0.08914697               -2.96971506
               8.81067537               11.31157378               41.10370604                0.87019690                0.16669946               -0.08338931                0.17709683               -0.05081887               -0.01561677                2.10847832
               9.81234237               10.87769781               40.67823793                0.33570097                0.37324485                0.41400327               -1.28971809               -0.00291339                0.85678296               -1.84967764
              10.81814027               10.44297715               40.27010198                0.00117599                3.56516469                0.79529764               -2.60503787               -5.29118010               35.19309613               -4.52429971
              11.88364566                9.90000375               40.53082044                0.00010000                6.51135860               -1.38251806               -2.26615504               -7.05765885               67.97394380               -1.77823813
              12.94836744                9.33681701               40.76999269                0.00010000                5.41892260               -1.18535319               -1.96292264               -5.91464339               66.85791578               -0.49708656
              13.99202411                8.77661050               40.99929267                0.00010000                3.28398436               -0.73388511               -1.68146918               -5.34536154               66.86439546                0.54975615
              15.01404713                8.21683985               41.23073746                0.00010000                1.20816654               -0.21559911               -1.42230842               -5.90476812               68.01293341                1.77172990
              16.01618744                7.65963246               41.47653871                0.06564637               -0.23927023                0.18327576               -1.21260866               -6.24397490               64.90547824                3.90833360
              17.00926172                7.13745529               41.64123197                0.23932155               -0.41872635               -0.42775513                1.13239259               -4.15541628               31.86551134                4.41792237
              18.00781292                6.69808005               41.22476114                0.50070646                0.01456676               -0.07610284                0.10901620               -0.16988925                1.41622953                1.68390110
              19.00955306                6.26335601               40.77987447                0.85953053                0.17401426                0.47036810               -1.30733945               -0.04299787                0.02386789               -2.46818831
               9.24155626               12.31116024               41.00783943                0.93205094                0.26022630               -0.04135383               -0.09064160                0.20194342                0.97953099                1.78379974
              10.24415852               11.88229879               40.57035518                0.66491630                0.52331379                0.46009760               -1.61264660                0.16732632                2.76418766               -1.60464550
              11.25202253               11.45087446               40.16840610                0.48809164                7.29134194                0.78973101               -2.88732525               -7.09914196               40.22307436               -3.20212434
              12.38998536               10.87255142               40.47911301                0.44583047               11.01280770               -2.74523275               -2.42733622               -5.79904791               74.67952968               -1.05935653
              13.47227869               10.32221411               40.75210927                0.43563064                6.41955652               -1.46028998               -2.04861480               -2.74111538               72.73844370               -0.34134739
              14.51837649                9.76990662               41.01375332                0.44666002                3.07646570               -0.67038793               -1.70368543               -2.52770227               72.72803309                0.23959312
              15.53380800                9.21895531               41.27847737                0.47820379               -0.29013720                0.21154545               -1.39538880               -2.87653655               74.27603588                0.93112560
              16.51257374                8.67285415               41.56464243                0.53554439               -4.30670429                1.32216886               -1.19987427               -4.58605989               71.15448663                2.37713892
              17.44767391                8.13446151               41.76207821                0.62339355               -3.60094183               -0.29937858                1.45974491               -4.95467311               36.42433291                2.94524009
              18.44055491                7.69693630               41.35559314                0.75469276               -0.32929106               -0.11437451                0.48387558               -0.08500302                3.71596470                1.50180272
              19.44108809                7.26727746               40.89944470                0.93197782                0.05331852                0.39214524               -0.98321325                0.18761916                1.25838405               -1.97836279
               4.93611056                2.46964085               42.93897243                1.00000000               -0.67769026               -0.74294785                2.48357921               -0.13675493               -1.78898551                2.00116325
               5.92933366                1.97095706               42.69579605                0.89021131               -0.66104839               -0.48410846                1.85114343               -0.10504147               -2.24479961               -0.81477270
               6.92288959                1.47008689               42.44374244                0.62354645               -0.91451457               -0.25758060                1.13144870               -0.51549991               -2.00169448               -1.16218777
               7.91104336                0.95541555               42.20580667                0.50424902               -1.33869192               -0.12909269                0.46964606               -0.69245712                0.01881766               -0.22107721
               8.89611575                0.41380896               41.99487183                0.45443130               -1.26327563                0.07592057               -0.23631603               -0.61158964                2.44187839               -0.18709439
               9.88577785               -0.15696617               41.80598220                0.45593106               -0.40494552                0.27199203               -0.98697357               -0.34744024                3.59039524                0.01468001
              10.88801684               -0.74200641               41.61833441                0.50474074                0.69875657                0.47007600               -1.71063520               -0.34707868                2.59473590                0.19778947
              11.89975298               -1.32125039               41.40957149                0.60802209                1.27816534                0.65963418               -2.35342028               -0.42682772                0.39836942                0.31644461
              12.91358015               -1.88658148               41.17751137                0.78427099                1.30918441                0.81982589               -2.94313352               -0.34595062               -1.62889607                0.51304584
              13.92593667               -2.44103985               40.92720692                1.00000000                1.20581297                0.96608513               -3.49772481               -0.17376821               -2.07072905                1.08614116
              14.93769641               -2.99160993               40.68523731                1.00000000                1.17597364                1.20750827               -4.09248934               -0.15606111               -1.62189729               -1.54257604
               5.43342679                3.46221137               42.84074821                1.00000000               -0.53665728               -0.73101983                2.19729140               -0.04964474                0.30595474                2.35805580
               6.42806022                2.96611598               42.59399395                0.61694433               -0.39607242               -0.40924016                1.51607929               -0.06166110                1.09741409               -1.49410485
               7.42550535                2.46751108               42.36318265                0.14444451                0.20987681               -0.08227079                0.98928780               -0.78451727                3.28381916               -3.74689195
               8.43225776                1.95412463               42.15997147                0.00707592                1.03426854               -0.35043138                0.40061675               -1.93859544                5.63446470               -2.61552252
               9.44619072                1.41456816               41.97543924                0.01026130                1.39766889               -0.81485975               -0.22398986               -3.10641293                7.83886019               -0.26894601
              10.46021114                0.84575375               41.81535280                0.01312302                1.02487236               -0.37732163               -0.91517425               -3.80443797                9.20801577                0.61340412
              11.46668816                0.26269435               41.65704476                0.01285240                0.37805508                0.24586960               -1.58737415               -3.47601525                8.30017003                1.36965722
              12.46777224               -0.31465404               41.47749419                0.12332842                0.16636059                0.38123812               -2.17163355               -2.19039449                6.16684632                3.15084353
              13.47001538               -0.87838322               41.27548883                0.38168074                0.44704902                0.52466393               -2.70554054               -0.88822072                4.33433617                3.79197482
              14.47671322               -1.43137900               41.05867802                0.80470650                0.83452505                0.85324801               -3.18378136               -0.25799209                2.40542984                2.16441818
              15.48670588               -1.97953485               40.81782222                1.00000000                0.99926591                1.24579490               -3.73880137               -0.14024373                1.22642323               -2.02799943
               5.92730845                4.45502045               42.74987828                0.95553298               -0.45077240               -0.69799245                1.91190410               -0.07909197                0.30092183                2.64784772
               6.92280072                3.96277226               42.47866542                0.44334693               -0.40589249               -0.24379910                1.13625920               -0.09699205                1.47116830               -2.34428186
               7.91919060                3.46844147               42.23095437                0.03234575                0.12068253                0.29264798                0.50314675               -1.47703064                6.78456848               -7.68382144
               8.92521437                2.94840692               42.06617039                0.00010000                1.15838859               -0.80451091                0.23224315               -3.99721636               13.64011804               -3.78549307
               9.94235837                2.39751176               41.95418777                0.00010000                1.81742686               -1.37168396               -0.49575372               -5.84306853               16.06509555               -0.76952258
              10.96156291                1.83548740               41.83642060                0.00010000                1.82729825               -1.03581028               -1.03919107               -6.53110657               15.87104912                1.18666741
              11.97890433                1.26291098               41.71879867                0.00010000                1.77298732               -0.38795277               -1.54028990               -6.39493965               15.99185325                2.98622531
              12.99702266                0.68637438               41.60160121                0.01866178                1.68181790               -0.16224194               -2.04172302               -4.78435854               13.80193696                5.61551254
              14.01254069                0.12391180               41.43843463                0.17955815                1.24529029               -0.85516690               -2.23487286               -2.06575078                8.46109280                9.64563407
              15.02192846               -0.42397489               41.21117178                0.44350950                0.93312694                0.36673360               -2.78341485               -0.66085588                3.11038342                3.69925542
              16.03120323               -0.96669403               40.94022859                0.83269708                0.92747678                1.64341976               -3.49548851               -0.51957960                0.95815769               -2.32476659
               6.41634134                5.44825152               42.65762936                0.93130167               -0.36419779               -0.62918663                1.66814422               -0.05878054                0.06299923                2.53832745
               7.41269936                4.96123999               42.35980220                0.40989405               -0.30056361               -0.10742002                0.76392353               -0.01333489                0.51563244               -2.41589315
               8.41033007                4.47336404               42.07112228                0.01520325                0.52718889                0.50424689               -0.08090666               -2.28698998               11.76255191               -8.25356548
               9.42324314                3.93803441               41.99827973                0.00010000                1.59594032               -0.69957819               -0.38491538               -4.83195275               22.62150915               -3.33744299
              10.44224887                3.38713448               41.92517858                0.00010000                2.04733252               -0.90643107               -0.76415484               -5.88243851               22.99694627               -1.18031733
              11.46418979                2.82503755               41.85773753                0.00010000                2.28267603               -1.03394739               -1.16110443               -6.48612968               23.39829351                1.20195736
              12.48790239                2.25493529               41.79008212                0.00010000                2.34472263               -0.94515298               -1.50154268               -6.45877832               23.32301431                3.53255434
              13.51108424                1.68210112               41.71844281                0.02233439                2.55736176               -0.86144215               -1.75129287               -6.19188378               23.60665988                5.84320426
              14.53904963                1.10451344               41.65350300                0.17655524                2.15088476               -1.80074545               -1.86081684               -3.14293336               13.32408407               10.48203797
              15.55410194                0.57595567               41.37293911                0.41690892                1.13514698                0.01527064               -2.34730007               -0.27963874                1.33731336                3.60437742
              16.56175257                0.05333355               41.06623645                0.80813821                0.76506316                1.89784551               -3.16628443               -0.11525666                0.06396414               -2.14715277
               6.90015588                6.44243672               42.56487956                0.91645857               -0.27343802               -0.53419354                1.41836182               -0.05505220                0.05386289                2.52892999
               7.89742150                5.96062386               42.24290549                0.39047230               -0.17497501               -0.01997444                0.41237097                0.02095003                0.34079259               -2.27327401
               8.89665638                5.47852641               41.92673804                0.00613755                0.86916849                0.53567187               -0.55128824               -2.94305807               15.73695910               -7.21256159
               9.91480487                4.93441536               41.91259364                0.00010000                2.05250379               -0.20342075               -0.80341792               -6.05083848               30.83411722               -4.17501642
              10.93770646                4.37938314               41.89602377                0.00010000                2.46173182               -0.68202590               -1.05285466               -6.67476581               30.84614474               -1.28636743
              11.96403951                3.81480845               41.87936243                0.00010000                2.74793681               -1.02912691               -1.28413531               -7.04929589               31.01236277                1.20970060
              12.99266520                3.24400792               41.86293195                0.00010000                2.97836581               -1.23703564               -1.46363117               -7.10479433               31.25230313                3.65193532
              14.02360683                2.66914553               41.84762947                0.02802976                3.15811371               -1.44145249               -1.55800125               -7.07749074               31.59214168                6.26112441
              15.05582747                2.08789689               41.83447767                0.18424587                2.19543801               -1.46849910               -1.44110087               -3.74095073               17.03082187                8.18725768
              16.06751559                1.57633052               41.52393037                0.42631390                0.91574383                0.07954703               -1.93990045               -0.25047444                1.13140788                2.76239595
              17.07414235                1.07126288               41.19086932                0.81389084                0.66267601                1.63351678               -2.85198469               -0.02596526                0.03906040               -2.42136810
               7.37886601                7.43756765               42.47274512                0.90341420               -0.18373431               -0.44141797                1.17313783               -0.05371972                0.05223681                2.56462235
               8.37702867                6.96084051               42.12685568                0.37446562               -0.05943062                0.06494385                0.06113361                0.03397647                0.36282819               -2.20038732
               9.37767740                6.48407748               41.78721351                0.00258583                1.21704826                0.58800934               -0.99694835               -3.49610861               19.67203011               -6.87658726
              10.40136964                5.93396599               41.82731979                0.00010000                2.53415328                0.06462708               -1.16711945               -7.11581536               38.68722486               -4.08330636
              11.42836047                5.37349397               41.86484010                0.00010000                2.86047291               -0.50813273               -1.30593363               -7.64952474               38.66742255               -1.37484290
              12.45857909                4.80445501               41.90101860                0.00010000                3.15544787               -1.03829895               -1.40630367               -7.97912373               38.77854968                1.19484479
              13.49146942                4.23019458               41.93688477                0.00010000                3.35331785               -1.44610354               -1.44582630               -8.04508364               38.98537201                3.66858230
              14.52564545                3.65327207               41.97315654                0.03387893                3.27881013               -1.61113711               -1.39262529               -8.04733910               38.95672410                6.00929695
              15.55704563                3.07514346               42.00446709                0.19264335                2.00405072               -1.14215544               -0.97644326               -4.27736297               20.58042085                7.40288567
              16.56572647                2.57754661               41.66889508                0.43721335                0.71614625                0.12986550               -1.54301899               -0.23290064                1.16907194                2.27870108
              17.57136855                2.08600388               41.31026882                0.82053943                0.56420865                1.34188605               -2.55777003               -0.02485215                0.04948354               -2.81398033
               7.85253577                8.43360836               42.38098519                0.89132577               -0.09445698               -0.35133920                0.92862910               -0.05276621                0.05382569                2.57683872
               8.85159120                7.96192273               42.01137315                0.36014040                0.05364752                0.15261367               -0.28858604                0.03888837                0.42219948               -2.15375202
               9.85360872                7.49028659               41.64912752                0.00218250                1.57404366                0.65936446               -1.43461825               -3.96924190               23.61148701               -6.74301376
              10.88307208                6.93570790               41.74302535                0.00010000                3.03091124                0.27286724               -1.50700207               -8.07101587               46.45949234               -3.95789395
              11.91422695                6.36922049               41.83377370                0.00010000                3.23421730               -0.36426231               -1.53839380               -8.62862668               46.41835998               -1.33296470
              12.94775642                5.79404247               41.92248272                0.00010000                3.43597571               -1.02567162               -1.52397719               -8.93446049               46.50331279                1.16000796
              13.98294646                5.21508585               42.01029671                0.00010000                3.49773675               -1.52402168               -1.44411263               -8.94411154               46.65848123                3.59407886
              15.01771116                4.63692279               42.09747170                0.04002846                3.15296012               -1.64079110               -1.26319419               -8.66762147               46.12178244                5.97190645
              16.04600567                4.06505378               42.17027683                0.20136539                1.71429981               -0.91652988               -0.49111443               -4.49302589               23.96592429                7.06902788
              17.05199715                3.57892783               41.80992189                0.44837963                0.53625485                0.12469432               -1.15306024               -0.19998905                1.20581666                1.99306268
              18.05673076                3.09810060               41.42603269                0.82732439                0.47336083                1.09535034               -2.27495365               -0.02480298                0.06241736               -3.05109278
               8.32118194                9.43054086               42.28933481                0.88018013               -0.00537347               -0.26264753                0.68390359               -0.05223752                0.05444330                2.56033197
               9.32112820                8.96389278               41.89616193                0.34723388                0.16627297                0.24248057               -0.63803357                0.03793027                0.49899433               -2.12913455
              10.32450740                8.49726477               41.51184045                0.00196117                1.99436128                0.73527115               -1.86865763               -4.38465390               27.58069047               -6.63556735
              11.36101543                7.93942334               41.65993469                0.00010000                3.64729847                0.41182965               -1.83051439               -8.78922977               54.21351768               -3.74887224
              12.39745336                7.36620872               41.80338677                0.00010000                3.65045481               -0.32596989               -1.75362715               -9.28948299               54.08860350               -1.22652019
              13.43402452                6.78394158               41.94365573                0.00010000                3.61267548               -0.98903055               -1.63649720               -9.44172259               54.15924776                1.07607048
              14.46970687                6.19971414               42.08303498                0.00010000                3.41502804               -1.45956451               -1.46097244               -9.42130997               54.37045273                3.41718116
              15.50232508                5.62045624               42.22230392                0.04646212                2.77365978               -1.60438362               -1.18775367               -8.85751139               53.20287972                5.98263271
              16.52518007                5.05681287               42.33386805                0.21044063                1.31773940               -0.75337970                0.00789112               -4.50003777               27.19385088                6.87447062
              17.52867987                4.58004050               41.94870138                0.45979246                0.36734444                0.08478653               -0.76458150               -0.17011598                1.23064049                1.86331757
              18.53252696                4.10791089               41.53973551                0.83407765                0.38470865                0.87861765               -1.99666845               -0.02695967                0.07410542               -3.13659665
               8.78478719               10.42835541               42.19744501                0.86985638                0.08387141               -0.17505079                0.43720722               -0.05215722                0.06650305                2.53954396
               9.78562591                9.96677235               41.78101267                0.33566004                0.27989474                0.33526569               -0.98770926                0.02694017                0.61229370               -2.15335983
              10.79038509                9.50499202               41.37541700                0.00172796                2.63588107                0.79937327               -2.29653166               -4.81134463               31.66765909               -6.33672968
              11.83834353                8.94394450               41.57962240                0.00010000                4.67669817                0.19446892               -2.13160604               -9.13130499               62.00235513               -3.19992076
              12.88391905                8.36270109               41.77465281                0.00010000                4.35365093               -0.67392552               -1.94422428               -8.86402447               61.58270721               -0.98786069
              13.92541655                7.77426186               41.96390878                0.00010000                3.70432714               -0.92254584               -1.73610996               -8.67267658               61.63184199                0.86956115
              14.95800559                7.18589456               42.15337155                0.00010000                2.90228308               -1.04257141               -1.49489149               -8.82657064               62.13563143                2.87680710
              15.98346221                6.60483512               42.34691478                0.05337280                1.92075317               -1.27423993               -1.18256123               -8.55953114               60.33555602                5.59285365
              16.99642066                6.04998619               42.49587390                0.21993445                0.70173015               -0.61085631                0.51482229               -4.42536601               30.37341649                6.50601377
              17.99749681                5.58062356               42.08658071                0.47145400                0.20150651                0.02298640               -0.37319581               -0.16169636                1.28972614                1.89738813
              19.00045079                5.11567295               41.65286895                0.84083056                0.29539761                0.68274651               -1.71616207               -0.03129649                0.10199385               -3.10970293
               9.24330491               11.42703985               42.10554116                0.85958472                0.17254802               -0.08874317                0.19068825               -0.05193191               -0.01813661                2.19919159
              10.24503039               10.97059809               41.66508755                0.32464526                0.39017195                0.43014463               -1.34150360               -0.00496938                0.93507827               -1.93847580
              11.25110835               10.51325223               41.24357979                0.00113076                3.78249310                0.81458782               -2.69996639               -5.49841257               36.18653261               -4.71750005
              12.32068026                9.94331272               41.50757520                0.00010000                6.93735787               -1.48729251               -2.38558087               -7.31668621               69.76410690               -1.89228942
              13.38985551                9.35273021               41.74973038                0.00010000                5.83486335               -1.28766363               -2.09374513               -6.09563537               68.60372784               -0.57037817
              14.43737752                8.76549066               41.98187724                0.00010000                3.63733465               -0.82187870               -1.80670832               -5.46887805               68.58193146                0.49391446
              15.46260220                8.17886272               42.21605161                0.00010000                1.48326521               -0.28454503               -1.51966459               -5.99901550               69.69845509                1.70423549
              16.46704283                7.59497145               42.46423213                0.06095418               -0.08589481                0.15004050               -1.24949974               -6.39969172               67.60542004                3.74851516
              17.46088431                7.04459574               42.65199451                0.23006125               -0.36418208               -0.39162725                1.00484752               -4.33919669               33.95316189                4.63238764
              18.45975919                6.58050023               42.22547216                0.48338572                0.04589716               -0.05135440                0.02725230               -0.19288555                1.63820511                1.76131103
              19.46180225                6.12156582               41.76621610                0.84730199                0.20430648                0.50987134               -1.43166249               -0.04237724                0.03403844               -2.58252266
               9.69663207               12.42658054               42.00697245                0.92685582                0.26820705               -0.04593045               -0.08210543                0.21218473                1.01871218                1.86113057
              10.69931414               11.97537524               41.55393582                0.65950793                0.55350739                0.47771458               -1.67244992                0.16353577                2.93395331               -1.68179245
              11.70770221               11.52128377               41.13904229                0.48707375                7.66088454                0.80315423               -2.98586805               -7.39944354               41.40084643               -3.34057977
              12.85253183               10.91419865               41.45423054                0.44586133               11.60630938               -2.91140701               -2.55153740               -6.03164077               76.64052408               -1.11465481
              13.93982840               10.33694782               41.73096464                0.43573723                6.86873263               -1.57823931               -2.18407140               -2.82142880               74.62194794               -0.37412180
              14.98990648                9.75782429               41.99609182                0.44644035                3.43580476               -0.76663718               -1.83304752               -2.58431228               74.57265730                0.21502483
              16.00854450                9.18020366               42.26404216                0.47723203               -0.00855646                0.13409409               -1.49474796               -2.90518854               76.05528957                0.89600436
              16.98973535                8.60783593               42.55245734                0.53309973               -4.22182760                1.28644824               -1.23616298               -4.63324816               74.08573192                2.25669113
              17.92410794                8.04215365               42.77612621                0.61867140               -3.65331646               -0.24420934                1.33547214               -5.08960901               38.81645601                3.09455494
              18.91666902                7.57959647               42.36008214                0.74590117               -0.33179437               -0.09037528                0.40892007               -0.12317985                4.04624112                1.57308461
              19.91747206                7.12587038               41.88903986                0.92579054                0.08030359                0.43045583               -1.10404405                0.19437111                1.32494771               -2.06818972
               5.16440932                2.58960776               43.96401091                1.00000000               -0.69081726               -0.75262351                2.52984762               -0.14233536               -1.81889473                2.06460538
               6.15750114                2.06585964               43.71443642                0.88008078               -0.67751683               -0.48725340                1.87980008               -0.10986016               -2.32231078               -0.90146187
               7.15085898                1.53977752               43.45508523                0.61933666               -0.94150607               -0.25917198                1.13808870               -0.52769703               -2.09725899               -1.15122592
               8.13867102                0.99932277               43.21043247                0.50295640               -1.36930663               -0.12460439                0.45519556               -0.69962182               -0.06805349               -0.23381747
               9.12347285                0.43127078               42.99231387                0.45412788               -1.28540083                0.08655881               -0.27597301               -0.61537926                2.31452064               -0.19530604
              10.11296301               -0.16656916               42.79579771                0.45549688               -0.41813389                0.28848673               -1.05086568               -0.35054396                3.45308437                0.00936346
              11.11511017               -0.77934669               42.60080196                0.50332213                0.70135770                0.49238526               -1.79687398               -0.34442719                2.49895605                0.19735403
              12.12699016               -1.38688364               42.38553415                0.60450030                1.30600832                0.68805394               -2.45870592               -0.42514250                0.35065266                0.32002599
              13.14123034               -1.98063137               42.14749512                0.77707191                1.36096776                0.85323693               -3.06472340               -0.35234296               -1.63549920                0.50905038
              14.15420952               -2.56327330               41.89187276                1.00000000                1.26259070                1.00581333               -3.63610121               -0.19073482               -2.06864111                1.07108577
              15.16648215               -3.14150217               41.64402504                1.00000000                1.22726346                1.24679451               -4.25411454               -0.16469281               -1.61454612               -1.60254848
               5.68673408                3.58208153               43.86287186                1.00000000               -0.54164222               -0.73906892                2.22112774               -0.05416923                0.32431691                2.42234509
               6.68131766                3.06098711               43.60921002                0.59945779               -0.39418188               -0.40896461                1.52742843               -0.07136934                1.19694483               -1.60168319
               7.67885045                2.53718580               43.37310747                0.13839003                0.23052558               -0.06942529                0.99724958               -0.82427544                3.42831478               -3.91330380
               8.68592817                1.99807672               43.16391518                0.00713554                1.07072866               -0.38183474                0.38855992               -1.98788826                5.71824496               -2.68180284
               9.70026502                1.43213637               42.97303315                0.01018058                1.44190649               -0.81864361               -0.25614337               -3.17350352                7.85521090               -0.42376688
              10.71476630                0.83631570               42.80592235                0.01297595                1.07790581               -0.38129090               -0.96862228               -3.88809579                9.18088557                0.50780487
              11.72182314                0.22557716               42.64077948                0.01292393                0.43073859                0.24820471               -1.66176718               -3.57410124                8.31211882                1.33063783
              12.72338107               -0.38000310               42.45529701                0.11802660                0.20393019                0.40424831               -2.26448170               -2.29176450                6.24115814                3.13002077
              13.72590174               -0.97209900               42.24789093                0.37041106                0.46782463                0.54245499               -2.81161189               -0.92559084                4.46937329                3.91521507
              14.73273757               -1.55321517               42.02647644                0.78368532                0.85811739                0.88771713               -3.30174868               -0.27226065                2.54485786                2.21054809
              15.74306409               -2.12903422               41.78011448                1.00000000                1.03265195                1.28000785               -3.87404340               -0.14034766                1.34353023               -2.11834100
               6.20551477                4.57482638               43.76912511                0.94265641               -0.45452914               -0.70857393                1.93624860               -0.08643324                0.32302624                2.73923721
               7.20096948                4.05768035               43.49004649                0.42901639               -0.41154587               -0.23845589                1.13520727               -0.10739775                1.56689995               -2.46783908
               8.19728385                3.53838902               43.23593193                0.02868277                0.14966035                0.32439225                0.49378301               -1.58079447                7.13558085               -8.07607083
               9.20396269                2.99168607               43.06833277                0.00010000                1.22399704               -0.81490102                0.19687397               -4.12694734               13.93547557               -4.13388276
              10.22176379                2.41489791               42.94894156                0.00010000                1.88988060               -1.38752495               -0.55374098               -5.96424149               16.20613110               -1.06524091
              11.24176030                1.82580502               42.82563597                0.00010000                1.90915768               -1.05397238               -1.11757712               -6.70178020               16.10953012                0.97551013
              12.25994695                1.22561741               42.70291739                0.00010000                1.85353669               -0.40112001               -1.63594201               -6.57209916               16.23711856                2.88600409
              13.27883103                0.62120133               42.58062467                0.01511438                1.79918214               -0.16935081               -2.15028553               -4.96032351               14.19245983                5.63971040
              14.29593059                0.03021773               42.41565721                0.17149458                1.34342471               -0.88326959               -2.31912340               -2.17909674                8.82178241                9.82388802
              15.30569953               -0.54551896               42.18285339                0.42679764                0.96913562                0.36717482               -2.87225101               -0.68695768                3.20308615                3.81720449
              16.31531330               -1.11590201               41.90471141                0.82053765                0.96137762                1.68088057               -3.60723885               -0.53301197                0.97135355               -2.41474756
               6.71929749                5.56791005               43.67447011                0.91875028               -0.36904158               -0.64409415                1.70310798               -0.06018432                0.05902463                2.65196553
               7.71560707                5.05621799               43.36744707                0.39601646               -0.30343279               -0.10344858                0.76513981               -0.01397978                0.54154549               -2.52788141
               8.71322883                4.54367365               43.07018568                0.01180177                0.56366289                0.53470481               -0.10913288               -2.37526116               12.09137577               -8.63934387
               9.72688033                3.98177870               42.99414691                0.00010000                1.68162046               -0.65943471               -0.44270066               -4.98910831               23.17177822               -3.80229124
              10.74686124                3.40438587               42.91714509                0.00010000                2.15654378               -0.91052562               -0.84437327               -6.03219428               23.48764752               -1.47909523
              11.77001121                2.81523626               42.84563628                0.00010000                2.40618010               -1.04321346               -1.26136700               -6.65474082               23.89282780                0.99364034
              12.79498484                2.21755476               42.77450021                0.00010000                2.47815363               -0.95578137               -1.61783727               -6.64110255               23.87642683                3.42721741
              13.81957428                1.61660988               42.70032387                0.01872126                2.70276251               -0.88458242               -1.87631057               -6.38973728               24.25681617                5.88911050
              14.84904009                1.01023561               42.63413740                0.16881971                2.27719395               -1.84800986               -2.01624803               -3.29690694               13.84613430               10.63648912
              15.86511816                0.45412833               42.34899882                0.40157088                1.20649278               -0.00321361               -2.43808578               -0.30914129                1.51137558                3.71694309
              16.87316995               -0.09541661               42.03403516                0.79719540                0.80517919                1.94310558               -3.28080897               -0.11178702                0.06626051               -2.22755368
               7.22769520                6.56194450               43.57922856                0.90434456               -0.27689190               -0.54871743                1.45328465               -0.05632550                0.05437684                2.64016554
               8.22492628                6.05561138               43.24700968                0.37710621               -0.17386432               -0.01851778                0.40773450                0.02564040                0.36289685               -2.37804854
               9.22421792                5.54908311               42.92103761                0.00341928                0.92710052                0.55855817               -0.59051176               -3.03061614               16.13867178               -7.53133901
              10.24346829                4.97849738               42.90420255                0.00010000                2.17222188               -0.17446732               -0.87661111               -6.21811234               31.58022921               -4.50636565
              11.26766235                4.39668740               42.88501618                0.00010000                2.60141493               -0.67403623               -1.15150418               -6.84193364               31.58791445               -1.57073341
              12.29549659                3.80494075               42.86595191                0.00010000                2.90444577               -1.03368097               -1.40237632               -7.22796368               31.77241888                1.00850028
              13.32575127                3.20650178               42.84766604                0.00010000                3.14294244               -1.24668418               -1.59591690               -7.29834249               32.06374466                3.54233799
              14.35835544                2.60350968               42.83138191                0.02429805                3.33613710               -1.45080517               -1.70046602               -7.31464669               32.52431537                6.25254777
              15.39247401                1.99325753               42.81920284                0.17639362                2.34067407               -1.49870555               -1.62324071               -3.90655536               17.75821818                8.41032015
              16.40516892                1.45441677               42.50403976                0.41086196                0.98467141                0.08096935               -2.03819488               -0.29127612                1.36015799                2.84248528
              17.41216744                0.92296010               42.16176972                0.80284473                0.69985166                1.67854533               -2.97379155               -0.02435751                0.04574048               -2.54355646
               7.73083722                7.55693570               43.48462967                0.89158808               -0.18559577               -0.45455428                1.20535724               -0.05483860                0.05330967                2.67726019
               8.72898127                7.05584763               43.12740371                0.36155705               -0.05533584                0.06832204                0.04765749                0.04063168                0.39216487               -2.30549735
               9.72973051                6.55484481               42.77699709                0.00249859                1.29662644                0.60958845               -1.04788745               -3.58925085               20.17570036               -7.18007683
              10.75491380                5.97828936               42.81522689                0.00010000                2.69243441                0.08594174               -1.25401579               -7.30275677               39.63599364               -4.37056226
              11.78357920                5.39090515               42.85123594                0.00010000                3.03618793               -0.49962633               -1.41895718               -7.83963611               39.63554602               -1.62173411
              12.81563755                4.79456264               42.88633223                0.00010000                3.34349342               -1.04195017               -1.53724084               -8.17192472               39.77886441                1.00818342
              13.85044906                4.19262108               42.92176698                0.00010000                3.54440171               -1.45309570               -1.58685821               -8.24844678               40.04481893                3.55510820
              14.88652559                3.58759378               42.95857963                0.02995430                3.47764177               -1.61213444               -1.53558339               -8.30749214               40.21353308                5.98517410
              15.92000190                2.98026150               42.99380452                0.18451927                2.15322407               -1.16099509               -1.16919587               -4.46556289               21.52891552                7.66929529
              16.92959007                2.45574771               42.65296122                0.42140105                0.77971169                0.14697843               -1.64686884               -0.27361814                1.42113399                2.34651235
              17.93559613                1.93815429               42.28408454                0.80933105                0.60060637                1.38738613               -2.68650969               -0.02274982                0.05933998               -2.96186358
               8.22877456                8.55285341               43.39040711                0.87979411               -0.09447577               -0.36266807                0.95717079               -0.05382391                0.05537848                2.68893529
               9.22782981                8.05697782               43.00837456                0.34767464                0.06083067                0.15907236               -0.31205232                0.04590138                0.46165589               -2.25795875
              10.22999118                7.56127488               42.63447047                0.00210391                1.67615077                0.68279068               -1.49878119               -4.07227191               24.22853308               -7.04065803
              11.26135282                6.98021621               42.72747408                0.00010000                3.23025868                0.28820645               -1.60624158               -8.27932991               47.61879716               -4.21946983
              12.29459635                6.38669487               42.81779550                0.00010000                3.44946735               -0.36391133               -1.66225237               -8.83895879               47.60533467               -1.55010305
              13.33034217                5.78410175               42.90659145                0.00010000                3.65774202               -1.03653291               -1.66188721               -9.13803159               47.72917593                0.99340176
              14.36775119                5.17743986               42.99520820                0.00010000                3.71115067               -1.53555019               -1.58454897               -9.14750271               47.95213689                3.48138347
              15.40456518                4.57126699               43.08426682                0.03587915                3.36288163               -1.63879957               -1.39263291               -8.94074351               47.72751603                5.91927971
              16.43500882                3.97003763               43.16447839                0.19295434                1.86192918               -0.92482034               -0.68547327               -4.69290584               25.15264751                7.36024931
              17.44180376                3.45735633               42.79788815                0.43230446                0.59452292                0.15023242               -1.25928857               -0.23392108                1.46708942                2.05721840
              18.44689928                2.95070782               42.40265212                0.81590451                0.50955165                1.14106462               -2.40976321               -0.02221954                0.07427193               -3.21045987
               8.72151194                9.54968234               43.29628858                0.86895239               -0.00341135               -0.27204280                0.70798139               -0.05328202                0.05608616                2.67056398
               9.72147783                9.05902908               42.88961799                0.33521497                0.17673671                0.25240447               -0.67175085                0.04412632                0.54958676               -2.23286554
              10.72504667                8.56850062               42.49277897                0.00188316                2.12146896                0.76098453               -1.94522739               -4.50356242               28.31863671               -6.92707581
              11.76390721                7.98405348               42.64109600                0.00010000                3.89339057                0.41733241               -1.94051106               -9.02184215               55.59039512               -3.98509799
              12.80291449                7.38362692               42.78522077                0.00010000                3.91123631               -0.34372635               -1.88510092               -9.51358889               55.48969360               -1.41125467
              13.84213193                6.77383198               42.92663247                0.00010000                3.87096404               -1.01738530               -1.77636034               -9.64171746               55.59504398                0.93475991
              14.88033377                6.16191008               43.06782131                0.00010000                3.64905089               -1.48265289               -1.59331198               -9.60667171               55.87268941                3.30512572
              15.91511295                5.55481779               43.20997673                0.04216936                2.98603362               -1.60747487               -1.29252922               -9.12163555               55.17670225                5.88452795
              16.94005444                4.96176509               43.33309753                0.20173082                1.45642544               -0.75136049               -0.18115221               -4.70210107               28.64664333                7.18321995
              17.94424146                4.45875236               42.94056065                0.44334621                0.41971651                0.11395044               -0.87026008               -0.19701915                1.49361333                1.93158238
              18.94844877                3.96097559               42.51911907                0.82246429                0.42073102                0.92438156               -2.13552790               -0.02447307                0.08756408               -3.29627720
               9.20901544               10.54741256               43.20190967                0.85894003                0.08786071               -0.18260810                0.45668980               -0.05326968                0.06882669                2.64825008
              10.20989404               10.06202591               42.77092131                0.32413284                0.29400429                0.34880375               -1.03175002                0.03047448                0.67722124               -2.25854701
              11.21489552                9.57649457               42.35202050                0.00165032                2.79478178                0.82506170               -2.38380577               -4.95632239               32.53706552               -6.61092072
              12.26578968                8.98856286               42.55772896                0.00010000                4.98252773                0.17481687               -2.25042583               -9.39021151               63.60411369               -3.39563630
              13.31454608                8.37982035               42.75455573                0.00010000                4.67174926               -0.72646520               -2.08080109               -9.07916729               63.19055292               -1.12816133
              14.35922466                7.76375404               42.94589420                0.00010000                4.00429341               -0.97631144               -1.87498016               -8.84119763               63.25364872                0.76454655
              15.39463195                7.14778681               43.13787089                0.00010000                3.15263950               -1.08280616               -1.61548272               -8.96544887               63.80471000                2.77723618
              16.42227745                6.53911749               43.33479083                0.04883821                2.12001425               -1.28787952               -1.25610470               -8.77681961               62.68946827                5.43744271
              17.43703223                5.95501042               43.50023609                0.21092577                0.81877159               -0.59571767                0.33796616               -4.62258270               32.13055508                6.81652430
              18.43865289                5.45963534               43.08237523                0.45459306                0.24655697                0.05262384               -0.47523725               -0.18505013                1.55232659                1.97686474
              19.44196337                4.96919545               42.63504838                0.82897635                0.33104830                0.72795268               -1.85727583               -0.02913031                0.11764627               -3.26275836
               9.69121985               11.54603017               43.10751980                0.84899111                0.17854523               -0.09461408                0.20576807               -0.05308603               -0.02094975                2.29404174
              10.69300530               11.06600515               42.65140786                0.31355788                0.40817115                0.44702528               -1.39570349               -0.00773093                1.02548024               -2.03293499
              11.69938327               10.58500186               42.21610265                0.00107819                3.98859501                0.83216442               -2.79605714               -5.68030606               37.21240167               -4.91877031
              12.77277720                9.98754982               42.48310883                0.00010000                7.33783437               -1.58076102               -2.51088104               -7.54102128               71.59466487               -2.01315938
              13.84613996                9.36909762               42.72811779                0.00010000                6.22821591               -1.37785904               -2.23408826               -6.24668894               70.39752631               -0.64696075
              14.89734152                8.75430575               42.96315851                0.00010000                3.97606885               -0.89880413               -1.94461709               -5.56581114               70.36175181                0.43867072
              15.92566134                8.14025395               43.20034416                0.00010000                1.75057107               -0.34462642               -1.63061044               -6.06646138               71.47232361                1.64423475
              16.93235294                7.52906020               43.45154872                0.05616853                0.07117989                0.12100273               -1.29633645               -6.52381649               70.32572928                3.60417618
              17.92708493                6.94985074               43.66132892                0.22074750               -0.29987579               -0.34606087                0.84215308               -4.49546771               36.05946179                4.85964742
              18.92635543                6.45980484               43.22530618                0.46611774                0.08305050               -0.02286558               -0.06764288               -0.22014544                1.91152207                1.84123699
              19.92874594                5.97553464               42.75124122                0.83520440                0.23905188                0.55353442               -1.57222191               -0.04160809                0.04686181               -2.70625942
              10.16800376               12.54552028               43.00619732                0.92162246                0.27639849               -0.05098989               -0.07229403                0.22300433                1.05984595                1.94206329
              11.17076774               12.07096641               42.53690618                0.65414812                0.58704885                0.49612572               -1.73491771                0.15712325                3.12190718               -1.76336948
              12.17974473               11.59313786               42.10868873                0.48603328                8.00528760                0.81360025               -3.08511970               -7.66479245               42.61890602               -3.48488635
              13.33087349               10.95694764               42.42808226                0.44590592               12.15558180               -3.06021822               -2.68092120               -6.23410557               78.64259883               -1.17141221
              14.42285637               10.35226317               42.70842785                0.43584717                7.29393068               -1.68344528               -2.32798623               -2.88684308               76.55414707               -0.40634865
              15.47675211                9.74577796               42.97709237                0.44620214                3.78459495               -0.85277925               -1.97343913               -2.62738567               76.48176046                0.19326488
              16.49854827                9.14089428               43.24858241                0.47627891                0.27261163                0.06403247               -1.60520853               -2.92332732               77.92744040                0.86825794
              17.48220434                8.54153755               43.53991917                0.53063255               -4.10850154                1.24773481               -1.27605370               -4.65511379               77.04653379                2.14707059
              18.41637824                7.94808920               43.78878765                0.61389649               -3.68191320               -0.17615329                1.17775066               -5.18864546               41.23863555                3.25412699
              19.40856608                7.45917803               43.36377154                0.73717947               -0.33533168               -0.06268058                0.32302766               -0.17008816                4.43508971                1.64799512
              20.40967160                6.98026614               42.87736382                0.91964161                0.11055283                0.47315018               -1.23889242                0.20137691                1.39782448               -2.16451087
               5.39888165                2.71321106               44.98956939                1.00000000               -0.70685294               -0.76669903                2.58644027               -0.14752798               -1.85590363                2.11597586
               6.39181312                2.16338062               44.73339205                0.87009151               -0.69666489               -0.49083788                1.91180109               -0.11462005               -2.40765912               -0.99614576
               7.38494835                1.61101789               44.46650421                0.61505077               -0.96797335               -0.26195885                1.14579911               -0.53852880               -2.20102190               -1.13576983
               8.37245366                1.04377379               44.21491058                0.50157089               -1.39537125               -0.11855163                0.43862330               -0.70334807               -0.16222992               -0.24748184
               9.35704093                0.44846428               43.98935237                0.45384332               -1.30511061                0.10008498               -0.31811642               -0.61541586                2.18069200               -0.20367261
              10.34635144               -0.17702819               43.78496489                0.45513105               -0.43907061                0.30997802               -1.11717930               -0.35082478                3.31263717                0.00416797
              11.34825952               -0.81801436               43.58239693                0.50192324                0.68607185                0.52060308               -1.88697206               -0.33773243                2.40396052                0.19687758
              12.36007288               -1.45437557               43.36039738                0.60102511                1.31360221                0.72314277               -2.57405167               -0.41777938                0.31092089                0.32504271
              13.37453156               -2.07719209               43.11621690                0.77029039                1.39805231                0.89510788               -3.20833762               -0.35331225               -1.65434055                0.50366051
              14.38803393               -2.68882551               42.85448490                1.00000000                1.32846773                1.06768346               -3.85032239               -0.19709547               -2.10691490                1.07301024
              15.40110092               -3.29583978               42.60015502                1.00000000                1.30669895                1.32517383               -4.52431185               -0.18147876               -1.65926162               -1.64757465
               5.94723681                3.70554407               44.88517077                1.00000000               -0.54733035               -0.75020577                2.24693829               -0.05495454                0.36074854                2.48981295
               6.94176351                3.15847224               44.62454252                0.58220806               -0.39351654               -0.41010959                1.54815960               -0.08134966                1.31244550               -1.71770272
               7.93936648                2.60839830               44.38312764                0.13236420                0.24667355               -0.05880251                1.00697457               -0.86081933                3.58142557               -4.08491437
               8.94669698                2.04258827               44.16774267                0.00717462                1.09606399               -0.41381285                0.37761976               -2.02362862                5.80439256               -2.76434595
               9.96128776                1.44946513               43.97031637                0.01008648                1.46927684               -0.81846391               -0.28638802               -3.21899107                7.87506242               -0.59698509
              10.97608252                0.82607159               43.79598036                0.01283344                1.11340625               -0.38440690               -1.01760882               -3.94236112                9.15799551                0.38163589
              11.98355589                0.18719167               43.62380942                0.01301653                0.47007164                0.24623450               -1.72928448               -3.64086280                8.33110991                1.27034923
              12.98548395               -0.44714415               43.43220455                0.11276756                0.23337603                0.42586499               -2.35177639               -2.36867593                6.32982417                3.09105841
              13.98822341               -1.06824101               43.21925659                0.35946592                0.49514358                0.56675853               -2.92288159               -0.93942351                4.60796711                4.03676021
              14.99538682               -1.67814867               42.99264305                0.76429818                0.90384981                0.93361654               -3.47034929               -0.27224924                2.67716337                2.28040560
              16.00630040               -2.28258804               42.74034135                1.00000000                1.09135821                1.34650578               -4.08734158               -0.15327028                1.45062158               -2.19391114
               6.49192622                4.69820694               44.78860325                0.92987148               -0.45943174               -0.71783446                1.97416764               -0.08629645                0.34732327                2.84923619
               7.48733190                4.15517843               44.50136957                0.41457965               -0.41551413               -0.23765315                1.13356148               -0.11569599                1.67304212               -2.59081033
               8.48361593                3.60984184               44.24083003                0.02491492                0.17911770                0.35365944                0.48563078               -1.67948207                7.49491573               -8.48799162
               9.49091425                3.03549753               44.07010787                0.00010000                1.27809285               -0.82347382                0.15397753               -4.23622588               14.23124192               -4.50918559
              10.50917779                2.43209500               43.94311295                0.00010000                1.94317135               -1.39935822               -0.61228439               -6.04945821               16.35465946               -1.39807956
              11.52977768                1.81528367               43.81406906                0.00010000                1.97401040               -1.07385940               -1.19620652               -6.82879811               16.35739742                0.72274490
              12.54865800                1.18691033               43.68607983                0.00010000                1.91771789               -0.42303361               -1.73237907               -6.69772443               16.49886038                2.74201808
              13.56813204                0.55414173               43.55859550                0.01153109                1.90448098               -0.18648847               -2.25725843               -5.08339129               14.62568661                5.61852903
              14.58674762               -0.06585692               43.39205217                0.16341312                1.44019704               -0.90306996               -2.39845617               -2.26104734                9.23350085                9.94646440
              15.59693598               -0.67015318               43.15372676                0.41028323                1.00833161                0.36284195               -2.96326213               -0.70039407                3.32384560                3.92602558
              16.60691425               -1.26890967               42.86808381                0.80871480                0.99782721                1.71561066               -3.73737194               -0.54041467                0.99862008               -2.51809795
               7.03156791                5.69118738               44.69169152                0.90621100               -0.37532192               -0.65632404                1.74462759               -0.05907148                0.05476471                2.77968676
               8.02781469                5.15371918               44.37510500                0.38211949               -0.30550902               -0.10360901                0.76718638               -0.00886983                0.56873883               -2.63842005
               9.02545773                4.61547149               44.06893962                0.00832553                0.59523016                0.56231931               -0.14093814               -2.44896851               12.42552301               -9.04350725
              10.03971930                4.02611880               43.98942572                0.00010000                1.75273618               -0.61447283               -0.50253690               -5.12384450               23.73031273               -4.29204222
              11.06051246                3.42147796               43.90829111                0.00010000                2.24859642               -0.91086909               -0.92846641               -6.14934004               23.98907896               -1.81216905
              12.08469123                2.80459440               43.83251019                0.00010000                2.51154438               -1.05005856               -1.36671373               -6.78433092               24.40009719                0.74597923
              13.11074334                2.17873100               43.75772537                0.00010000                2.59460702               -0.96612137               -1.74165033               -6.78081140               24.44799193                3.27947122
              14.13658337                1.54912608               43.68091660                0.01516251                2.82770090               -0.91005013               -2.01219531               -6.53045575               24.91857279                5.88896942
              15.16729736                0.91369759               43.61317804                0.16103432                2.39241620               -1.88534516               -2.18455182               -3.42157748               14.42376292               10.71223731
              16.18443169                0.32910816               43.32417739                0.38629594                1.28538622               -0.03145001               -2.52759720               -0.33787668                1.74304571                3.78688539
              17.19300509               -0.24827583               43.00062027                0.78631158                0.85733967                1.96260183               -3.40842250               -0.10425040                0.06975577               -2.34743196
               7.56568119                6.68508046               44.59394525                0.89221577               -0.28107952               -0.56265356                1.49278622               -0.05661008                0.05556943                2.75760607
               8.56287039                6.15310625               44.25106018                0.36374237               -0.17221230               -0.01767522                0.40166158                0.03488097                0.38833717               -2.48842460
               9.56223694                5.62108822               43.91492781                0.00329029                0.97802460                0.57857929               -0.63347657               -3.09938377               16.54737489               -7.86332201
              10.58243089                5.02320808               43.89506142                0.00010000                2.27392205               -0.14177912               -0.95345652               -6.35396238               32.33542757               -4.86103088
              11.60771539                4.41387762               43.87299369                0.00010000                2.72035712               -0.65990001               -1.25620832               -6.97359971               32.34254438               -1.88544335
              12.63683803                3.79428250               43.85131490                0.00010000                3.03973527               -1.03076327               -1.53038386               -7.36778019               32.54791819                0.77302668
              13.66851009                3.16758790               43.83101361                0.00010000                3.28591488               -1.24882111               -1.74289976               -7.44833588               32.89255040                3.39768630
              14.70255633                2.53594072               43.81362015                0.02051608                3.49119489               -1.45177206               -1.86405444               -7.49282548               33.46068219                6.20996319
              15.73833399                1.89643618               43.80201286                0.16843593                2.47977718               -1.52218858               -1.83102356               -4.03889582               18.54329270                8.59166939
              16.75215187                1.32921782               43.48316647                0.39539530                1.06316235                0.07601498               -2.13972508               -0.33281886                1.65322398                2.88856355
              17.75959724                0.77034237               43.13139349                0.79185742                0.74453649                1.70800219               -3.10939279               -0.02236386                0.05508980               -2.69671208
               8.09438414                7.67993431               44.49685226                0.87977239               -0.18795888               -0.46761511                1.24105813               -0.05550145                0.05472276                2.79508581
               9.09250455                7.15336567               44.12780883                0.34863931               -0.05079568                0.07215127                0.03247100                0.04996618                0.42656149               -2.41730612
              10.09336823                6.62704307               43.76625576                0.00239793                1.36730505                0.63016632               -1.10263542               -3.66197688               20.68998099               -7.49893134
              11.11985065                6.02328322               43.80223947                0.00010000                2.82989047                0.11206575               -1.34613414               -7.45354993               40.59697201               -4.67930258
              12.14996604                5.40827996               43.83646095                0.00010000                3.18873430               -0.48220110               -1.54068784               -7.99015947               40.62025685               -1.89442036
              13.18362534                4.78397914               43.87027379                0.00010000                3.50761841               -1.03361175               -1.68204470               -8.32180907               40.79912016                0.79475774
              14.22011841                4.15375457               43.90514760                0.00010000                3.71266179               -1.44643544               -1.74860682               -8.40423752               41.12801351                3.41801717
              15.25787858                3.52009064               43.94244487                0.02599863                3.65619705               -1.60147185               -1.70830792               -8.50328935               41.47301897                5.94765256
              16.29324235                2.88325382               43.98108318                0.17635759                2.29952743               -1.17352108               -1.39468107               -4.61794415               22.53142159                7.91202473
              17.30386913                2.33062846               43.63595770                0.40567447                0.85331835                0.16274739               -1.75912679               -0.31781313                1.73970976                2.38842706
              18.31030871                1.78588421               43.25653862                0.79820782                0.64395893                1.42572492               -2.83197356               -0.01987325                0.07181024               -3.13798198
               8.61770843                8.67572816               44.40012861                0.86836607               -0.09474771               -0.37423635                0.98847412               -0.05485443                0.05681056                2.80554139
               9.61676095                8.15454927               44.00513211                0.33522132                0.06857172                0.16615224               -0.33738267                0.05441882                0.50718576               -2.36926822
              10.61907986                7.63369155               43.61915190                0.00201312                1.76810221                0.70650761               -1.56641049               -4.15329936               24.86072787               -7.35349757
              11.65212300                7.02544939               43.71090052                0.00010000                3.40682044                0.30916422               -1.71187073               -8.44635378               48.79614439               -4.50009760
              12.68721627                6.40423360               43.80052865                0.00010000                3.64021198               -0.35282869               -1.79688667               -9.00472010               48.81497784               -1.78764041
              13.72492724                5.77361027               43.88924497                0.00010000                3.85487810               -1.03225560               -1.81676743               -9.29374402               48.98308005                0.80861532
              14.76431384                5.13865919               43.97860573                0.00010000                3.90320277               -1.53003020               -1.75006302               -9.30004905               49.28144974                3.35795707
              15.80299129                4.50391129               44.06961905                0.03177711                3.55617241               -1.62339245               -1.55689098               -9.14945511               49.33577943                5.87154093
              16.83543728                3.87296576               44.15656736                0.18454418                2.00869623               -0.92671296               -0.91949068               -4.85759231               26.38702855                7.64118332
              17.84316522                3.33247277               43.78473612                0.41623365                0.66254954                0.17783033               -1.37849748               -0.27237092                1.79601020                2.10340333
              18.84868827                2.79885687               43.37783743                0.80460540                0.55230572                1.18524338               -2.56349978               -0.01895599                0.08890214               -3.39472215
               9.13564483                9.67244958               44.30349444                0.85777252               -0.00152874               -0.28194882                0.73431497               -0.05448585                0.05776977                2.78501245
              10.13562954                9.15668872               43.88272691                0.32319601                0.18786471                0.26311328               -0.70755966                0.05110964                0.60841889               -2.34364791
              11.13940212                8.64117323               43.47293590                0.00179345                2.23759954                0.78791868               -2.02492966               -4.59916667               29.07730547               -7.23201516
              12.18038153                8.02946650               43.62112447                0.00010000                4.11543196                0.42847758               -2.05732699               -9.20911323               56.99231021               -4.23726396
              13.22171076                7.40122339               43.76568476                0.00010000                4.14716667               -0.34963760               -2.02858893               -9.68919382               56.92168824               -1.61067740
              14.26332487                6.76333403               43.90812852                0.00010000                4.10528225               -1.02917530               -1.93487257               -9.79111456               57.06996024                0.78340361
              15.30381641                6.12315397               44.05116874                0.00010000                3.86290207               -1.48713836               -1.75249333               -9.74109510               57.42720297                3.19374598
              16.34058291                5.48762279               44.19645333                0.03777902                3.18563053               -1.59496491               -1.43391026               -9.32696635               57.15401051                5.80577181
              17.36752902                4.86471956               44.33024500                0.19299010                1.59738460               -0.74402359               -0.41343651               -4.87138214               30.13846720                7.49394952
              18.37253060                4.33418507               43.93129618                0.42695047                0.48161902                0.14712755               -0.99150149               -0.22823222                1.82460610                1.98851442
              19.37716140                3.80958908               43.49702496                0.81095902                0.46307992                0.97193832               -2.29481191               -0.02114250                0.10441702               -3.47723849
               9.64814044               10.67008918               44.20657881                0.84805442                0.09190626               -0.19082773                0.47806903               -0.05451577                0.07111735                2.76133572
              10.64905950               10.15981154               43.76037767                0.31252166                0.30891552                0.36329052               -1.07824682                0.03441735                0.75343099               -2.37054879
              11.65431875                9.64944992               43.32774088                0.00156211                2.94155332                0.85176822               -2.47362651               -5.07696484               33.43414308               -6.89781989
              12.70789057                9.03401894               43.53461389                0.00010000                5.26230608                0.16148662               -2.37600806               -9.60160953               65.23835482               -3.60323792
              13.75956487                8.39724084               43.73303679                0.00010000                4.96418985               -0.76522546               -2.22970388               -9.24732936               64.83825528               -1.27778509
              14.80717437                7.75302676               43.92640918                0.00010000                4.28191474               -1.01340589               -2.03268128               -8.96315511               64.92698675                0.65575775
              15.84520317                7.10891642               44.12106190                0.00010000                3.38560042               -1.10590385               -1.76179475               -9.05863574               65.54535373                2.68499661
              16.87488637                6.47201199               44.32179269                0.04421062                2.31220988               -1.28480819               -1.36370883               -8.94206932               65.05262410                5.30947155
              17.89144736                5.85808529               44.50263322                0.20187968                0.94223409               -0.57412187                0.11550106               -4.79048049               33.91780019                7.13764148
              18.89373106                5.33541532               44.07707596                0.43786731                0.30050214                0.08717893               -0.59390218               -0.21214622                1.88123374                2.05097915
              19.89745741                4.81829563               43.61572343                0.81723845                0.37263508                0.77680528               -2.01873596               -0.02656760                0.13650297               -3.43298776
              10.15510980               11.66863303               44.10965652                0.83833952                0.18473449               -0.10112091                0.22234548               -0.05430772               -0.02385100                2.39303990
              11.15695715               11.16395453               43.63717348                0.30240405                0.42728084                0.46498388               -1.45282582               -0.01115339                1.13091479               -2.13300201
              12.16365542               10.65820859               43.18765864                0.00102015                4.18006354                0.84819805               -2.89458730               -5.83363959               38.27388155               -5.12938609
              13.24055842               10.03269623               43.45735758                0.00010000                7.70504684               -1.65977024               -2.64233709               -7.72677925               73.46491103               -2.14129985
              14.31775636                9.38591888               43.70504862                0.00010000                6.59138819               -1.45200602               -2.38619531               -6.36469800               72.23806707               -0.72786267
              15.37238618                8.74306591               43.94298490                0.00010000                4.29510540               -0.96024484               -2.10030876               -5.63351117               72.20296719                0.38301878
              16.40365847                8.10103589               44.18343940                0.00010000                2.00932370               -0.39120481               -1.76465912               -6.10379715               73.33575197                1.59071335
              17.41257266                7.46192663               44.43830540                0.05132959                0.23288045                0.10122227               -1.36928702               -6.61121808               73.06115079                3.48229985
              18.40831607                6.85323713               44.66883757                0.21136049               -0.22476648               -0.28832849                0.63405676               -4.62085297               38.19017141                5.09728993
              19.40807733                6.33592865               44.22411930                0.44899301                0.12766717                0.01051703               -0.17875411               -0.25241751                2.25084539                1.92103819
              20.41086942                5.82512519               43.73477166                0.82320097                0.27920903                0.60196573               -1.73208192               -0.04101762                0.06276407               -2.84135462
              10.65641128               12.66806677               44.00552656                0.91640523                0.28495899               -0.05662609               -0.06136418                0.23459277                1.10319975                2.02686199
              11.65926087               12.16911122               43.51923746                0.64879867                0.62464866                0.51566875               -1.80093555                0.14772814                3.33163724               -1.84944476
              12.66890425               11.66641388               43.07733990                0.48496566                8.31919107                0.82052943               -3.18596858               -7.88950051               43.88222316               -3.63644813
              13.82564469               11.00082354               43.40061212                0.44587445               12.64984905               -3.18726934               -2.81562959               -6.40203068               80.68562710               -1.22965074
              14.92190124               10.36820072               43.68440491                0.43597184                7.68712184               -1.77181563               -2.48223408               -2.93559595               78.53466753               -0.43844539
              15.97938713                9.73382186               43.95662304                0.44596345                4.11826329               -0.92440440               -2.12963766               -2.65532521               78.45485797                0.17412445
              17.00426650                9.10109233               44.23193799                0.47528239                0.55368257                0.00564348               -1.73617413               -2.92846799               79.89645343                0.84705576
              17.99046078                8.47403643               44.52693627                0.52810709               -3.96191084                1.21098030               -1.33506754               -4.64986818               80.02507483                2.05520483
              18.92502828                7.85231872               44.79968122                0.60914399               -3.68330677               -0.09184073                0.97666950               -5.24931760               43.69439003                3.42410914
              19.91679464                7.33562566               44.36654269                0.72849561               -0.33921510               -0.03029884                0.22331473               -0.22745669                4.89731077                1.72560596
              20.91824398                6.83033495               43.86426201                0.91357713                0.14493370                0.52097635               -1.39048085                0.20838521                1.47708916               -2.26840146
               5.63964591                2.84072452               46.01573972                1.00000000               -0.72327777               -0.78805980                2.64828024               -0.15290932               -1.90542025                2.15927026
               6.63241314                2.26363579               45.75267244                0.86021832               -0.71629495               -0.49802569                1.94488794               -0.12580674               -2.50196607               -1.08828132
               7.62532002                1.68381526               45.47800121                0.61084921               -0.99174379               -0.26535675                1.15293688               -0.55046340               -2.30978020               -1.12104428
               8.61257826                1.08870894               45.21920494                0.50024497               -1.41438193               -0.11164292                0.41838525               -0.70239329               -0.26023485               -0.26123249
               9.59703238                0.46526933               44.98595154                0.45355419               -1.32035361                0.11667565               -0.36393586               -0.61166398                2.04525697               -0.21162519
              10.58617119               -0.18851674               44.77345412                0.45474580               -0.46377430                0.33609960               -1.18827519               -0.34897460                3.17418051               -0.00088847
              11.58775689               -0.85823411               44.56306252                0.50056505                0.66087112                0.55353649               -1.98495721               -0.32759466                2.31581909                0.19659254
              12.59938861               -1.52399714               44.33405312                0.59763361                1.31495558                0.76170852               -2.70404626               -0.40599378                0.27955310                0.33023586
              13.61405600               -2.17663754               44.08332837                0.76377886                1.43722460                0.94384789               -3.38105660               -0.34995552               -1.67232278                0.49646024
              14.62813310               -2.81812940               43.81486631                1.00000000                1.39503405                1.12804855               -4.07720301               -0.20314312               -2.14422164                1.07519407
              15.64195668               -3.45482634               43.55353880                1.00000000                1.38235804                1.39850947               -4.79995232               -0.19737060               -1.71030347               -1.67583705
               6.21520555                3.83284392               45.90781062                1.00000000               -0.55958538               -0.77170846                2.29856932               -0.05470454                0.42205310                2.57409798
               7.20960970                3.25865553               45.64017321                0.56521262               -0.39633725               -0.41670656                1.58549407               -0.09459077                1.44371986               -1.84558478
               8.20727880                2.68116170               45.39324696                0.12633783                0.26087984               -0.04990309                1.01711507               -0.89695819                3.74264362               -4.26686875
               9.21482729                2.08759251               45.17146757                0.00721467                1.11248877               -0.44448158                0.36719923               -2.04996329                5.89823318               -2.86967625
              10.22952858                1.46643609               44.96730538                0.01000534                1.48029361               -0.81538777               -0.31548703               -3.24424225                7.90562168               -0.79224026
              11.24443317                0.81484425               44.78557018                0.01273425                1.13462796               -0.38765848               -1.06434406               -3.96823262                9.15049398                0.22804885
              12.25222114                0.14730125               44.60619379                0.01318412                0.50486113                0.23879627               -1.79441167               -3.67917371                8.37054992                1.17858372
              13.25453039               -0.51638005               44.40826148                0.10756398                0.27007212                0.44284997               -2.44145660               -2.42582494                6.44011825                3.02141199
              14.25762258               -1.16719906               44.18943329                0.34869273                0.53328423                0.59315539               -3.04923200               -0.95277633                4.75901553                4.15491097
              15.26519607               -1.80684892               43.95706946                0.74522488                0.95286653                0.97983056               -3.64724310               -0.28152480                2.80846908                2.35278418
              16.27667991               -2.44084125               43.69836765                1.00000000                1.14838404                1.41417265               -4.30855511               -0.16848699                1.54976479               -2.26287693
               6.78692860                4.82529035               45.80860846                0.91728802               -0.47250544               -0.73410697                2.04144684               -0.08085522                0.36342259                2.98319319
               7.78220354                4.25530166               45.51271772                0.40036073               -0.42423639               -0.24482759                1.14743816               -0.11745462                1.78983344               -2.72501095
               8.77844387                3.68281720               45.24564455                0.02116582                0.20505282                0.37720140                0.47692235               -1.76712891                7.86480279               -8.92215173
               9.78630460                3.07981931               45.07141232                0.00010000                1.32259613               -0.83041023                0.10429620               -4.32739116               14.53309591               -4.91606036
              10.80489579                2.44896158               44.93669588                0.00010000                1.98183861               -1.40871666               -0.67231493               -6.10297269               16.52054599               -1.77557238
              11.82594137                1.80373009               44.80171184                0.00010000                2.02509626               -1.09671258               -1.27684132               -6.91370188               16.62197423                0.41641756
              12.84539772                1.14654182               44.66826981                0.00010000                1.97155270               -0.45454243               -1.83309154               -6.77765433               16.78572350                2.53705541
              13.86537243                0.48485986               44.53547950                0.00790633                2.00358133               -0.21276658               -2.37226934               -5.16767845               15.11889588                5.53012393
              14.88546934               -0.16477443               44.36768809                0.15527160                1.53861825               -0.91406394               -2.47962321               -2.33803427                9.70095150                9.99383532
              15.89614479               -0.79853279               44.12358815                0.39397753                1.05511253                0.36376211               -3.07319069               -0.72138416                3.45920706                4.01773166
              16.90657160               -1.42654289               43.82996398                0.79708374                1.04268036                1.75831589               -3.89514101               -0.55103920                1.02958714               -2.64595846
               7.35356583                5.81816178               45.70936266                0.89394693               -0.38320770               -0.66772341                1.79286584               -0.05787270                0.05373389                2.91346189
               8.34973375                5.25375898               45.38279079                0.36825689               -0.30736264               -0.10813037                0.77118931                0.00254369                0.60263685               -2.74811396
               9.34741857                4.68870572               45.06736692                0.00626246                0.62006716                0.58416675               -0.17232304               -2.50271845               12.77105580               -9.46824212
              10.36213509                4.07098431               44.98409618                0.00010000                1.80698887               -0.56781520               -0.56424200               -5.23188020               24.30223657               -4.80630095
              11.38355835                3.43826176               44.89857576                0.00010000                2.32218994               -0.90764421               -1.01696271               -6.23551716               24.50531596               -2.18636290
              12.40857889                2.79291000               44.81830201                0.00010000                2.59899619               -1.05461998               -1.47900685               -6.87788450               24.92441320                0.44817103
              13.43553828                2.13821041               44.73966720                0.00010000                2.69570867               -0.97542700               -1.87690979               -6.88230368               25.04170340                3.07370117
              14.46249307                1.47936462               44.66007996                0.01153393                2.93581394               -0.93395961               -2.16574592               -6.62466684               25.59677592                5.82193579
              15.49425455                0.81451966               44.59044637                0.15323452                2.50218897               -1.90198909               -2.37908080               -3.53070465               15.07303129               10.67333710
              16.51253684                0.20042632               44.29844687                0.37103131                1.37123807               -0.05297380               -2.62662035               -0.37433030                2.04672092                3.80572264
              17.52167932               -0.40567493               43.96586671                0.77555143                0.91424708                1.98251946               -3.55203567               -0.09794501                0.07642070               -2.51195484
               7.91457674                6.81193588               45.60908429                0.88011673               -0.28662707               -0.57538617                1.53734442               -0.05704743                0.05677237                2.88121096
               8.91171047                6.25313905               45.25504291                0.35041780               -0.17062853               -0.01647015                0.39500398                0.04699553                0.41908638               -2.60308022
               9.91116417                5.69450054               44.90836808                0.00314113                1.02002450                0.59681846               -0.67956827               -3.14975641               16.96847207               -8.20881680
              10.93211096                5.06846301               44.88513342                0.00010000                2.35477925               -0.10600533               -1.03379807               -6.45894471               33.10387593               -5.24205945
              11.95825976                4.43080870               44.85989201                0.00010000                2.81620356               -0.63899894               -1.36778401               -7.07168263               33.11202743               -2.23639060
              12.98843503                3.78263769               44.83534424                0.00010000                3.15186340               -1.01911409               -1.67036708               -7.47105012               33.33980114                0.49344611
              14.02129703                3.12703328               44.81280804                0.00010000                3.40674001               -1.24105513               -1.90899262               -7.55785180               33.73891095                3.20400791
              15.05656983                2.46618067               44.79410082                0.01668290                3.62482603               -1.44083406               -2.05697222               -7.61450806               34.40216779                6.11456086
              16.09379355                1.79718579               44.78258237                0.16042947                2.61414697               -1.52860861               -2.07634744               -4.14549982               19.40613072                8.70779605
              17.10885277                1.20040773               44.46124526                0.37997918                1.15108246                0.07601384               -2.25212762               -0.38431557                2.02980543                2.88433358
              18.11681520                0.61310750               44.09958186                0.78100369                0.79624219                1.73128210               -3.26318357               -0.02046401                0.06772521               -2.89490760
               8.47001854                7.80665406               45.50945084                0.86796910               -0.19095346               -0.48069061                1.28064902               -0.05609632                0.05623479                2.91790642
               9.46810900                7.25342958               45.12805313                0.33572859               -0.04595241                0.07676614                0.01585806                0.06138989                0.46736894               -2.53447394
              10.46909949                6.70064209               44.75494438                0.00228090                1.42695190                0.65121260               -1.16099857               -3.71461130               21.21836577               -7.83083859
              11.49664804                6.06886420               44.78830420                0.00010000                2.94252649                0.14331277               -1.44364627               -7.56861626               41.57280770               -5.01237249
              12.52795002                5.42548178               44.82042219                0.00010000                3.31426340               -0.45452169               -1.67218596               -8.10223956               41.62161173               -2.19840422
              13.56293331                4.77252772               44.85269134                0.00010000                3.64441173               -1.01091851               -1.84351750               -8.43004104               41.83768186                0.54596938
              14.60083825                4.11338930               44.88679485                0.00010000                3.85585416               -1.42277049               -1.93652498               -8.51353474               42.23161401                3.24534014
              15.64005039                3.45054794               44.92441347                0.02201749                3.81396224               -1.57456647               -1.91958178               -8.63462573               42.73443238                5.88107847
              16.67711750                2.78394749               44.96591090                0.16818701                2.44392127               -1.17431570               -1.66712587               -4.73812837               23.60816698                8.11515439
              17.68892882                2.20194660               44.61777868                0.39002922                0.93764965                0.18390970               -1.88535985               -0.36978221                2.14385104                2.39103252
              18.69587049                1.62895071               44.22744507                0.78718159                0.69416740                1.46097726               -2.99800528               -0.01661267                0.08723356               -3.35272380
               9.01990378                8.80232207               45.41017659                0.85687365               -0.09535426               -0.38608336                1.02271435               -0.05557730                0.05845758                2.92680886
              10.01895023                8.25467437               45.00162691                0.32269809                0.07667731                0.17404893               -0.36458641                0.06492308                0.56092023               -2.48683918
              11.02143732                7.70752479               44.60314226                0.00190779                1.84743596                0.73146197               -1.63774720               -4.21246868               25.51075981               -7.68042764
              12.05589895                7.07132926               44.69323667                0.00010000                3.55570641                0.33653171               -1.82398442               -8.57250089               49.99202580               -4.80169279
              13.09255145                6.42171826               44.78185776                0.00010000                3.80138682               -0.32882724               -1.94375404               -9.12578838               50.04580038               -2.05017236
              14.13192669                5.76241932               44.87025610                0.00010000                4.02273307               -1.00959339               -1.99217833               -9.40132762               50.26123301                0.59855722
              15.17300611                5.09857787               44.96020694                0.00010000                4.06962227               -1.50302391               -1.94713565               -9.40076064               50.64056610                3.21454332
              16.21331913                4.43468934               45.05312900                0.02761422                3.73131021               -1.58941756               -1.76721775               -9.29059431               50.94269087                5.81756632
              17.24763232                3.77369947               45.14608858                0.17609255                2.15673847               -0.91846340               -1.20631987               -4.98699882               27.68763220                7.89867323
              18.25645390                3.20408592               44.77031820                0.40030475                0.74211982                0.21181042               -1.51487862               -0.31738075                2.21186288                2.12053971
              19.26247471                2.64232705               44.35138212                0.79340430                0.60208090                1.22970496               -2.73997441               -0.01543458                0.10710641               -3.61171147
               9.56420238                9.79893239               45.31097488                0.84654975                0.00023618               -0.29224394                0.76317766               -0.05536979                0.05978361                2.90403153
              10.56420474                9.25691056               44.87546680                0.31121141                0.19964227                0.27469938               -0.74581577                0.05946480                0.67757943               -2.46104698
              11.56819523                8.71527133               44.45228038                0.00169058                2.33999043                0.81453187               -2.10710358               -4.67054365               29.85910042               -7.55044261
              12.61100455                8.07559484               44.59994946                0.00010000                4.30744855                0.44678649               -2.18121297               -9.35020921               58.41845456               -4.50627108
              13.65434420                7.41890523               44.74464899                0.00010000                4.35213004               -0.34087399               -2.18589081               -9.81472708               58.38176098               -1.82835655
              14.69804715                6.75233585               44.88793502                0.00010000                4.31044086               -1.02032470               -2.11640999               -9.88819041               58.57899232                0.61681143
              15.74055301                6.08332883               45.03277144                0.00010000                4.05348730               -1.46808917               -1.94653903               -9.82134342               59.02626030                3.07669604
              16.77911690                5.41875959               45.18129852                0.03338887                3.37139625               -1.56172432               -1.62520727               -9.46555637               59.12998832                5.74094594
              17.80798094                4.76557822               45.32482880                0.18429035                1.74183646               -0.72643939               -0.70242442               -5.00520692               31.68656666                7.79570623
              18.81395363                4.20618281               44.92073062                0.41068183                0.55493070                0.18729394               -1.13269263               -0.26499782                2.24165461                2.02603682
              19.81907955                3.65354481               44.47322283                0.79955684                0.51259262                1.02309719               -2.47869565               -0.01761033                0.12472198               -3.68496876
              10.10284005               10.79647719               45.21147105                0.83710042                0.09605380               -0.19945883                0.50145402               -0.05555687                0.07368344                2.87924358
              11.10380059               10.26016836               44.74935638                0.30098436                0.32510608                0.37873840               -1.12771303                0.03774828                0.84320771               -2.48932021
              12.10934217                9.72381543               44.30254797                0.00146304                3.07301412                0.87718950               -2.56538669               -5.17108949               34.36098174               -7.19558477
              13.16526087                9.08026499               44.51020880                0.00010000                5.50868629                0.15653778               -2.50856585               -9.76168745               66.90387326               -3.82331200
              14.21951590                8.41490078               44.70996166                0.00010000                5.22392109               -0.78664953               -2.39290113               -9.36611916               66.52227361               -1.43912806
              15.26973929                7.74201282               44.90524058                0.00010000                4.53198067               -1.02917935               -2.21423816               -9.03608830               66.64640418                0.53990341
              16.31015551                7.06921608               45.10263499                0.00010000                3.60096609               -1.10683495               -1.94391243               -9.10275554               67.35056196                2.59679327
              17.34175861                6.40345486               45.30751665                0.03964483                2.49747238               -1.25984862               -1.52005887               -9.04922554               67.41511499                5.20911944
              18.36010496                5.75917069               45.50254611                0.19284226                1.07143715               -0.54148404               -0.16627751               -4.92647638               35.74870593                7.46121568
              19.36318736                5.20783180               45.07049718                0.42123407                0.36467697                0.12880319               -0.73370861               -0.24485401                2.29567751                2.11427748
              20.36739850                4.66278899               44.59467366                0.80559824                0.42111406                0.83120753               -2.20488436               -0.02343368                0.15964919               -3.62371388
              10.63570890               11.79494321               45.11196671                0.82766719                0.19125702               -0.10798833                0.24044273               -0.05549356               -0.02684131                2.49661666
              11.63762147               11.26448532               44.62235134                0.29130809                0.44839524                0.48405972               -1.51359959               -0.01707601                1.25359927               -2.23900422
              12.64467681               10.73281512               44.15821091                0.00095699                4.35319885                0.86154844               -2.99378492               -5.95436813               39.37383431               -5.34724581
              13.72468545               10.07872559               44.43026208                0.00010000                8.02985892               -1.72097240               -2.77996755               -7.86913642               75.37407850               -2.27687459
              14.80527398                9.40317224               44.68039388                0.00010000                6.91623189               -1.50595548               -2.55203007               -6.44752101               74.12173591               -0.81432795
              15.86301009                8.73175226               44.92115233                0.00010000                4.58909430               -1.00143282               -2.27913709               -5.67016112               74.10078000                0.32516769
              16.89705587                8.06119213               45.16505098                0.00010000                2.25838493               -0.41889414               -1.93265901               -6.10905266               75.28438596                1.54339607
              17.90817778                7.39356261               45.42416298                0.04640927                0.40092973                0.09625276               -1.48599609               -6.66197945               75.80081010                3.38494557
              18.90507446                6.75474854               45.67401005                0.20198997               -0.13697718               -0.21433000                0.36702623               -4.71245418               40.35550594                5.34171156
              19.90543824                6.20875887               45.22173110                0.43205632                0.18110198                0.05057811               -0.31051447               -0.29177164                2.67473433                1.99734904
              20.90869650                5.67016896               44.71659958                0.81132756                0.32582632                0.65642085               -1.91526147               -0.04017817                0.08285281               -2.98944112
              11.16264595               12.79431742               45.00497004                0.91115942                0.29412005               -0.06257903               -0.04961730                0.24691865                1.14873572                2.11583932
              12.16558716               12.26984956               44.50088747                0.64339778                0.66842922                0.53642313               -1.87126673                0.13301708                3.56641423               -1.94049911
              13.17601454               11.74104640               44.04496936                0.48391922                8.59669322                0.82312724               -3.28712803               -8.06642720               45.19445129               -3.79359583
              14.33752102               11.04584554               44.37176967                0.44584902               13.07621320               -3.28800477               -2.95522212               -6.52967902               82.76964602               -1.28953659
              15.43753880               10.38478167               44.65878316                0.43604011                8.03975826               -1.83905716               -2.64848221               -2.96658698               80.56096743               -0.47103797
              16.49831619                9.72198417               44.93449961                0.44574774                4.43126510               -0.97680976               -2.30671378               -2.66656372               80.48821292                0.15672182
              17.52616411                9.06083820               45.21385892                0.47429330                0.83232120               -0.03539270               -1.89776914               -2.91938921               81.95965937                0.83321180
              18.51496261                8.40537991               45.51321782                0.52558841               -3.77522456                1.18172976               -1.43275495               -4.61922328               83.01474326                1.98351229
              19.45065961                7.75488409               45.80832104                0.60434505               -3.65155554                0.01355448                0.71904187               -5.26831233               46.19219243                3.60295156
              20.44193150                7.20884337               45.36823784                0.71991019               -0.34424334                0.00844936                0.10530333               -0.29900811                5.45037837                1.80381319
              21.44377475                6.67591741               44.84955421                0.90756115                0.18432493                0.57484441               -1.56233549                0.21522861                1.56314844               -2.37990676
               5.88690780                2.97225465               47.04253499                1.00000000               -0.73954955               -0.80973682                2.71402720               -0.15963012               -1.95742534                2.21437360
               6.87951231                2.36661345               46.77228981                0.85041495               -0.73437764               -0.50981832                1.98087056               -0.13853096               -2.59792837               -1.17086168
               7.87222025                1.75810550               46.48956295                0.60653558               -1.01068384               -0.26879178                1.15903251               -0.55900493               -2.41879907               -1.10872481
               8.85929863                1.13402387               46.22327828                0.49877298               -1.42616822               -0.10364999                0.39590296               -0.69861238               -0.35781942               -0.27539915
               9.84369689                0.48152408               45.98207366                0.45327284               -1.32872796                0.13519041               -0.41385761               -0.60502616                1.91122524               -0.21945737
              10.83272407               -0.20127807               45.76119938                0.45436376               -0.48599921                0.36529216               -1.26616759               -0.34546388                3.03926736               -0.00567738
              11.83397690               -0.90034504               45.54269779                0.49928237                0.63370134                0.59010924               -2.09416872               -0.31560749                2.23279331                0.19615611
              12.84539810               -1.59618758               45.30631645                0.59439055                1.31475081                0.80452872               -2.85099507               -0.39151418                0.25102374                0.33396255
              13.86027192               -2.27947274               45.04859577                0.75752934                1.47704791                0.99702318               -3.57177153               -0.34463507               -1.69162650                0.48857149
              14.87493906               -2.95172792               44.77294084                1.00000000                1.46389694                1.19130925               -4.31311867               -0.20879461               -2.18465178                1.07497102
              15.88954986               -3.61901422               44.50415597                1.00000000                1.46108002                1.47434593               -5.08070314               -0.21368372               -1.76107765               -1.70406693
               6.49095270                3.96415728               46.93114215                1.00000000               -0.57511308               -0.79679386                2.36819437               -0.06078350                0.49130181                2.67632780
               7.48520157                3.36151527               46.65625240                0.54833948               -0.40138554               -0.42764120                1.62703188               -0.10797588                1.58197000               -1.97685537
               8.48292499                2.75541759               46.40346994                0.12029604                0.27008236               -0.04133314                1.02912603               -0.92653774                3.91228641               -4.46307994
               9.49060322                2.13298737               46.17508665                0.00727645                1.11863012               -0.47380733                0.35720474               -2.06576925                6.00629042               -3.00228376
              10.50529759                1.48287599               45.96400663                0.00995977                1.48003885               -0.81054522               -0.34461099               -3.25101035                7.95368347               -1.01387274
              11.52020399                0.80237485               45.77469348                0.01270012                1.14889944               -0.39208696               -1.11216685               -3.97003897                9.16484738                0.04158728
              12.52827558                0.10555605               45.58792119                0.01344408                0.54214056                0.22615320               -1.86407456               -3.69446213                8.43204553                1.04784649
              13.53104681               -0.58814229               45.38337542                0.10248803                0.31600795                0.45566500               -2.54165649               -2.46824866                6.56537527                2.91424989
              14.53459574               -1.26950251               45.15827195                0.33815821                0.57875212                0.62397287               -3.18863658               -0.96432280                4.91350030                4.26895683
              15.54262185               -1.93981483               44.91969819                0.72633565                1.00517857                1.02759805               -3.83141349               -0.29315370                2.94019483                2.43006884
              16.55469931               -2.60427076               44.65417025                1.00000000                1.20774639                1.48431579               -4.53403291               -0.18536853                1.65304639               -2.32732752
               7.09097616                4.95631877               46.82943219                0.90478788               -0.48836772               -0.75882422                2.11795219               -0.08413350                0.36441591                3.12391147
               8.08609248                4.35806062               46.52431833                0.38626100               -0.43793854               -0.25417786                1.17418926               -0.11891648                1.90797552               -2.87356366
               9.08221739                3.75727884               46.25036848                0.01731820                0.22161802                0.39827662                0.47132026               -1.84322117                8.24237990               -9.38123602
              10.09052484                3.12454772               46.07219379                0.00010000                1.35359017               -0.83578475                0.04992577               -4.40068449               14.84858050               -5.35962433
              11.10928919                2.46531318               45.92966665                0.00010000                2.00591912               -1.41607080               -0.73489068               -6.12760872               16.71071553               -2.20436160
              12.13064323                1.79088019               45.78853223                0.00010000                2.06578045               -1.12247169               -1.36221748               -6.96255494               16.90650408                0.04656441
              13.15060480                1.10417802               45.64941800                0.00010000                2.02242284               -0.49446288               -1.94293463               -6.82152959               17.09817270                2.25766086
              14.17109168                0.41292572               45.51115011                0.00424783                2.10266001               -0.24571169               -2.50225448               -5.22391965               15.67252010                5.36139926
              15.19265800               -0.26699328               45.34245970                0.14708949                1.63762730               -0.91137210               -2.57033204               -2.41531753               10.21828667                9.94935103
              16.20384423               -0.93117596               45.09226295                0.37772294                1.10481671                0.36901697               -3.19624606               -0.75053497                3.60393368                4.09427553
              17.21475434               -1.58932790               44.79018099                0.78554498                1.09101072                1.80689709               -4.06468570               -0.56546823                1.05876280               -2.79179348
               7.68578632                5.94898080               46.72754884                0.88165529               -0.39231524               -0.68511327                1.84908428               -0.05874712                0.05568049                3.04482872
               8.68186317                5.35643171               46.39052879                0.35444855               -0.31064279               -0.11391565                0.77939846                0.01390854                0.64530232               -2.86518155
               9.67957347                4.76338312               46.06549316                0.00604017                0.63460096                0.60277941               -0.20192375               -2.54307754               13.13097808               -9.91301619
              10.69455519                4.11627168               45.97814088                0.00010000                1.84197399               -0.51944308               -0.62718210               -5.31844612               24.88914288               -5.34635759
              11.71641295                3.45455457               45.88795186                0.00010000                2.37664302               -0.90048978               -1.11057455               -6.29451651               25.03854455               -2.60742481
              12.74208805                2.77992542               45.80293005                0.00010000                2.66932562               -1.05590525               -1.60063450               -6.94064905               25.46690531                0.09043583
              13.76979946                2.09566679               45.72018718                0.00010000                2.78258333               -0.98188051               -2.02804324               -6.95275118               25.65670066                2.79661838
              14.79773972                1.40694348               45.63760168                0.00784373                3.02958077               -0.95136487               -2.34343929               -6.68315377               26.28623521                5.66967772
              15.83039108                0.71227005               45.56559643                0.14538891                2.61030240               -1.89395725               -2.61481661               -3.63619001               15.80076753               10.49953657
              16.84994577                0.06756551               45.27164499                0.35583828                1.46513736               -0.06256786               -2.74335577               -0.42493029                2.43048513                3.77363147
              17.85969382               -0.56813281               44.92957956                0.76485577                0.97480572                2.00968807               -3.71482173               -0.09362284                0.08602120               -2.72642910
               8.27489939                6.94261651               46.62469214                0.86808290               -0.29310602               -0.58903302                1.58687229               -0.05752261                0.05816726                3.01177568
               9.27196833                6.35578231               46.25896026                0.33703522               -0.16917600               -0.01697569                0.38964340                0.06065706                0.45679687               -2.72206716
              10.27151587                5.76933443               45.90133644                0.00297262                1.05080685                0.61344978               -0.72605422               -3.18562248               17.40547134               -8.57064590
              11.29298447                5.11415886               45.87438545                0.00010000                2.41146224               -0.06695787               -1.11728833               -6.53786168               33.88835284               -5.65238111
              12.31974512                4.44730338               45.84563801                0.00010000                2.88667766               -0.61042214               -1.48697653               -7.13992924               33.89669503               -2.62927638
              13.35071802                3.76976209               45.81790756                0.00010000                3.23933027               -0.99693811               -1.82472550               -7.54223521               34.14657675                0.16047937
              14.38453172                3.08454041               45.79283376                0.00010000                3.50536645               -1.22021585               -2.09893600               -7.63172839               34.59821243                2.94796139
              15.42082535                2.39389843               45.77248071                0.01284785                3.73902238               -1.41297201               -2.28793467               -7.68506917               35.34356159                5.94895117
              16.45931217                1.69512757               45.76048591                0.15246200                2.74615681               -1.51096721               -2.37106646               -4.23381728               20.36021736                8.73973786
              17.47574849                1.06757268               45.43812392                0.36468853                1.24831782                0.09053300               -2.38276263               -0.44977497                2.50664997                2.82309190
              18.48427853                0.45086586               45.06612982                0.77020994                0.85300388                1.75811467               -3.43862439               -0.01934203                0.08397183               -3.14693018
               8.85830426                7.93720013               46.52246524                0.85621309               -0.19458698               -0.49381041                1.32419019               -0.05691667                0.05776922                3.04627940
               9.85635839                7.35609219               46.12812600                0.32279012               -0.04098957                0.08082523               -0.00134972                0.07486634                0.51630145               -2.65676406
              10.85748447                6.77565211               45.74303579                0.00214647                1.47353070                0.67062843               -1.22235575               -3.74951246               21.76393499               -8.17754693
              11.88582900                6.11493252               45.77336655                0.00010000                3.02633338                0.18057087               -1.54597362               -7.65212209               42.56458975               -5.37197644
              12.91801114                5.44234613               45.80301723                0.00010000                3.40886564               -0.41500192               -1.81432913               -8.17890653               42.63841209               -2.53919754
              13.95400632                4.75998666               45.83340344                0.00010000                3.75087098               -0.97121802               -2.02440879               -8.49994773               42.89050908                0.25312305
              14.99302855                4.07126248               45.86641710                0.00010000                3.97224286               -1.37834738               -2.15628348               -8.57910414               43.34863298                3.02510665
              16.03345117                3.37868404               45.90405323                0.01806133                3.95059600               -1.52604332               -2.17925607               -8.70368232               43.99083979                5.77025200
              17.07204047                2.68205071               45.94774066                0.15994461                2.58804015               -1.15531251               -2.00135827               -4.83096566               24.77930628                8.26239943
              18.08521198                2.06937617               45.59825050                0.37448542                1.03400726                0.21794742               -2.03215223               -0.43303919                2.65596925                2.34514170
              19.09272062                1.46702948               45.19657852                0.77628140                0.75086437                1.49895061               -3.18890504               -0.01346701                0.10687043               -3.61509494
               9.43597694                8.93274030               46.42058290                0.84535184               -0.09632590               -0.39821919                1.06024429               -0.05652835                0.06031955                3.05333195
              10.43501368                8.35739882               45.99784038                0.31032910                0.08541801                0.18230587               -0.39352820                0.07619686                0.62413246               -2.61051087
              11.43768530                7.78274700               45.58639695                0.00178690                1.91171664                0.75532780               -1.71146198               -4.25057669               26.18126881               -8.02025966
              12.47324801                7.11777028               45.67442083                0.00010000                3.67137728                0.37182148               -1.94217067               -8.65953229               51.20670800               -5.12602410
              13.51111285                6.43900334               45.76165357                0.00010000                3.92773527               -0.28968799               -2.10392949               -9.20416338               51.29466052               -2.34258540
              14.55180272                5.75033773               45.84940141                0.00010000                4.15697082               -0.96504376               -2.19146441               -9.46269665               51.55759022                0.35566628
              15.59425226                5.05697346               45.93966302                0.00010000                4.20803785               -1.45013186               -2.18257152               -9.45053064               52.01974379                3.04095426
              16.63596348                4.36337756               46.03427469                0.02339036                3.88742314               -1.53149889               -2.03517072               -9.36390007               52.54185342                5.74466302
              17.67200073                3.67202132               46.13244097                0.16765044                2.30727271               -0.89372771               -1.56186720               -5.08290746               29.07787224                8.12202400
              18.68210893                3.07193163               45.75443855                0.38448155                0.83509208                0.25753291               -1.67453503               -0.37093828                2.73835456                2.09997672
              19.68870257                2.48084487               45.32303794                0.78232919                0.65936362                1.27843427               -2.94450235               -0.01113593                0.12989362               -3.86901336
              10.00785665                9.92923575               46.31875799                0.83533482                0.00189722               -0.30290385                0.79479690               -0.05641823                0.06181377                3.02829159
              11.00787563                9.35973831               45.86781060                0.29918651                0.21224081                0.28708872               -0.78672943                0.06779864                0.75995099               -2.58503574
              12.01210147                8.79075867               45.43079383                0.00157337                2.42531921                0.84303519               -2.18990686               -4.71843525               30.66651712               -7.87857306
              13.05638201                8.12236895               45.57750021                0.00010000                4.46294737                0.47349003               -2.31203005               -9.44499846               59.86744984               -4.79378653
              14.10136042                7.43655237               45.72196694                0.00010000                4.52001256               -0.31449745               -2.35823221               -9.89087207               59.86543202               -2.06805698
              15.14678226                6.74068578               45.86580032                0.00010000                4.48088465               -0.98651031               -2.32501815               -9.93330690               60.11427192                0.42894443
              16.19097811                6.04225984               46.01223796                0.00010000                4.21715259               -1.42003570               -2.18378091               -9.84728298               60.65849627                2.94600765
              17.23112531                5.34805406               46.16394919                0.02899105                3.54250725               -1.50238169               -1.87979045               -9.53848039               61.09550692                5.68193336
              18.26182826                4.66417615               46.31619651                0.17554940                1.89221724               -0.69464874               -1.06591576               -5.10435022               33.31292155                8.08041231
              19.26896966                4.07452683               45.90864233                0.39456157                0.64215778                0.23843791               -1.29932591               -0.30849299                2.76950843                2.03653859
              20.27467141                3.49259816               45.44745104                0.78828923                0.57017530                1.07998673               -2.69222319               -0.01312294                0.14998712               -3.92532676
              10.57384345               10.92668222               46.21660789                0.82621245                0.10032822               -0.20846918                0.52689198               -0.05681003                0.07626362                3.00228902
              11.57484674               10.36314059               45.73782341                0.28944218                0.34212530                0.39525211               -1.18048923                0.04173965                0.95032805               -2.61467673
              12.58068596                9.79960770               45.27643315                0.00135264                3.18538051                0.90418053               -2.65854313               -5.23903075               35.32099875               -7.50156092
              13.63855435                9.12724008               45.48444257                0.00010000                5.71463042                0.16144639               -2.64740237               -9.87096510               68.59819002               -4.05648617
              14.69497857                8.43271339               45.68517877                0.00010000                5.44373818               -0.78707770               -2.57182492               -9.43460728               68.23725335               -1.61483381
              15.74742911                7.73060752               45.88212441                0.00010000                4.74798795               -1.01877794               -2.42440772               -9.05891115               68.40302756                0.41268284
              16.78993833                7.02857275               46.08218365                0.00010000                3.79242233               -1.07899765               -2.17117624               -9.09600840               69.20811952                2.50785248
              17.82327756                6.33332993               46.29139151                0.03498778                2.67513126               -1.20648418               -1.74321085               -9.09699657               69.76609238                5.13304141
              18.84344095                5.65812835               46.49930767                0.18381606                1.21197506               -0.49398626               -0.52406122               -5.02998642               37.64436013                7.78190870
              19.84751706                5.07670039               46.06240179                0.40473890                0.44282406                0.18040748               -0.90030331               -0.28354546                2.81964138                2.16133504
              20.85229743                4.50244461               45.57162574                0.79410491                0.47803763                0.89288261               -2.42135569               -0.01967259                0.18805718               -3.83900464
              11.13380371               11.92506637               46.11446537                0.81704118                0.19812255               -0.11526628                0.25992909               -0.05691673               -0.03014752                2.60473901
              12.13578494               11.36764335               45.60690149                0.28024245                0.47088262                0.50442000               -1.57825149               -0.02404950                1.39919307               -2.35052270
              13.14322137               10.80884228               45.12778295                0.00088965                4.50360378                0.87086776               -3.09073393               -6.04101794               40.51579381               -5.57017117
              14.22585701               10.12559788               45.40175823                0.00010000                8.30397317               -1.76112176               -2.92327004               -7.96810010               77.31850695               -2.41965713
              15.30930083                9.42081081               45.65400802                0.00010000                7.19438341               -1.53559981               -2.73285641               -6.49377906               76.04311801               -0.90795388
              16.36974468                8.72031022               45.89740216                0.00010000                4.85173548               -1.01728930               -2.48615620               -5.67422046               76.04640527                0.26281181
              17.40633554                8.02067989               46.14478622                0.00010000                2.49425511               -0.42160360               -2.14530077               -6.07913473               77.30703491                1.50018508
              18.41962979                7.32392438               46.40858548                0.04149420                0.57612634                0.11335330               -1.66661204               -6.66837448               78.53330718                3.31249192
              19.41785807                6.65429643               46.67617809                0.19265090               -0.03236487               -0.11862874                0.02337905               -4.76891177               42.57346340                5.58944935
              20.41898249                6.07813498               46.21790901                0.41519935                0.24657256                0.09940353               -0.46890900               -0.33943091                3.20718120                2.06744467
              21.42278952                5.51045582               45.69646643                0.79961810                0.38070293                0.71914762               -2.12788827               -0.03907728                0.10849907               -3.15234711
              11.68755115               12.92437689               46.00453422                0.90595334                0.30386879               -0.06894726               -0.03721722                0.25995275                1.19643942                2.20875752
              12.69058983               12.37322899               45.48181213                0.63796289                0.71799672                0.55856363               -1.94617691                0.11289749                3.83189784               -2.03597248
              13.70191108               11.81702506               45.01159734                0.48280861                8.83169885                0.81827763               -3.38497298               -8.19159590               46.55864127               -3.95403063
              14.86722381               11.09201764               45.34150768                0.44583110               13.42397785               -3.35802305               -3.09917268               -6.61450332               84.89332571               -1.35115706
              15.97039064               10.40200140               45.63143527                0.43615256                8.34259087               -1.88094150               -2.82743758               -2.97881465               82.62866486               -0.50506848
              17.03407563                9.71026174               45.91048876                0.44549042                4.71754224               -1.00484883               -2.50922769               -2.65994152               82.57383040                0.13989433
              18.06474148                9.02014068               46.19398261                0.47331689                1.11089495               -0.05392075               -2.10132281               -2.89264295               84.10716039                0.82583430
              19.05629353                8.33559699               46.49828117                0.52301445               -3.54446833                1.16726167               -1.58822397               -4.55287114               86.00300842                1.93398259
              19.99385212                7.65575577               46.81406206                0.59960674               -3.58622392                0.14593468                0.38666283               -5.24602178               48.74653078                3.78841923
              20.98456905                7.07868846               46.36864876                0.71140719               -0.34889534                0.05534810               -0.03696716               -0.38775454                6.11861189                1.88148248
              21.98687421                6.51682756               45.83301530                0.90160560                0.23051603                0.63717445               -1.76108357                0.22237945                1.65834519               -2.49956243
               6.14098777                3.10779767               48.07002026                1.00000000               -0.75611586               -0.83243875                2.78220886               -0.16809700               -2.00895047                2.27343390
               7.13342661                2.47229338               47.79228985                0.84057212               -0.75161044               -0.52034741                2.01800472               -0.14907495               -2.69295603               -1.25331079
               8.12595556                1.83382678               47.50118186                0.60222004               -1.02577238               -0.27322088                1.16607916               -0.56198652               -2.52760082               -1.09362935
               9.11291116                1.17958421               47.22712300                0.49741407               -1.43098906               -0.09528844                0.37385208               -0.69010237               -0.45608367               -0.28984366
              10.09733578                0.49701424               46.97767439                0.45299293               -1.32893810                0.15514017               -0.46724137               -0.59416974                1.77677248               -0.22674848
              11.08633240               -0.21561848               46.74813077                0.45408576               -0.50200453                0.39616273               -1.35087075               -0.34028540                2.90391865               -0.01038579
              12.08729569               -0.94475778               46.52117915                0.49812725                0.60893524                0.62957596               -2.21483213               -0.30242540                2.14912115                0.19529677
              13.09851111               -1.67143582               46.27703322                0.59124628                1.31516978                0.85071116               -3.01175241               -0.37543238                0.22113541                0.33696852
              14.11359909               -2.38621847               46.01189293                0.75137658                1.51843804                1.05346173               -3.77573755               -0.33836990               -1.71342704                0.48043897
              15.12887987               -3.09014469               45.72860393                1.00000000                1.53528918                1.25750371               -4.56008234               -0.21370845               -2.22772407                1.07384060
              16.14430487               -3.78893624               45.45192474                1.00000000                1.54250011                1.55234244               -5.36998174               -0.22997120               -1.81431495               -1.73110480
               6.77481109                4.09947328               47.95517451                0.98897570               -0.58897860               -0.82178882                2.43641190               -0.06549503                0.56358389                2.78411488
               7.76892131                3.46708990               47.67271385                0.53143218               -0.40604071               -0.43696892                1.66357196               -0.11892769                1.72907166               -2.10998202
               8.76669028                2.83109457               47.41382948                0.11421466                0.27475531               -0.03287583                1.04395829               -0.94990620                4.09534116               -4.66876000
               9.77441641                2.17863133               47.17861167                0.00736373                1.11525755               -0.50058066                0.34861727               -2.07310326                6.12982084               -3.16557355
              10.78899543                1.49856564               46.96041316                0.00995169                1.46995728               -0.80425588               -0.37500743               -3.24261480                8.01944172               -1.26434066
              11.80381556                0.78834315               46.76332684                0.01272710                1.15923394               -0.39783617               -1.16334927               -3.95199754                9.19831447               -0.18188083
              12.81218011                0.06153798               46.56891229                0.01378578                0.58357857                0.20934125               -1.94237946               -3.69121267                8.50856467                0.87389383
              13.81548713               -0.66292871               46.35742835                0.09753445                0.36948557                0.46487063               -2.65297273               -2.49759084                6.69842617                2.76490634
              14.81956982               -1.37568386               46.12566056                0.32763398                0.63072698                0.65532943               -3.33944806               -0.97588911                5.06949254                4.38118351
              15.82810167               -2.07756965               45.88044119                0.70758045                1.06134482                1.07753025               -4.02413728               -0.30533285                3.07313753                2.51075212
              16.84079671               -2.77341282               45.60768699                1.00000000                1.26950465                1.55740920               -4.76552436               -0.20402278                1.75913038               -2.39097817
               7.40444463                5.09136189               47.85096751                0.89219028               -0.50178594               -0.78374389                2.18890433               -0.08536683                0.36186076                3.26786934
               8.39942677                4.46355400               47.53620150                0.37213808               -0.45143078               -0.26382372                1.20190619               -0.12092293                2.02991095               -3.03044850
               9.39541601                3.83316926               47.25507095                0.01363783                0.22756325                0.41914327                0.47041043               -1.91228157                8.62087461               -9.86537391
              10.40397803                3.16957260               47.07241083                0.00010000                1.36778267               -0.83829178               -0.00770985               -4.45986520               15.17460512               -5.84224075
              11.42277166                2.48092912               46.92199806                0.00010000                2.01710404               -1.42118647               -0.80066420               -6.13015799               16.92773962               -2.68950614
              12.44432011                1.77642480               46.77446749                0.00010000                2.09858158               -1.14998795               -1.45486864               -6.98169761               17.21017404               -0.39435259
              13.46474330                1.05942904               46.62941112                0.00010000                2.07305060               -0.54054821               -2.06511816               -6.83713259               17.43269280                1.89481836
              14.48578112                0.33786159               46.48543441                0.00061007                2.19894734               -0.28218574               -2.64988924               -5.26097684               16.28525825                5.10042360
              15.50872224               -0.37311189               46.31628144                0.13889554                1.73605251               -0.89159803               -2.67360232               -2.48994479               10.78836467                9.79566463
              16.52050217               -1.06859408               46.05966323                0.36153638                1.15942564                0.38038150               -3.32690879               -0.78072133                3.75586556                4.14918525
              17.53191075               -1.75778806               45.74867026                0.77397639                1.14085807                1.86302433               -4.24019149               -0.58270355                1.08726780               -2.96430534
               8.02871954                6.08379840               47.74634435                0.86946689               -0.40240676               -0.70534501                1.91214598               -0.06053575                0.05669760                3.17910859
               9.02469547                5.46181343               47.39837876                0.34085028               -0.31467493               -0.12267490                0.79219345                0.02271898                0.69208964               -2.99360456
              10.02242604                4.83947744               47.06332845                0.00579538                0.63818888                0.61878662               -0.22976362               -2.57577717               13.50322045              -10.38021184
              11.03745925                4.16186549               46.97155253                0.00010000                1.85570133               -0.46914415               -0.69125006               -5.38685528               25.49110361               -5.91325205
              12.05954007                3.47014191               46.87636427                0.00010000                2.41112148               -0.88856621               -1.20995340               -6.33111050               25.58825796               -3.08031690
              13.08568168                2.76534339               46.78628932                0.00010000                2.72302965               -1.05254546               -1.73352829               -6.97820938               26.02598772               -0.33500024
              14.11400066                2.05072701               46.69910634                0.00010000                2.85634194               -0.98332322               -2.19827595               -6.99854917               26.28890661                2.43702637
              15.14280852                1.33142758               46.61321117                0.00406360                3.11129661               -0.95767251               -2.55026958               -6.71175210               26.97640366                5.41584260
              16.17622659                0.60648418               46.53815004                0.13749503                2.71774485               -1.85259021               -2.89827118               -3.73785763               16.61295071               10.16560466
              17.19716342               -0.06996202               46.24357976                0.34074643                1.56520038               -0.05709334               -2.87804364               -0.48984112                2.90790290                3.68463855
              18.20753060               -0.73615233               45.89157028                0.75429508                1.03671853                2.04789981               -3.89496952               -0.09042759                0.09743789               -3.00013054
               8.64720386                7.07725499               47.64082173                0.85609129               -0.30017488               -0.60547563                1.64157274               -0.05880529                0.05988721                3.14743130
               9.64420211                6.46110050               47.26283578                0.32376590               -0.16777296               -0.01996275                0.38648612                0.07295106                0.50227461               -2.84969040
              10.64384840                5.84554500               46.89384699                0.00278808                1.06871710                0.62766040               -0.77191156               -3.20995939               17.85821579               -8.94845907
              11.66557645                5.16018972               46.86278765                0.00010000                2.44115778               -0.02380973               -1.20345030               -6.59440317               34.68844339               -6.09530876
              12.69267156                4.46315779               46.83015248                0.00010000                2.92971835               -0.57298213               -1.61427062               -7.18372627               34.69523402               -3.06906231
              13.72417082                3.75537389               46.79884973                0.00010000                3.30082854               -0.96235302               -1.99528444               -7.58666376               34.96447520               -0.23414541
              14.75868813                3.03976258               46.77082932                0.00010000                3.58090462               -1.18324179               -2.31646746               -7.67526466               35.46269412                2.61710962
              15.79578891                2.31870814               46.74834213                0.00898348                3.83332785               -1.36342914               -2.56272284               -7.70955789               36.27406537                5.69456399
              16.83535468                1.58983631               46.73516104                0.14449458                2.87764779               -1.46218801               -2.72896018               -4.30821656               21.41983704                8.67428491
              17.85334187                0.93026405               46.41359000                0.34944805                1.35640738                0.12484095               -2.53724835               -0.53097245                3.10255459                2.69993279
              18.86248283                0.28316994               46.03080937                0.75959302                0.91409634                1.79465133               -3.63947519               -0.01834821                0.10504057               -3.46247401
               9.25985242                8.07168889               47.53593464                0.84445841               -0.19879283               -0.50795143                1.37186175               -0.05790466                0.05967021                3.18037882
              10.25786449                7.46141417               47.12802613                0.30999733               -0.03573904                0.08395272               -0.01861295                0.08792362                0.57416037               -2.78597142
              11.25913764                6.85203064               46.73049727                0.00199489                1.50469494                0.69082804               -1.28419052               -3.76955125               22.32856271               -8.53761850
              12.28795839                6.16138930               46.75738473                0.00010000                3.07718671                0.22426998               -1.65242580               -7.70741679               43.57316083               -5.76090077
              13.32068137                5.45868227               46.78413560                0.00010000                3.46926168               -0.36204742               -1.96748731               -8.22502202               43.66773808               -2.92195242
              14.35734362                4.74609633               46.81220317                0.00010000                3.82398731               -0.91190672               -2.22677635               -8.53609309               43.95149354               -0.09211394
              15.39716112                4.02706218               46.84366918                0.00010000                4.06000038               -1.30932432               -2.41240932               -8.60488799               44.46823958                2.74493362
              16.43854363                3.30415899               46.88082835                0.01397757                4.06726172               -1.45107475               -2.49634604               -8.71162070               45.22965013                5.59940666
              17.47850635                2.57724042               46.92588373                0.15181639                2.73333565               -1.10761063               -2.40971918               -4.89764870               26.06208286                8.33537537
              18.49321034                1.93253480               46.57713564                0.35906614                1.14227591                0.27147929               -2.20643344               -0.51087878                3.30136032                2.24339029
              19.50135187                1.29974069               46.16366697                0.76548632                0.81415274                1.54521605               -3.41095423               -0.00986190                0.13226046               -3.93512208
               9.86659520                9.06709596               47.43138147                0.83388902               -0.09763729               -0.41078284                1.10113347               -0.05758973                0.06239221                3.18551268
              10.86561883                8.46277955               46.99375634                0.29789557                0.09435240                0.19063182               -0.42402354                0.08845156                0.70000198               -2.74074592
              11.86848225                7.85936156               46.56891302                0.00164944                1.95788336                0.78165152               -1.78414338               -4.27030592               26.87445354               -8.36860178
              12.90477650                7.16467512               46.65439326                0.00010000                3.74909177                0.41540333               -2.06591573               -8.71113319               52.43894780               -5.47576842
              13.94346408                6.45591685               46.73977917                0.00010000                4.01462760               -0.23316849               -2.27767596               -9.24340038               52.55721433               -2.66945091
              14.98506905                5.73713575               46.82642682                0.00010000                4.25318102               -0.89522977               -2.41715338               -9.48114030               52.86361088                0.07211795
              16.02852770                5.01357609               46.91655551                0.00010000                4.31546031               -1.36669170               -2.46245559               -9.45180761               53.40547593                2.82607999
              17.07137825                4.28968665               47.01242559                0.01917582                4.02490988               -1.44387785               -2.37134229               -9.36835706               54.11992418                5.63922116
              18.10902590                3.56768410               47.11485123                0.15922406                2.46228843               -0.84603317               -2.00254998               -5.14765626               30.57923847                8.29574947
              19.12062402                2.93569364               46.73682750                0.36882620                0.94239523                0.32077694               -1.86456167               -0.43654583                3.40377710                2.03421208
              20.12787381                2.31407426               46.29249207                0.77139922                0.72497849                1.33548909               -3.18375014               -0.00643856                0.15862113               -4.17483685
              10.46733344               10.06347323               47.32687082                0.82419033                0.00344867               -0.31401877                0.82895141               -0.05768909                0.06377576                3.15791573
              11.46736793                9.46522681               46.85973221                0.28717252                0.22512581                0.30021900               -0.83012109                0.07767492                0.85973024               -2.71536770
              12.47183596                8.86766367               46.40848224                0.00144228                2.49062541                0.87167661               -2.27435260               -4.74343527               31.50312267               -8.21700981
              13.51718043                8.16969736               46.55370886                0.00010000                4.57583848                0.51010670               -2.44805282               -9.49711116               61.33659572               -5.10056449
              14.56335273                7.45401890               46.69748435                0.00010000                4.64405680               -0.26769094               -2.54604581               -9.91952966               61.36683702               -2.33375076
              15.61006157                6.72819173               46.84143466                0.00010000                4.61106746               -0.92355537               -2.56387208               -9.92823210               61.66508521                0.21311228
              16.65557407                5.99972834               46.98909582                0.00010000                4.35034560               -1.33756083               -2.47172866               -9.81936009               62.30819397                2.79298080
              17.69706848                5.27528144               47.14370272                0.02457368                3.69860801               -1.41036267               -2.21180107               -9.54152006               63.03710388                5.61676420
              18.72954623                4.56031976               47.30351048                0.16685857                2.05103926               -0.64284095               -1.52177462               -5.16875615               35.04414931                8.33803570
              19.73808927                3.93895034               46.89474410                0.37863108                0.74578133                0.30490900               -1.49839681               -0.36155965                3.43872955                2.01381686
              20.74446186                3.32645048               46.41937837                0.77719227                0.63725936                1.14596260               -2.94235647               -0.00808994                0.18140148               -4.20378245
              11.06193427               11.06081559               47.22200889                0.81531665                0.10476172               -0.21807860                0.55429344               -0.05815150                0.07900955                3.13066544
              12.06298188               10.46878393               46.72574659                0.27798648                0.36043601                0.41296729               -1.23656881                0.04496678                1.07817587               -2.74621626
              13.06914299                9.87679509               46.24937711                0.00123105                3.27485832                0.92919196               -2.74875872               -5.28033476               36.31809675               -7.81537149
              14.12847905                9.17487725               46.45726075                0.00010000                5.87180673                0.17849882               -2.79133485               -9.92909896               70.31921467               -4.30302823
              15.18657912                8.45056303               46.65852516                0.00010000                5.61579540               -0.76311152               -2.76680266               -9.45364550               69.97565248               -1.80788423
              16.24079496                7.71866465               46.85675242                0.00010000                4.92358403               -0.97737927               -2.66694552               -9.03198652               70.18487325                0.26905966
              17.28505080                6.98682488               47.05921147                0.00010000                3.95807392               -1.01657374               -2.45291628               -9.03730437               71.09996751                2.41171938
              18.31995644                6.26147939               47.27265244                0.03031011                2.84655370               -1.11793226               -2.04969915               -9.08070140               72.09357579                5.07427058
              19.34198188                5.55482728               47.49206489                0.17488291                1.36528385               -0.42683079               -0.97899276               -5.10068035               39.63141049                8.09287829
              20.34726211                4.94179182               47.05249112                0.38844649                0.53649298                0.24552291               -1.10051206               -0.33147558                3.48367635                2.18713499
              21.35271174                4.33699351               46.54624655                0.78278134                0.54496223                0.96409935               -2.67508401               -0.01534176                0.22321274               -4.08216139
              11.65023371               12.05911166               47.11716529                0.80638257                0.20540445               -0.12303521                0.28076911               -0.05831772               -0.03335497                2.71783369
              12.65228776               11.47348615               46.59078631                0.26911629                0.49511143                0.52624485               -1.64715766               -0.03420169                1.57361142               -2.46751874
              13.66013594               10.88624751               46.09639623                0.00082074                4.62713783                0.87709585               -3.18490768               -6.09349922               41.70534626               -5.79521646
              14.74483052               10.17326734               46.37179668                0.00010000                8.51782374               -1.77768730               -3.06990509               -8.02101479               79.29536078               -2.57082342
              15.83049242                9.43875667               46.62573675                0.00010000                7.41647382               -1.53686126               -2.92879070               -6.50356483               77.99450649               -1.01011205
              16.89315999                8.70864415               46.87142921                0.00010000                5.07604120               -1.00279044               -2.72533274               -5.64546528               78.02700232                0.19306166
              17.93201324                7.97939687               47.12214497                0.00010000                2.71460291               -0.39313891               -2.41309899               -6.01286280               79.38557109                1.45663704
              18.94745205                7.25292279               47.39083073                0.03659725                0.76034799                0.15943960               -1.93116831               -6.63134159               81.24408128                3.26489780
              19.94722020                6.55178314               47.67447764                0.18338011                0.09207379                0.00286310               -0.41825873               -4.79106146               44.86829348                5.83597866
              20.94929353                5.94386080               47.21235292                0.39861062                0.32657210                0.16008501               -0.66106945               -0.39811523                3.87854618                2.12838762
              21.95375164                5.34573246               46.67404181                0.78803095                0.44581177                0.79174541               -2.37688631               -0.03799206                0.14065613               -3.33175008
              12.23201892               13.05835488               47.00422570                0.90072632                0.31430719               -0.07567783               -0.02425727                0.27391577                1.24665908                2.30613458
              13.23516200               12.47930883               46.46196393                0.63261245                0.77364454                0.58226763               -2.02639836                0.08652983                4.13596258               -2.13610456
              14.24749181               11.89433701               45.97726990                0.48170036                9.01938030                0.80894915               -3.48048146               -8.26367916               47.98706792               -4.11963030
              15.41554960               11.13932350               46.30978621                0.44578256               13.68196011               -3.39438369               -3.24381766               -6.65365157               87.05447922               -1.41483226
              16.52113102               10.41982580               46.60223441                0.43622888                8.58479242               -1.89308638               -3.01870043               -2.97187344               84.73186553               -0.54144369
              17.58724545                9.69860884               46.88431506                0.44527447                4.96919440               -1.00353105               -2.74064010               -2.63463951               84.69904164                0.12195967
              18.62051490                8.97896210               47.17183247                0.47230691                1.38489399               -0.04347716               -2.35687878               -2.84686648               86.32176911                0.82221657
              19.61494333                8.26466818               47.48145334                0.52049268               -3.26461324                1.17453941               -1.82374927               -4.45474988               88.97075914                1.90909749
              20.55522264                7.55488454               47.81605430                0.59488476               -3.47964198                0.31013977               -0.04248983               -5.18348954               51.38052928                3.97911517
              21.54535049                6.94499352               47.36749849                0.70299451               -0.35070379                0.11327212               -0.21139550               -0.49710984                6.93159230                1.95737881
              22.54820856                6.35282842               46.81433254                0.89572793                0.28580740                0.70959549               -1.99399843                0.22918189                1.76206640               -2.62811018
               6.40218961                3.24741482               49.09817917                1.00000000               -0.76980286               -0.85224939                2.84463974               -0.17594966               -2.05723739                2.33646262
               7.39449159                2.58069924               48.81264990                0.83071575               -0.76772648               -0.52952644                2.05247201               -0.16021244               -2.78624806               -1.33243467
               8.38683509                1.91093768               48.51288453                0.59793452               -1.04035774               -0.27843850                1.17804373               -0.56258828               -2.63845737               -1.07581985
               9.37368443                1.22524965               48.23075532                0.49597582               -1.43052610               -0.08615912                0.35276646               -0.67815437               -0.55943422               -0.30471517
              10.35822456                0.51151155               47.97272883                0.45269245               -1.31933737                0.17539426               -0.52345134               -0.58170945                1.63692465               -0.23434858
              11.34729768               -0.23187792               47.73418197                0.45392009               -0.50838434                0.42784434               -1.44262842               -0.33350091                2.76409844               -0.01477859
              12.34805688               -0.99190540               47.49840115                0.49693305                0.59046670                0.67073562               -2.34594437               -0.28917851                2.06073157                0.19378945
              13.35910702               -1.75023847               47.24608140                0.58816796                1.31878921                0.89931116               -3.18530598               -0.35868644                0.18655774                0.33972885
              14.37443266               -2.49739922               46.97308102                0.74542085                1.56228756                1.11318692               -3.99313444               -0.33034787               -1.73958378                0.47246310
              15.39035277               -3.23392561               46.68173919                1.00000000                1.60946427                1.32665334               -4.81880384               -0.21753960               -2.27361814                1.07157918
              16.40662195               -3.96516081               46.39675633                1.00000000                1.62691767                1.63249711               -5.66906593               -0.24668355               -1.86933005               -1.75841025
               7.06714571                4.23889233               48.97987039                0.97526695               -0.60176709               -0.84542500                2.50236015               -0.07104723                0.64038376                2.89892071
               8.06112803                3.57540397               48.68952384                0.51437641               -0.41058566               -0.44562484                1.69793520               -0.13216828                1.88446461               -2.24529612
               9.05893399                2.90815329               48.42434911                0.10811645                0.27439570               -0.02326406                1.06226510               -0.97127196                4.29084968               -4.88336529
              10.06661595                2.22438806               48.18205900                0.00746507                1.10186320               -0.52438063                0.34124936               -2.07411936                6.26421700               -3.36194540
              11.08097126                1.51326550               47.95650648                0.00997206                1.45276024               -0.79698021               -0.40731098               -3.22123851                8.10031803               -1.54582696
              12.09567115                0.77240052               47.75142649                0.01280710                1.16870541               -0.40457069               -1.22067253               -3.91637896                9.24663113               -0.44468555
              13.10434536                0.01480195               47.54907360                0.01419842                0.62979535                0.18928761               -2.02970735               -3.67055114                8.59575697                0.65376826
              14.10826706               -0.74124536               47.33031597                0.09258064                0.43136949                0.46949197               -2.77490720               -2.51248970                6.83734826                2.56959689
              15.11297275               -1.48626735               47.09148299                0.31728962                0.68955550                0.69148773               -3.50006440               -0.98249512                5.22738455                4.48855289
              16.12205817               -2.22065908               46.83921544                0.68896693                1.12087775                1.12973926               -4.22400872               -0.31742691                3.20859654                2.59392214
              17.13539031               -2.94883584               46.55885976                1.00000000                1.33321387                1.63317597               -5.00238982               -0.22449232                1.86877991               -2.45616012
               7.72774539                5.23050632               48.87321027                0.87971192               -0.51581286               -0.80917929                2.26207422               -0.08667174                0.35785354                3.41845521
               8.72258726                4.57178674               48.54835646                0.35799374               -0.46599166               -0.27393136                1.22959283               -0.12205492                2.15636864               -3.19789077
               9.71842555                3.91047240               48.25977668                0.01343072                0.22512907                0.44247755                0.47165666               -1.97472915                8.99766822              -10.37756411
              10.72708984                3.21476204               48.07203959                0.00010000                1.36808905               -0.83791257               -0.06795059               -4.50874776               15.50885164               -6.36588178
              11.74578733                2.49557195               47.91365337                0.00010000                2.01719050               -1.42358422               -0.87095863               -6.11306538               17.17123344               -3.23434758
              12.76743365                1.76003067               47.75943486                0.00010000                2.12521992               -1.17786742               -1.55608132               -6.97485080               17.53089270               -0.91153264
              13.78829173                1.01188035               47.60811563                0.00010000                2.12464381               -0.59064161               -2.20089650               -6.82844620               17.78649474                1.44081003
              14.80992652                0.25915137               47.45815232                0.00010000                2.29523747               -0.32010167               -2.81666223               -5.27463913               16.95806978                4.73666758
              15.83419648               -0.48356946               47.28898766                0.13074312                1.83230995               -0.85150532               -2.78844426               -2.55867243               11.41795565                9.51371382
              16.84657272               -1.21133083               47.02572477                0.34537584                1.21445701                0.39952916               -3.46215340               -0.81512094                3.91985104                4.17433201
              17.85848562               -1.93249729               46.70537716                0.76257040                1.19128980                1.92806519               -4.41978531               -0.60308497                1.11521070               -3.17384682
               8.38285144                6.22270874               48.76579176                0.85733612               -0.41305761               -0.72657429                1.97917546               -0.06215684                0.05754718                3.31637651
               9.37872086                5.56992534               48.40637266                0.32715524               -0.31936670               -0.13228016                0.80636765                0.03477037                0.74335890               -3.13506611
              10.37646411                4.91700284               48.06089789                0.00553022                0.63102878                0.63620163               -0.25679922               -2.59963869               13.88625277              -10.87561594
              11.39134144                4.20762981               47.96431588                0.00010000                1.84886100               -0.41707757               -0.75691546               -5.44255106               26.10700944               -6.50791722
              12.41344133                3.48479381               47.86375279                0.00010000                2.42621499               -0.87105739               -1.31551789               -6.34931233               26.15326951               -3.60842249
              13.43986574                2.74884317               47.76825949                0.00010000                2.76072045               -1.04326668               -1.87872899               -6.99538267               26.59895866               -0.83410352
              14.46865573                2.00298912               47.67622166                0.00010000                2.91791754               -0.97802933               -2.38914313               -7.02445468               26.93295408                1.98488246
              15.49822409                1.25235261               47.58659629                0.00032941                3.18128854               -0.94894218               -2.78822405               -6.71190811               27.65682068                5.04439411
              16.53228151                0.49670255               47.50763100                0.12962752                2.82297459               -1.77754816               -3.22656255               -3.83782752               17.51756434                9.63897856
              17.55468358               -0.21266850               47.21408411                0.32575647                1.66900169               -0.03268590               -3.02960738               -0.56992794                3.49459695                3.52559990
              18.56566154               -0.91027454               46.85168017                0.74384487                1.09779577                2.10084927               -4.09210713               -0.08785532                0.11156140               -3.34951034
               9.03206905                7.21597484               48.65752360                0.84419624               -0.30804829               -0.62303867                1.70094329               -0.06020815                0.06191897                3.28763540
              10.02898857                6.56914114               48.26668998                0.31055190               -0.16703688               -0.02365730                0.38431226                0.08898500                0.55563182               -2.98877838
              11.02872831                5.92319643               47.88589821                0.00259172                1.07296414                0.64154335               -0.81789995               -3.22438134               18.32774585               -9.34684584
              12.05044785                5.20642049               47.85031645                0.00010000                2.44297075                0.02395444               -1.29189155               -6.63665917               35.50404867               -6.57296956
              13.07758773                4.47815080               47.81335260                0.00010000                2.94414197               -0.52567135               -1.74977216               -7.20745109               35.50543872               -3.55948264
              14.10933069                3.73916533               47.77800187                0.00010000                3.33527385               -0.91379414               -2.18287058               -7.60970832               35.78882698               -0.69751756
              15.14429320                2.99231976               47.74650441                0.00010000                3.63221254               -1.12770815               -2.56338744               -7.69401892               36.32382523                2.19968410
              16.18197494                2.24017253               47.72122625                0.00509206                3.90839182               -1.28819473               -2.88468077               -7.69173288               37.17958723                5.33274307
              17.22246104                1.48087957               47.70590671                0.13653060                3.00881549               -1.38172610               -3.15762150               -4.37318683               22.59950506                8.49170999
              18.24215125                0.78801545               47.38737895                0.33437911                1.47397789                0.18374871               -2.71916594               -0.62937572                3.84076313                2.50481604
              19.25194060                0.10951969               46.99334031                0.74908224                0.97893487                1.84594383               -3.87011884               -0.01749429                0.13174308               -3.85578634
               9.67531468                8.21024797               48.54990248                0.83281782               -0.20357078               -0.52302302                1.42340594               -0.05927749                0.06170553                3.32007756
              10.67327897                7.56945220               48.12775374                0.29712131               -0.03087784                0.08683416               -0.03617492                0.10396723                0.64398395               -2.92392752
              11.67469712                6.92983371               47.71735198                0.00182961                1.51874548                0.70967777               -1.34435599               -3.77670733               22.91427671               -8.91267861
              12.70365388                6.20810890               47.74031803                0.00010000                3.09251696                0.27551458               -1.76219284               -7.74201759               44.59705830               -6.18144815
              13.73654746                5.47428039               47.76366749                0.00010000                3.49243653               -0.29426108               -2.13130009               -8.24528813               44.70623427               -3.35079276
              14.77350261                4.73056729               47.78886791                0.00010000                3.86103488               -0.83083698               -2.45146103               -8.54387579               45.01346492               -0.49755890
              15.81376816                3.98043496               47.81816891                0.00010000                4.11635041               -1.21256717               -2.70766382               -8.59543829               45.57768954                2.39212182
              16.85582962                3.22658872               47.85412631                0.00996108                4.16033414               -1.34424548               -2.87614124               -8.66378161               46.43665894                5.34973757
              17.89697484                2.46906802               47.89954628                0.14361746                2.88131640               -1.02850072               -2.90699102               -4.94298494               27.47878803                8.31955335
              18.91345595                1.79100648               47.55412184                0.34378771                1.26641666                0.34959782               -2.41491957               -0.60156503                4.10684733                2.07863432
              19.92230318                1.12664434               47.12835943                0.75494532                0.88472276                1.60585216               -3.67130082               -0.00595132                0.16446349               -4.32305996
              10.31247504                9.20551438               48.44260557                0.82246594               -0.09928725               -0.42406592                1.14514237               -0.05892097                0.06460472                3.32346315
              11.31148217                8.57087782               47.98935991                0.28545115                0.10312090                0.19942569               -0.45607426                0.10277194                0.79278644               -2.87817577
              12.31453746                7.93738998               47.55071408                0.00149787                1.98393254                0.80603409               -1.85708928               -4.27284416               27.59426727               -8.73249686
              13.35116082                7.21193078               47.63310252                0.00010000                3.78430561                0.46906297               -2.19312137               -8.73332324               53.68632312               -5.85112291
              14.39022357                6.47226558               47.71610005                0.00010000                4.05688895               -0.15745082               -2.46441413               -9.24791477               53.82839499               -3.03509594
              15.43229860                5.72254859               47.80105834                0.00010000                4.30697199               -0.79724333               -2.67039396               -9.46136414               54.16912057               -0.25996932
              16.47636301                4.96806842               47.89041390                0.00010000                4.38838203               -1.24857304               -2.79083029               -9.40775996               54.78141723                2.55751112
              17.52006624                4.21328762               47.98684785                0.01494394                4.14102832               -1.32131118               -2.78475527               -9.30678753               55.65983004                5.48389682
              18.55918358                3.46030956               48.09238997                0.15086549                2.62386958               -0.76724070               -2.54562687               -5.17925970               32.21866565                8.40387353
              19.57254363                2.79500741               47.71714732                0.35334165                1.06811340                0.40665363               -2.09269272               -0.51262031                4.24128417                1.91657679
              20.58054585                2.14163674               47.25936294                0.76067973                0.80022148                1.40618513               -3.46608968               -0.00068091                0.19509860               -4.53632282
              10.94340938               10.20176665               48.33533702                0.81303165                0.00494271               -0.32566633                0.86562918               -0.05893413                0.06607461                3.29349752
              11.94345880                9.57344071               47.85120818                0.27532129                0.23889497                0.31421720               -0.87610777                0.08738031                0.97889837               -2.85226873
              12.94818728                8.94595439               47.38530677                0.00129758                2.53265082                0.89981508               -2.35652268               -4.74771389               32.37247667               -8.56295362
              13.99411182                8.21749016               47.52853915                0.00010000                4.63920405                0.55804542               -2.58761837               -9.50966271               62.82511253               -5.42768760
              15.04097136                7.47113137               47.67104602                0.00010000                4.71803354               -0.19811379               -2.74842609               -9.90456791               62.87822502               -2.62917878
              16.08847249                6.71462242               47.81452288                0.00010000                4.69512888               -0.82772111               -2.83465627               -9.87631049               63.21845683               -0.03788011
              17.13487393                5.95546350               47.96280339                0.00010000                4.44901191               -1.21552118               -2.81620189               -9.73926411               63.95496730                2.60629576
              18.17745273                5.20016249               48.11971317                0.02016150                3.83979611               -1.28001494               -2.63393344               -9.47554364               64.93650010                5.53134635
              19.21166986                4.45372321               48.28576102                0.15826635                2.22118184               -0.56453983               -2.08886677               -5.19880193               36.90831998                8.55352369
              20.22187637                3.79913955               47.87867439                0.36288488                0.86805248                0.39134282               -1.73814596               -0.42449366                4.28532437                1.95178218
              21.22903091                3.15476804               47.38860391                0.76625615                0.71545406                1.22505995               -3.23786843               -0.00190172                0.22127497               -4.52565824
              11.56794824               11.19900105               48.22769375                0.80447739                0.10937966               -0.22802092                0.58363309               -0.05962886                0.08199246                3.26520582
              12.56904204               10.57716216               47.71309204                0.26638527                0.37927472                0.43174657               -1.29617447                0.04763326                1.23509382               -2.88428140
              13.57553373                9.95538629               47.22145797                0.00109902                3.33742765                0.95453810               -2.83330530               -5.29699129               37.35680790               -8.13105656
              14.63579059                9.22309169               47.42861587                0.00010000                5.97331083                0.20828935               -2.93786689               -9.93855474               72.06140581               -4.56384358
              15.69499995                8.46830330               47.62984271                0.00010000                5.73248368               -0.71160262               -2.97670787               -9.42552204               71.72879536               -2.02102250
              16.75044026                7.70599417               47.82878550                0.00010000                5.05188562               -0.90068021               -2.94403447               -8.95706417               71.97623507                0.10327221
              17.79603766                6.94375800               48.03312533                0.00010000                4.09276962               -0.91359339               -2.79707258               -8.92676763               73.00308612                2.29977217
              18.83229565                6.18768732               48.25039753                0.02567606                3.00964099               -0.98705319               -2.45430222               -9.00066102               74.37543327                5.02228410
              19.85623048                5.44901876               48.47972782                0.16595482                1.53566356               -0.33483110               -1.55505287               -5.14105811               41.74109641                8.38439186
              20.86300893                4.80283427               48.04039155                0.37239443                0.65101729                0.32779016               -1.34275426               -0.38839810                4.32672119                2.18701514
              21.86925083                4.16613793               47.51812406                0.77163013                0.62419020                1.04833922               -2.97525156               -0.00993579                0.26704383               -4.35590033
              12.18589457               12.19720623               48.12008076                0.79576541                0.21316591               -0.13111342                0.30299940               -0.06007766               -0.03682674                2.83645126
              13.18802623               11.58207564               47.57395834                0.25821884                0.52116738                0.54947549               -1.72072538               -0.04691179                1.78361501               -2.59030563
              14.19631792               10.96504515               47.06408479                0.00075196                4.71987362                0.87494074               -3.27266160               -6.10616372               42.94913390               -6.02509049
              15.28242371               10.22165595               47.34036013                0.00010000                8.66202575               -1.76748739               -3.21644452               -8.02937700               81.30066879               -2.72815321
              16.36955844                9.45689932               47.59543220                0.00010000                7.57264055               -1.50630502               -3.13839896               -6.47739878               79.96606589               -1.12280423
              17.43387652                8.69660882               47.84289550                0.00010000                5.25434980               -0.95324723               -2.99895645               -5.58447720               80.02568986                0.11252624
              18.47464543                7.93719163               48.09652424                0.00010000                2.91511121               -0.32739951               -2.74501323               -5.90932353               81.49484711                1.40862535
              19.49217874                7.18042143               48.36996212                0.03170201                0.95281575                0.24232066               -2.29922636               -6.54869090               83.91121975                3.23501725
              20.49370175                6.44702659               48.66781292                0.17424035                0.24052455                0.15829924               -0.98330266               -4.77695048               47.27278833                6.07735265
              21.49698923                5.80569535               48.20468762                0.38226480                0.42615533                0.23553136               -0.89560258               -0.46890141                4.72764960                2.17688673
              22.50222485                5.17573483               47.64892871                0.77661074                0.52356222                0.87729910               -2.67091869               -0.03622153                0.18168696               -3.52732308
              12.79700787               13.19637878               48.00404907                0.89554742                0.32570135               -0.08274513               -0.01092663                0.28861815                1.29939811                2.40838075
              13.80026488               12.58815167               47.44128416                0.62729907                0.84111445                0.60760293               -2.11236840                0.04918045                4.48452668               -2.24121978
              14.81383015               11.97288510               46.94198771                0.48059010                9.15420032                0.78399466               -3.56327484               -8.26926325               49.48188072               -4.28903058
              15.98334889               11.18774194               47.27663133                0.44573137               13.83344736               -3.39140048               -3.38609641               -6.64287688               89.25322629               -1.47991893
              17.09049910               10.43817720               47.57106126                0.43630616                8.75547603               -1.87221124               -3.21994984               -2.94656942               86.86127696               -0.58176394
              18.15845841                9.68692923               47.85567596                0.44501494                5.17697411               -0.96795950               -3.00260132               -2.59017108               86.84786851                0.10077507
              19.19403858                8.93721001               48.14684503                0.47130710                1.65142362                0.00183761               -2.67272912               -2.78045956               88.57717064                0.82024731
              20.19148688                8.19253373               48.46180619                0.51792757               -2.93105179                1.21123043               -2.16212314               -4.32044917               91.89706240                1.90419273
              21.13541755                7.45218475               48.81321226                0.59021646               -3.32821098                0.51581605               -0.59325093               -5.07786197               54.12343738                4.17189601
              22.12492266                6.80754489               48.36442085                0.69472826               -0.34850485                0.18495407               -0.42723471               -0.63169893                7.92662339                2.02903687
              23.12844745                6.18368392               47.79313534                0.88994597                0.35247922                0.79490904               -2.26999131                0.23616192                1.87604671               -2.76340729
               6.67090155                3.39114447               50.12691305                1.00000000               -0.79052639               -0.87238868                2.92431477               -0.18373427               -2.10252623                2.42495593
               7.66299629                2.69189681               49.83333929                0.82097154               -0.79102782               -0.54193862                2.09821670               -0.17460295               -2.87986031               -1.40538776
               8.65508099                1.98938123               49.52474273                0.59356197               -1.05590523               -0.28461168                1.19490461               -0.56160136               -2.75432588               -1.05897976
               9.64187818                1.27088256               49.23417833                0.49445443               -1.42166829               -0.07744057                0.33150558               -0.66394415               -0.67212974               -0.31969476
              10.62664763                0.52477196               48.96720536                0.45246566               -1.29680649                0.19526010               -0.58345378               -0.56561553                1.49019131               -0.24146595
              11.61594205               -0.25040310               48.71927820                0.45366098               -0.50183709                0.45996431               -1.54207824               -0.32604122                2.61813994               -0.01921792
              12.61661089               -1.04222689               48.47426026                0.49579347                0.58101694                0.71257504               -2.48761695               -0.27587509                1.96558539                0.19193508
              13.62756239               -1.83311037               48.21332710                0.58519743                1.32693673                0.95026759               -3.37129946               -0.34108205                0.14498210                0.34237343
              14.64314962               -2.61357316               47.93203025                0.73967629                1.60848988                1.17537202               -4.22292174               -0.32092087               -1.77101066                0.46510384
              15.65973219               -3.38366561               47.63222786                0.99754479                1.68671805                1.39888229               -5.09071258               -0.22044408               -2.32293865                1.06795967
              16.67688398               -4.14831131               47.33854342                1.00000000                1.71517933                1.71544585               -5.98153371               -0.26460143               -1.92662002               -1.78785134
               7.36831187                4.38242059               50.00522171                0.96165065               -0.61799902               -0.86674245                2.58172337               -0.07392714                0.72350540                3.03304673
               8.36213188                3.68647743               49.70667255                0.49767702               -0.41698805               -0.45747241                1.73896862               -0.14470167                2.05095877               -2.38180360
               9.35997211                2.98653511               49.43507478                0.10189738                0.27057485               -0.01560145                1.08340301               -0.98820168                4.49827340               -5.11113593
              10.36754338                2.27010815               49.18543666                0.00757249                1.08310948               -0.54422346                0.33326825               -2.07051796                6.40844274               -3.59393843
              11.38163430                1.52672456               48.95226695                0.01001966                1.43188442               -0.78880489               -0.44368532               -3.18790812                8.19475936               -1.85927939
              12.39618107                0.75419655               48.73891339                0.01293817                1.17857370               -0.41178771               -1.28573265               -3.86460252                9.30889912               -0.74769893
              13.40520577               -0.03510114               48.52831815                0.01467876                0.68218182                0.16620390               -2.12538966               -3.63297014                8.69503811                0.38483973
              14.40982470               -0.82360769               48.30193021                0.08779552                0.50061292                0.47124955               -2.90603670               -2.51050927                6.98336831                2.32256251
              15.41521803               -1.60181944               48.05565928                0.30710314                0.75360616                0.72937678               -3.66754189               -0.98549008                5.38910587                4.58964788
              16.42489682               -2.36967678               47.79596101                0.67062393                1.18328199                1.18447474               -4.42957836               -0.32799587                3.34777625                2.67797790
              17.43888367               -3.13115685               47.50763919                0.98893062                1.39868459                1.71129563               -5.24473026               -0.24669686                1.98293714               -2.52623445
               8.06130933                5.37380963               49.89620899                0.86732322               -0.53216021               -0.83039888                2.34048380               -0.08638504                0.35331860                3.58069113
               9.05598773                4.68274736               49.56079336                0.34383575               -0.48115469               -0.28494213                1.25829172               -0.12078913                2.29181691               -3.37437169
              10.05168624                3.98906920               49.26450409                0.01316375                0.21453246                0.46542402                0.47205126               -2.02567551                9.37381501              -10.92022554
              11.06027838                3.25999809               49.07105182                0.00010000                1.35574155               -0.83389279               -0.13118490               -4.54360904               15.85386811               -6.93380799
              12.07880107                2.50899586               48.90457889                0.00010000                2.00986626               -1.42251615               -0.94649271               -6.08046912               17.44212222               -3.84043008
              13.10047570                1.74136115               48.74334586                0.00010000                2.14773284               -1.20511192               -1.66619167               -6.94438755               17.86787308               -1.50786223
              14.12175572                0.96109718               48.58539319                0.00010000                2.17973977               -0.64314840               -2.35028389               -6.79646784               18.15627325                0.88855886
              15.14407050                0.17631462               48.42910117                0.00010000                2.38765926               -0.35753872               -3.00012563               -5.26859586               17.69337597                4.25844656
              16.16950891               -0.59898562               48.26051256                0.12258282                1.92195944               -0.79179312               -2.91015422               -2.62093558               12.11155919                9.07679054
              17.18250969               -1.35997611               47.99042016                0.32929380                1.27006350                0.42862913               -3.59597513               -0.84952044                4.09764150                4.15711072
              18.19491018               -2.11408540               47.66027456                0.75116539                1.24004929                2.00255808               -4.59884454               -0.62662565                1.14245812               -3.43350119
               8.74870869                6.36581261               49.78592786                0.84524550               -0.42521695               -0.74563233                2.05044710               -0.06339546                0.05921589                3.45864635
               9.74445652                5.68077858               49.41450612                0.31364778               -0.32504078               -0.14017567                0.81952754                0.04916940                0.80142672               -3.28836288
              10.74220788                4.99584359               49.05819246                0.00524229                0.61440075                0.65423962               -0.28423262               -2.61288400               14.28435449              -11.40208763
              11.75674454                4.25343029               48.95641423                0.00010000                1.82269878               -0.36349569               -0.82468827               -5.48223478               26.73796053               -7.12943883
              12.77866185                3.49827423               48.85005391                0.00010000                2.42237258               -0.84712056               -1.42739667               -6.35210710               26.73275414               -4.19294612
              13.80519199                2.73009431               48.74871474                0.00010000                2.78305463               -1.02730178               -2.03629898               -6.99592510               27.18359273               -1.41144749
              14.83432294                1.95203589               48.65132347                0.00010000                2.96718001               -0.96440902               -2.60037428               -7.03341253               27.58455246                1.43127821
              15.86453559                1.16924153               48.55744669                0.00010000                3.23835543               -0.92408224               -3.05612522               -6.68916638               28.32155195                4.53900344
              16.89909005                0.38234470               48.47361879                0.12180017                2.92353019               -1.66295711               -3.59662859               -3.93312793               18.52627910                8.88107533
              17.92300619               -0.36110420               48.18298761                0.31085283                1.77398379                0.01493822               -3.19848476               -0.66182768                4.20425874                3.27875271
              18.93456973               -1.09110569               47.80972814                0.73352468                1.15635359                2.17301689               -4.30886939               -0.08590959                0.12976675               -3.79543510
               9.43010947                7.35889698               49.67484060                0.83241541               -0.31693406               -0.64020702                1.76420682               -0.06154673                0.06408873                3.43326490
              10.42694013                6.67994385               49.27052202                0.29745390               -0.16663139               -0.02564467                0.38143515                0.10475819                0.61892652               -3.13843276
              11.42677685                6.00215399               48.87748899                0.00238292                1.06314533                0.65588022               -0.86376587               -3.22823387               18.81667750               -9.76500952
              12.44820304                5.25272817               48.83694982                0.00010000                2.41590320                0.07719875               -1.38230158               -6.66305195               36.33570245               -7.08529437
              13.47509491                4.49205345               48.79515704                0.00010000                2.92962533               -0.46776394               -1.89309042               -7.21593654               36.32554647               -4.10268812
              14.50679555                3.72081511               48.75519232                0.00010000                3.34226705               -0.85028140               -2.38720793               -7.61624702               36.61551116               -1.23540871
              15.54194025                2.94180900               48.71956157                0.00010000                3.65914053               -1.05203856               -2.83962370               -7.69242878               37.17350665                1.68435456
              16.57997836                2.15783298               48.69064852                0.00114210                3.96259167               -1.18546921               -3.25382510               -7.63449537               38.04722511                4.84364071
              17.62119208                1.36775524               48.67200861                0.12857287                3.13725840               -1.25982354               -3.65763156               -4.42568942               23.91526302                8.15769082
              18.64272353                0.64032265               48.35920668                0.31945747                1.60014403                0.27216601               -2.93265272               -0.74261794                4.74539912                2.22406577
              19.65319497               -0.07062506               47.95340700                0.73874388                1.04714401                1.91812803               -4.13667244               -0.01496055                0.16578692               -4.34380272
              10.10538401                8.35300847               49.56440276                0.82123057               -0.20893407               -0.53831466                1.47819823               -0.06082122                0.06415016                3.46559355
              11.10329467                7.68026569               49.12730263                0.28442176               -0.02625681                0.09088739               -0.05477054                0.11893162                0.72877756               -3.07039737
              12.10485888                7.00896120               48.70361015                0.00165132                1.51446854                0.73014139               -1.40302095               -3.77216399               23.52432863               -9.30289321
              13.13358404                6.25497427               48.72214087                0.00010000                3.06986509                0.33516811               -1.87386660               -7.75641453               45.63572380               -6.63319480
              14.16625618                5.48891896               48.74150960                0.00010000                3.47637247               -0.21085284               -2.30468921               -8.24521691               45.75058156               -3.82866149
              15.20311149                4.71308868               48.76317394                0.00010000                3.86001641               -0.72668595               -2.69800605               -8.52908903               46.06939821               -0.97018216
              16.24345651                3.93099512               48.78951590                0.00010000                4.13939777               -1.08585804               -3.04245771               -8.55651207               46.66507325                1.95363038
              17.28589945                3.14553215               48.82330553                0.00588333                4.23150412               -1.20276256               -3.32102704               -8.56132259               47.59211405                5.00047235
              18.32808659                2.35714823               48.86774391                0.13553180                3.03173415               -0.91042072               -3.50122753               -4.96426852               29.04986387                8.18812119
              19.34653413                1.64433912               48.52883725                0.32869401                1.40396763                0.45749837               -2.66437162               -0.70690752                5.10707094                1.84028481
              20.35616594                0.94725687               48.09024095                0.74443818                0.96318110                1.68641907               -3.97857982               -0.00074615                0.20583622               -4.79205757
              10.77437861                9.34813069               49.45428432                0.81111921               -0.10125704               -0.43767381                1.19212149               -0.06047862                0.06711176                3.46794757
              11.77336604                8.68176160               48.98463486                0.27313024                0.11231895                0.20918079               -0.49001094                0.11537999                0.90423030               -3.02294307
              12.77662499                8.01675682               48.53177124                0.00133263                1.98754762                0.83497572               -1.92793284               -4.26172149               28.34410538               -9.10436702
              13.81311699                7.25943153               48.61053083                0.00010000                3.77255859                0.53279928               -2.32159892               -8.72805185               54.94954251               -6.25344846
              14.85207616                6.48783639               48.69049089                0.00010000                4.05103068               -0.06131494               -2.66238519               -9.22364096               55.10232707               -3.44258991
              15.89413760                5.70628140               48.77301894                0.00010000                4.31451920               -0.66908554               -2.95074907               -9.40913482               55.46370850               -0.64832883
              16.93836654                4.92009184               48.86073891                0.00010000                4.42305939               -1.09261397               -3.16928991               -9.32385210               56.13020250                2.22162940
              17.98259879                4.13377773               48.95673048                0.01071924                4.23665999               -1.15867330               -3.28098595               -9.18018090               57.13988495                5.25758255
              19.02309974                3.34954682               49.06393869                0.14258091                2.79389716               -0.65479250               -3.20629178               -5.18201410               34.02154140                8.42814595
              20.03847674                2.64947262               48.69497365                0.33805119                1.21223978                0.52013150               -2.36791641               -0.60123842                5.28990693                1.73931299
              21.04734454                1.96310332               48.22317028                0.75010444                0.88678038                1.49596567               -3.80207831                0.00618872                0.24161162               -4.96261556
              11.43691261               10.34425499               49.34418340                0.80197046                0.00635227               -0.33773604                0.90472864               -0.06062160                0.06835616                3.43579401
              12.43697614                9.68444931               48.84221006                0.26326165                0.25209480                0.32932725               -0.92481580                0.09796098                1.12548852               -2.99579993
              13.44195451                9.02566071               48.36135179                0.00114060                2.54836491                0.93195592               -2.43288679               -4.73443659               33.28018900               -8.91424357
              14.48794344                8.26563025               48.50195649                0.00010000                4.64894938                0.61739356               -2.72771207               -9.48813096               64.32886357               -5.77542448
              15.53493350                7.48769266               48.64251583                0.00010000                4.73649543               -0.10399964               -2.96304457               -9.85070212               64.39223110               -2.95747982
              16.58267334                6.69970697               48.78474154                0.00010000                4.72748183               -0.69619613               -3.13716744               -9.78251873               64.75998572               -0.33167669
              17.62948313                5.90914284               48.93277179                0.00010000                4.50837527               -1.04961869               -3.22055282               -9.61071663               65.57595844                2.37289482
              18.67284085                5.12235868               49.09102405                0.01575525                3.96341392               -1.10507993               -3.15497939               -9.34133204               66.77035724                5.40715909
              19.70875141                4.34405238               49.26173315                0.14976272                2.40560071               -0.45418020               -2.78917901               -5.19534486               38.93718911                8.71021944
              20.72095286                3.65474175               48.85998118                0.34732262                1.01384497                0.50231336               -2.02856625               -0.49763197                5.35192417                1.84465668
              21.72902831                2.97717618               48.35462100                0.75543805                0.80754488                1.32236938               -3.59088173                0.00559587                0.27223844               -4.89643819
              12.09277755               11.34137596               49.23368155                0.79360790                0.11419881               -0.23848137                0.61493334               -0.06131210                0.08529723                3.40653417
              13.09391954               10.68834814               48.69982310                0.25493961                0.39888779                0.45193053               -1.35960805                0.04999293                1.42755212               -3.02877927
              14.10075531               10.03539594               48.19271100                0.00096056                3.37014433                0.97776305               -2.91298634               -5.29032082               38.44530632               -8.45167671
              15.16132243                9.27177941               48.39850342                0.00010000                6.01150467                0.25292855               -3.08208381               -9.90432475               73.82210076               -4.83755994
              16.22098540                8.48575640               48.59899100                0.00010000                5.78573112               -0.63053097               -3.19883892               -9.35385339               73.48659869               -2.25718211
              17.27703705                7.69235747               48.79787173                0.00010000                5.12575495               -0.78513778               -3.25578886               -8.83742584               73.75930341               -0.09108512
              18.32350050                6.89909947               49.00327002                0.00010000                4.19127798               -0.76465857               -3.20840323               -8.76604555               74.88986632                2.16124190
              19.36086261                6.11167613               49.22356639                0.02105905                3.16546398               -0.80721030               -2.97168245               -8.85446683               76.58517513                4.96179017
              20.38680978                5.34046322               49.46096383                0.15720580                1.72688423               -0.21033134               -2.27447864               -5.14790961               44.00997452                8.64292831
              21.39540029                4.65951889               49.02563603                0.35657077                0.78889035                0.43137415               -1.63752614               -0.45673210                5.39627807                2.15671738
              22.40258759                3.98955071               48.48674152                0.76062839                0.71872936                1.14992725               -3.33407875               -0.00307258                0.32192941               -4.66309072
              12.74174201               12.33948537               49.12322528                0.78525609                0.22140071               -0.13950523                0.32654753               -0.06178700               -0.04045934                2.96094768
              13.74395602               11.69348792               48.55637181                0.24716716                0.54874084                0.57423220               -1.79902977               -0.06375181                2.03926327               -2.71880155
              14.75271683               11.04521597               48.03094300                0.00068714                4.77702295                0.86773142               -3.34652728               -6.08860666               44.25624402               -6.25089320
              15.83949648               10.27068883               48.30746779                0.00010000                8.72807657               -1.72983377               -3.35842731               -7.99578933               83.33071717               -2.89343451
              16.92727836                9.47508204               48.56296877                0.00010000                7.65426377               -1.44119926               -3.35826952               -6.41790450               81.94689118               -1.24749553
              17.99258176                8.68400422               48.81145008                0.00010000                5.37826034               -0.86470263               -3.30715960               -5.49251876               82.02264199                0.01729317
              19.03484357                7.89384967               49.06724470                0.00010000                3.09030033               -0.21870110               -3.14709266               -5.76810731               83.60302238                1.34969125
              20.05438776                7.10621448               49.34484621                0.02685078                1.15534456                0.36938858               -2.78793554               -6.41745847               86.50487506                3.21256591
              21.05795046                6.33984575               49.65481158                0.16530092                0.41714842                0.35302790               -1.70075882               -4.72891505               49.82205847                6.30651873
              22.06273073                5.66336923               49.19444087                0.36612892                0.54763776                0.32944566               -1.18321498               -0.55557170                5.80333398                2.21058331
              23.06890322                5.00017473               48.62062344                0.76538995                0.61724850                0.97981521               -3.02284734               -0.03380320                0.23482714               -3.74024152
              13.38353671               13.33858586               49.00400716                0.89033225                0.33771865               -0.08995060                0.00278438                0.30416229                1.35464229                2.51534769
              14.38691390               12.69983279               48.41971656                0.62194816                0.91227774                0.63448710               -2.20383525                0.00402283                4.89604342               -2.35112805
              15.40178226               12.05275057               47.90600441                0.47948172                9.23133390                0.75345943               -3.63023856               -8.22595952               51.06002222               -4.45111823
              16.57154057               11.23718273               48.24206428                0.44561150               13.87648280               -3.35060951               -3.52004657               -6.58649835               91.48234118               -1.54955156
              17.67931192               10.45693241               48.53783542                0.43637131                8.84392347               -1.81496248               -3.42709547               -2.90260968               89.00904657               -0.62707403
              18.74841904                9.67506342               48.82426303                0.44479460                5.33080857               -0.89407943               -3.29437699               -2.52661950               89.00071251                0.07362328
              19.78592809                8.89472545               49.11837789                0.47033047                1.90491535                0.08757804               -3.05471955               -2.69152383               90.83953636                0.81594060
              20.78651735                8.11906390               49.43821088                0.51537813               -2.54256851                1.28494228               -2.61962659               -4.14712468               94.74846501                1.91341333
              21.73507672                7.34752378               49.80418928                0.58566302               -3.12787335                0.76780227               -1.29656327               -4.93517881               57.00318237                4.36137927
              22.72395988                6.66610780               49.35895380                0.68658980               -0.33880969                0.27385683               -0.69527705               -0.79592289                9.15101700                2.09545963
              23.72830053                6.00914701               48.76893271                0.88422615                0.43406444                0.89722846               -2.60305051                0.24365254                2.00329844               -2.90579248
               6.94728662                3.53929662               51.15666546                1.00000000               -0.82219208               -0.90392962                3.04426728               -0.19441487               -2.16929809                2.53280961
               7.93906470                2.80592495               50.85461424                0.81151671               -0.81885453               -0.56111266                2.16788100               -0.18718743               -2.99098141               -1.48268287
               8.93090953                2.06909399               50.53678262                0.58934884               -1.06427438               -0.29247665                1.21429986               -0.55671001               -2.87994965               -1.04230259
               9.91777921                1.31633910               50.23738544                0.49297638               -1.39905077               -0.07033011                0.30934325               -0.64540341               -0.79203321               -0.33447563
              10.90292851                0.53655906               49.96105975                0.45210307               -1.25868146                0.21473159               -0.64825606               -0.54746811                1.33714948               -0.24814001
              11.89260558               -0.27153265               49.70334040                0.45344261               -0.48044139                0.49115395               -1.64947338               -0.31784211                2.46474516               -0.02384043
              12.89331969               -1.09618248               49.44864881                0.49476510                0.58155450                0.75482953               -2.63895509               -0.26226565                1.86153684                0.19021915
              13.90423667               -1.92059721               49.17865541                0.58232390                1.33960005                1.00290373               -3.56835899               -0.32297329                0.09476070                0.34487856
              14.92011169               -2.73535520               48.88862258                0.73412821                1.65720737                1.23984949               -4.46486110               -0.31053799               -1.80987979                0.45827508
              15.93738082               -3.54003273               48.57992494                0.98878654                1.76733648                1.47409043               -5.37682360               -0.22241372               -2.37815945                1.06385973
              16.95545842               -4.33910938               48.27712566                1.00000000                1.80775970                1.80177206               -6.30953676               -0.28423896               -1.98851194               -1.81968611
               7.67871414                4.53025733               51.03150486                0.94862127               -0.64199961               -0.89413087                2.68534066               -0.07652958                0.80458224                3.18170783
               8.67229414                3.80031383               50.72430321                0.48127704               -0.42893912               -0.47296077                1.79383146               -0.15121516                2.22493165               -2.52640462
               9.67013536                3.06616922               50.44601717                0.09584683                0.26492488               -0.00718914                1.10479402               -0.99720830                4.71807689               -5.35295018
              10.67759264                2.31563580               50.18872437                0.00769862                1.06271772               -0.56153946                0.32155235               -2.05748277                6.56436762               -3.86028039
              11.69138971                1.53870638               49.94763278                0.01010378                1.41026465               -0.77913406               -0.48641972               -3.14248442                8.30438445               -2.20372297
              12.70579793                0.73337889               49.72571184                0.01312540                1.19197996               -0.41976370               -1.35763954               -3.79846689                9.38919895               -1.09164904
              13.71522931               -0.08863418               49.50656580                0.01523014                0.73976832                0.14143405               -2.22826434               -3.58024299                8.80729514                0.06409542
              14.72059330               -0.91056818               49.27219523                0.08300729                0.57473776                0.47005140               -3.04348348               -2.49422586                7.13802632                2.01897627
              15.72672407               -1.72295670               49.01813215                0.29700010                0.82202382                0.76810186               -3.84031235               -0.98633307                5.55733849                4.68091975
              16.73703378               -2.52529182               48.75062388                0.65233607                1.24843101                1.24087576               -4.63991166               -0.33761114                3.49216531                2.76461833
              17.75169269               -3.32109166               48.45396516                0.97636420                1.46589095                1.79265640               -5.49261133               -0.27160555                2.10255848               -2.60209648
               8.40564302                5.52141400               50.92001995                0.85507868               -0.55145222               -0.85036305                2.42546817               -0.08657171                0.35049312                3.75239217
               9.40012850                4.79646574               50.57352229                0.33000319               -0.49998158               -0.29422021                1.28826474               -0.11365754                2.44000509               -3.56004375
              10.39564339                4.06895020               50.26921771                0.01283434                0.19819488                0.49034816                0.46988388               -2.06248483                9.75489225              -11.48840331
              11.40409240                3.30510831               50.06941590                0.00010000                1.33461744               -0.82463838               -0.19741752               -4.56636315               16.21279386               -7.54224946
              12.42233574                2.52097638               49.89472352                0.00010000                1.99422049               -1.41748189               -1.02701273               -6.03150263               17.74208422               -4.50703841
              13.44397681                1.72007207               49.72611103                0.00010000                2.16630741               -1.23055595               -1.78508173               -6.89300410               18.22097238               -2.18548166
              14.46566189                0.90664620               49.56110996                0.00010000                2.23489335               -0.69597559               -2.51171374               -6.74413700               18.54364203                0.23121250
              15.48867468                0.08880382               49.39814981                0.00010000                2.47233928               -0.39232467               -3.19678519               -5.24364231               18.49677278                3.65192866
              16.51510867               -0.71999316               49.23078457                0.11443153                2.00444409               -0.71076481               -3.04019786               -2.67384614               12.88395698                8.46508671
              17.52876356               -1.51521521               48.95380527                0.31317583                1.32586576                0.47059270               -3.72560227               -0.88187323                4.29781931                4.08362620
              18.54162599               -2.30325626               48.61340027                0.73980258                1.28624319                2.08879916               -4.77707412               -0.64994762                1.17169567               -3.76122352
               9.12687923                6.51325006               50.80680070                0.83328549               -0.43944428               -0.76243867                2.12639116               -0.06481649                0.06099217                3.60935142
              10.12248479                5.79442942               50.42276321                0.30012862               -0.33180738               -0.14448882                0.83183372                0.06581595                0.87043205               -3.44936834
              11.12024309                5.07597618               50.05521324                0.00492503                0.58772042                0.67641749               -0.31176145               -2.61478622               14.70173810              -11.94813508
              12.13423920                4.29914303               49.94782211                0.00010000                1.77764055               -0.30601788               -0.89455447               -5.51089952               27.38619259               -7.77547789
              13.15579590                3.51035674               49.83520486                0.00010000                2.40144161               -0.81675159               -1.54522458               -6.34274217               27.32747989               -4.83396422
              14.18226803                2.70876777               49.72753351                0.00010000                2.79094650               -1.00370618               -2.20559363               -6.98254348               27.77912140               -2.07054678
              15.21161483                1.89744630               49.62421417                0.00010000                3.00458923               -0.94158879               -2.83028795               -7.02685943               28.24171416                0.76762914
              16.24235982                1.08158533               49.52547378                0.00010000                3.28256712               -0.88086539               -3.35070960               -6.64102901               28.96581525                3.88069755
              17.27726617                0.26282800               49.43569843                0.11404746                3.01497949               -1.50492873               -4.00410011               -4.01829226               19.64989029                7.85504150
              18.30265941               -0.51587997               49.15011442                0.29602387                1.87548266                0.09311710               -3.38808257               -0.76231967                5.05283231                2.91802814
              19.31477582               -1.27931568               48.76550278                0.72334001                1.21164169                2.26935399               -4.55159872               -0.08208526                0.15378696               -4.36878790
               9.84198797                7.50616523               50.69280773                0.82063542               -0.32692742               -0.65669737                1.83106346               -0.06299180                0.06650747                3.58623392
              10.83871870                6.79357596               50.27431868                0.28442297               -0.16769582               -0.02490059                0.37729418                0.12378348                0.69566914               -3.29555121
              11.83863406                6.08247855               49.86862289                0.00215638                1.03875755                0.67587073               -0.90758487               -3.22428194               19.32960091              -10.19508470
              12.85949385                5.29898795               49.82267042                0.00010000                2.36110522                0.13604837               -1.47400289               -6.68037511               37.18529805               -7.63045434
              13.88585616                4.50464135               49.77549079                0.00010000                2.88712625               -0.39917196               -2.04328063               -7.21299401               37.15484627               -4.69921311
              14.91723638                3.69999795               49.73025771                0.00010000                3.32254867               -0.77153701               -2.60721197               -7.61053403               37.44164544               -1.85255340
              15.95230714                2.88781443               49.68971193                0.00010000                3.66180117               -0.95580362               -3.14349176               -7.67441133               38.00617188                1.06020128
              16.99047240                2.07118651               49.65614975                0.00010000                3.99504967               -1.05345665               -3.66711430               -7.54110442               38.86614095                4.20572291
              18.03220813                1.24990826               49.63275408                0.12059009                3.25942223               -1.09638170               -4.22294212               -4.46825750               25.38354980                7.63794444
              19.05566084                0.48664713               49.32872590                0.30473250                1.73237898                0.39625903               -3.18472421               -0.86682590                5.83948624                1.83921757
              20.06685571               -0.25786918               48.91060686                0.72860100                1.11948644                2.01777939               -4.44800582               -0.00979701                0.20950016               -4.94994923
              10.55079793                8.50011612               50.57946644                0.80960112               -0.21507966               -0.55362712                1.53661939               -0.06205922                0.06719846                3.61897594
              11.54864714                7.79393141               50.12665833                0.27164055               -0.02262391                0.09677859               -0.07502654                0.13693192                0.83280049               -3.22431138
              12.55034546                7.08949360               49.68929156                0.00145741                1.49108821                0.75412224               -1.45964508               -3.75889355               24.16346173               -9.70106384
              13.57846890                6.30186400               49.70284070                0.00010000                3.00902836                0.40291202               -1.98543970               -7.75910651               46.69001466               -7.11498431
              14.61052602                5.50237330               49.71757370                0.00010000                3.42076873               -0.11168963               -2.48587048               -8.23005653               46.79810443               -4.35662827
              15.64688428                4.69333703               49.73490779                0.00010000                3.82060098               -0.59917621               -2.96486921               -8.49773461               47.11348517               -1.51606869
              16.68693804                3.87833023               49.75731976                0.00010000                4.12798069               -0.92846513               -3.41541300               -8.49362226               47.71943703                1.41642521
              17.72944389                3.06051620               49.78770577                0.00181201                4.27511776               -1.02328795               -3.82932015               -8.41190576               48.68157390                4.52800761
              18.77244040                2.24090037               49.82952173                0.12741290                3.18282193               -0.75125110               -4.19460704               -4.96539386               30.80087592                7.90835317
              19.79310033                1.49204521               49.50083440                0.31386631                1.55860497                0.60013036               -2.96324698               -0.82055592                6.33266106                1.51581273
              20.80361250                0.76103991               49.04878784                0.73423866                1.05121684                1.79367762               -4.34324581                0.00592472                0.25855798               -5.35641341
              11.25311620                9.49509269               50.46644800                0.79980555               -0.10363428               -0.45154075                1.24212850               -0.06185280                0.06979088                3.62035006
              12.25207986                8.79551153               49.97955969                0.26079588                0.12036995                0.22025291               -0.52611806                0.13106784                1.04144723               -3.17449323
              13.25552360                8.09756100               49.51215543                0.00115421                1.96760805                0.86180802               -1.99233168               -4.23830876               29.13007939               -9.48366350
              14.29143202                7.30704620               49.58667054                0.00010000                3.71292031                0.60725419               -2.44840705               -8.70486443               56.22633074               -6.68031775
              15.32978201                6.50240756               49.66285235                0.00010000                3.99463684                0.05541813               -2.86886001               -9.17634287               56.37403811               -3.89382114
              16.37132476                5.68801443               49.74204336                0.00010000                4.27367571               -0.51004654               -3.25631633               -9.33152326               56.73741339               -1.10006451
              17.41525552                4.86924512               49.82702811                0.00010000                4.41696978               -0.89699753               -3.59717216               -9.20605640               57.43517314                1.80368271
              18.45966415                4.05072075               49.92122813                0.00654973                4.30578598               -0.95232183               -3.86143548               -8.99536312               58.53832804                4.93631176
              19.50137124                3.23488324               50.02826413                0.13429799                2.97230172               -0.49989515               -3.99494207               -5.15274525               36.02150811                8.33861789
              20.51911019                2.49864974               49.66978899                0.32297159                1.38067874                0.66625439               -2.70097971               -0.69760980                6.59174906                1.49343578
              21.52898481                1.77800438               49.18332137                0.73965773                0.98746288                1.61140678               -4.20456238                0.01464092                0.30126447               -5.46330854
              11.94872319               10.49108530               50.35343159                0.79084424                0.00769984               -0.35014193                0.94633430               -0.06213919                0.07126154                3.58584432
              12.94880018                9.79833647               49.83271186                0.25146367                0.26607176                0.34566457               -0.97653947                0.10641137                1.30542799               -3.14575974
              13.95404462                9.10672976               49.33664904                0.00097455                2.53624356                0.96002724               -2.50162619               -4.70457195               34.23358135               -9.26945898
              14.99952505                8.31400908               49.47398491                0.00010000                4.59931577                0.68914976               -2.86313756               -9.43637546               65.84660695               -6.14126652
              16.04603094                7.50348166               49.61178513                0.00010000                4.69455957                0.01495785               -3.18636718               -9.76456928               65.90036520               -3.32097530
              17.09341625                6.68313610               49.75177953                0.00010000                4.70398277               -0.52752498               -3.46931889               -9.65344135               66.27512885               -0.67584193
              18.14011059                5.86039028               49.89839233                0.00010000                4.52411317               -0.83676026               -3.68528240               -9.43907626               67.14791711                2.07812353
              19.18389851                5.04146976               50.05661358                0.01134068                4.06729567               -0.88098927               -3.78008012               -9.14233118               68.51023671                5.21940148
              20.22145650                4.23090246               50.22997744                0.14137323                2.60642447               -0.30421722               -3.64124772               -5.15551842               41.16908532                8.78801773
              21.23602700                3.50537030               49.83810306                0.33204242                1.18697676                0.64295945               -2.38178698               -0.57939016                6.68916553                1.68606474
              22.24519604                2.79326804               49.31678628                0.74485740                0.91690406                1.44346521               -4.01583932                0.01445592                0.33684831               -5.32209007
              12.63737108               11.48808985               50.23999242                0.78283941                0.11925480               -0.24928649                0.64826433               -0.06304470                0.08875915                3.55569395
              13.63856363               10.80242483               49.68589988                0.24346904                0.41942333                0.47348417               -1.42706843                0.04826477                1.66348529               -3.17985853
              14.64575955               10.11676154               49.16319825                0.00081848                3.36944880                1.00020620               -2.97871415               -5.26467202               39.59236623               -8.76742070
              15.70595260                9.32082919               49.36697420                0.00010000                5.98020306                0.31086522               -3.21867304               -9.82838062               75.59911853               -5.12346262
              16.76536361                8.50270671               49.56586594                0.00010000                5.76973541               -0.51883372               -3.42861722               -9.24411121               75.23793199               -2.51844646
              17.82134731                7.67746393               49.76366972                0.00010000                5.13883606               -0.62863565               -3.60006239               -8.67798069               75.51516948               -0.32092984
              18.86814033                6.85250992               49.96895726                0.00010000                4.24790167               -0.56563468               -3.68886887               -8.55819016               76.72954059                1.98335250
              19.90630535                6.03310096               50.19096388                0.01648332                3.31100023               -0.57207501               -3.61098821               -8.64500847               78.69175887                4.87275302
              20.93436033                5.22879890               50.43423825                0.14859197                1.94257284               -0.04854755               -3.16147608               -5.12501439               46.47504690                8.85065214
              21.94515680                4.51150893               50.00764103                0.34107959                0.95590570                0.56094762               -1.99694969               -0.53540816                6.74541482                2.09199642
              22.95347845                3.80687368               49.45144249                0.74980582                0.83216450                1.27353800               -3.76534420                0.00448617                0.39055878               -5.00571998
              13.31879234               12.48609957               50.12661171                0.77472450                0.23014463               -0.14839392                0.35131359               -0.06379986               -0.04426226                3.09196234
              14.32109378               11.80780615               49.53797774                0.23627812                0.57772387                0.60073894               -1.88220125               -0.08704061                2.35531194               -2.85280176
              15.33034682               11.12673388               48.99715425                0.00063269                4.79592436                0.84891856               -3.40086515               -6.03282185               45.63917148               -6.47236864
              16.41701227               10.32022639               49.27319158                0.00010000                8.70835803               -1.66356301               -3.48838285               -7.92083990               85.37985933               -3.06475196
              17.50451398                9.49310499               49.52826681                0.00010000                7.65205787               -1.34021380               -3.58309196               -6.32726641               83.92534643               -1.38588926
              18.57005343                8.67056338               49.77675231                0.00010000                5.43978870               -0.73440719               -3.64755039               -5.37222641               83.99593249               -0.09704610
              19.61330975                7.84907759               50.03358238                0.00010000                3.23279660               -0.06237348               -3.62235225               -5.58969918               85.67401950                1.27154375
              20.63470936                7.03002826               50.31420340                0.02193702                1.36192518                0.54858490               -3.40928274               -6.24033191               88.98910614                3.18694433
              21.64054825                6.22993151               50.63379774                0.15643668                0.62673460                0.59290197               -2.60152177               -4.65305349               52.56141421                6.51167753
              22.64724405                5.51658925               50.18102332                0.35033094                0.70040011                0.44596525               -1.53644680               -0.65749704                7.16508483                2.22733819
              23.65455626                4.81873880               49.58847176                0.75432378                0.73122031                1.10379258               -3.44734785               -0.03118745                0.30250999               -3.97079426
              13.99268192               13.48512197               50.00410476                0.88516923                0.35065851               -0.09776010                0.01703903                0.32072146                1.41320603                2.62768638
              14.99618850               12.81443961               49.39720746                0.61672428                1.00004775                0.66334512               -2.30151453               -0.05963082                5.38030438               -2.46537977
              16.01268287               12.13373992               48.86938293                0.47835700                9.24880972                0.70060320               -3.67521165               -8.11047788               52.73920590               -4.61973542
              17.18116470               11.28755793               49.20623039                0.44548683               13.78992051               -3.26684584               -3.63698448               -6.47663113               93.74534663               -1.62052742
              18.28848128               10.47590244               49.50251935                0.43646947                8.83827438               -1.72025514               -3.63402201               -2.84237663               91.16411811               -0.67964230
              19.35793019                9.66277578               49.78978842                0.44454698                5.42000910               -0.77876017               -3.61271089               -2.44432381               91.13665826                0.03736008
              20.39688147                8.85126245               50.08575064                0.46928458                2.13572982                0.21848611               -3.50510270               -2.57798442               93.07107816                0.80373891
              21.40064478                8.04407266               50.40941365                0.51289188               -2.10715967                1.40443992               -3.20770075               -3.93673344               97.48435790                1.92897912
              22.35473827                7.24065694               50.78728100                0.58124611               -2.87226063                1.07254248               -2.18655710               -4.76321959               60.06982481                4.54429559
              23.34319957                6.52042823               50.35051531                0.67864805               -0.30913377                0.38389789               -1.02910693               -0.98981854               10.66540455                2.15620402
              24.34855560                5.82894953               49.74107433                0.87863059                0.53560274                1.02107288               -3.00829336                0.25206415                2.14492277               -3.05524230
               7.23161804                3.69212188               52.18779840                1.00000000               -0.85585416               -0.94216204                3.18087452               -0.20679010               -2.25441007                2.63609313
               8.22305950                2.92286521               51.87669691                0.80231115               -0.84536179               -0.58239282                2.24936431               -0.19691916               -3.11571476               -1.56750891
               9.21471080                2.15006609               51.54902873                0.58503482               -1.06495550               -0.30250645                1.23766344               -0.54733248               -3.01321747               -1.02252189
              10.20176039                1.36151518               51.24036519                0.49147699               -1.36375771               -0.06431010                0.28646998               -0.62467561               -0.91583221               -0.34977311
              11.18743565                0.54666311               50.95424024                0.45186995               -1.20562438                0.23232257               -0.71714667               -0.52701118                1.17708707               -0.25456348
              12.17764790               -0.29562277               50.68628873                0.45331569               -0.44545182                0.52157181               -1.76329938               -0.30756903                2.30234984               -0.02771336
              13.17852661               -1.15425650               50.42148116                0.49372499                0.59179652                0.79761207               -2.79917972               -0.24931612                1.74690854                0.18836050
              14.18948383               -2.01329243               50.14195992                0.57958689                1.35779429                1.05698675               -3.77640330               -0.30500951                0.03397497                0.34756120
              15.20568250               -2.86342679               49.84273302                0.72875910                1.70910461                1.30637643               -4.71920987               -0.29932695               -1.85771808                0.45198305
              16.22366592               -3.70378629               49.52469139                0.98031966                1.85149019                1.55215414               -5.67720949               -0.22374176               -2.44029636                1.05941154
              17.24271230               -4.53838403               49.21235269                1.00000000                1.90463799                1.89106370               -6.65294319               -0.30577738               -2.05625526               -1.85547530
               7.99880681                4.68270026               52.05892853                0.93580916               -0.66886064               -0.92801266                2.79985783               -0.08107418                0.88158078                3.33123160
               8.99211820                3.91704128               51.74254918                0.46519408               -0.44471579               -0.48893578                1.85669612               -0.15643310                2.40486611               -2.68081626
               9.98991249                3.14704102               51.45717066                0.08980640                0.25484596                0.00194892                1.12680317               -0.99947632                4.95313154               -5.60372602
              10.99721512                2.36087208               51.19186770                0.00786582                1.04110115               -0.57299162                0.30626968               -2.03933140                6.73830212               -4.15736811
              12.01073451                1.54898634               50.94253855                0.01024017                1.39084479               -0.76900504               -0.53418576               -3.08835810                8.43416696               -2.57714693
              13.02503202                0.70959295               50.71176060                0.01337706                1.20668835               -0.42736893               -1.43503782               -3.72029537                9.48811095               -1.47712478
              14.03486828               -0.14628038               50.48375286                0.01585911                0.79934321                0.11647850               -2.33647808               -3.51261725                8.93521991               -0.31249660
              15.04101888               -1.00272257               50.24106054                0.07843940                0.65339367                0.46835388               -3.18580503               -2.46175691                7.30506216                1.65230965
              16.04793616               -1.85036303               49.97885303                0.28702218                0.89441218                0.80883144               -4.01711668               -0.98460413                5.73486903                4.75634091
              17.05890712               -2.68826474               49.70316278                0.63413963                1.31580595                1.29960772               -4.85370192               -0.34629582                3.64403000                2.85243506
              18.07425227               -3.51947339               49.39778697                0.96381598                1.53451502                1.87682724               -5.74506105               -0.29877609                2.22874401               -2.68941619
               8.76131451                5.67356162               51.94471836                0.84309824               -0.57244398               -0.87442006                2.51848002               -0.08767738                0.34817482                3.93033664
               9.75559007                4.91308649               51.58655865                0.31618494               -0.52120169               -0.30232266                1.32099508               -0.10610663                2.60172163               -3.75501552
              10.75089048                4.15010507               51.27390176                0.01243762                0.17191885                0.52173430                0.46809006               -2.08799516               10.14761225              -12.07975127
              11.75902845                3.35005535               51.06710347                0.00010000                1.30285733               -0.81029330               -0.26374118               -4.57802053               16.58875319               -8.18536121
              12.77694762                2.53128301               50.88403863                0.00010000                1.97401316               -1.40793278               -1.11236381               -5.97299801               18.07301463               -5.23218664
              13.79850871                1.69582985               50.70764422                0.00010000                2.18210779               -1.25281284               -1.91200165               -6.82384275               18.59228642               -2.94685286
              14.82058978                0.84807307               50.53515892                0.00010000                2.29113141               -0.74665621               -2.68377992               -6.67032668               18.95070222               -0.53912758
              15.84433134               -0.00392536               50.36516546                0.00010000                2.54714077               -0.42109436               -3.40443035               -5.19872380               19.37395302                2.90447740
              16.87153259               -0.84725016               50.19970860                0.10625786                2.07595163               -0.60804725               -3.18082671               -2.71788549               13.74896337                7.65751005
              17.88585037               -1.67779413               49.91590811                0.29722213                1.38107431                0.53002384               -3.85128160               -0.91229769                4.53033650                3.93535063
              18.89915408               -2.50084749               49.56473307                0.72856092                1.33037092                2.18926770               -4.95538381               -0.67451163                1.20339218               -4.18278515
               9.51800352                6.66521186               51.82845568                0.82135574               -0.45508962               -0.78028550                2.20716799               -0.06654215                0.06288603                3.77045409
              10.51345263                5.91099483               51.43114279                0.28671054               -0.34098959               -0.14743928                0.84487245                0.08560693                0.95316420               -3.61531383
              11.51118373                5.15747571               51.05195723                0.00457730                0.55120697                0.70344565               -0.33890624               -2.61009803               15.14367388              -12.51210904
              12.52447677                4.34466621               50.93852314                0.00010000                1.71581619               -0.24774251               -0.96484279               -5.53176854               28.05506645               -8.44246617
              13.54550006                3.52082768               50.81914942                0.00010000                2.36441683               -0.77913337               -1.66810542               -6.32363036               27.93832999               -5.53090437
              14.57176510                2.68453669               50.70460286                0.00010000                2.78584484               -0.97200417               -2.38583714               -6.95712945               28.38575095               -2.81441359
              15.60121695                1.83878649               50.59471771                0.00010000                3.03012661               -0.90828131               -3.07722835               -7.00496343               28.90515255               -0.01506249
              16.63236764                0.98885555               50.49043250                0.00010000                3.31151343               -0.81795989               -3.66706257               -6.56913861               29.59143616                3.05129584
              17.66744722                0.13747603               50.39353678                0.10621728                3.09454283               -1.30295021               -4.44294421               -4.08827377               20.90126240                6.52897411
              18.69425849               -0.67766427               50.11522596                0.28151005                1.97107653                0.20905759               -3.60028698               -0.86769876                6.05008597                2.41271628
              19.70686875               -1.47568804               49.71869616                0.71332365                1.26102596                2.39691908               -4.82247893               -0.07892983                0.18432949               -5.10209819
              10.26841773                7.65795591               51.71146187                0.80899851               -0.33793692               -0.67320659                1.90186814               -0.06478608                0.06917714                3.74904036
              11.26503836                6.91013771               51.27806791                0.27125673               -0.17002989               -0.02281871                0.37261723                0.14455027                0.79090653               -3.45823164
              12.26501713                6.16417398               50.85933730                0.00191187                1.00013746                0.69658380               -0.94678640               -3.21376010               19.87270951              -10.64020594
              13.28504111                5.34510050               50.80746977                0.00010000                2.27937073                0.20041241               -1.56532419               -6.69241072               38.05391100               -8.20469405
              14.31060454                4.51570034               50.75429143                0.00010000                2.81831012               -0.32014246               -2.19904044               -7.20298061               37.99285169               -5.34855044
              15.34140731                3.67638976               50.70304808                0.00010000                3.27835547               -0.67775142               -2.84164728               -7.59614333               38.26537686               -2.55285100
              16.37617165                2.82990744               50.65669174                0.00010000                3.64258628               -0.83895220               -3.47251334               -7.64220028               38.81846027                0.31598441
              17.41425903                1.97971545               50.61730623                0.00010000                4.00576406               -0.89208129               -4.11887009               -7.41276418               39.63173348                3.39668254
              18.45628693                1.12669083               50.58754977                0.11273644                3.37007143               -0.88353932               -4.84157711               -4.49000857               27.01575624                6.88682397
              19.48166046                0.32638702               50.29551220                0.29012263                1.86680483                0.56282734               -3.48414067               -0.99685943                7.13798491                1.32882103
              20.49362303               -0.45290910               49.86444688                0.71859380                1.19625673                2.15510679               -4.81447821               -0.00153855                0.26636009               -5.69838927
              11.01234422                8.65174772               51.59513515                0.79817327               -0.22186481               -0.56916877                1.59848234               -0.06426159                0.06983954                3.78163502
              12.01012557                7.91053845               51.12580210                0.25901642               -0.01992396                0.10402461               -0.09681136                0.15544275                0.96021102               -3.38403812
              13.01194574                7.17140738               50.67441724                0.00124928                1.44883104                0.77760447               -1.51204334               -3.73826944               24.83890904              -10.11063130
              14.03910219                6.34867446               50.68243208                0.00010000                2.91027199                0.47902332               -2.09389181               -7.75384871               47.76082753               -7.62269043
              15.07015118                5.51442483               50.69179219                0.00010000                3.32664739                0.00240984               -2.67279150               -8.20566226               47.84606972               -4.93462305
              16.10563514                4.67098166               50.70387656                0.00010000                3.74480438               -0.44907020               -3.25004734               -8.45572886               48.14061002               -2.14023130
              17.14504727                3.82200745               50.72120764                0.00010000                4.08469118               -0.74072568               -3.82355565               -8.41270762               48.73282997                0.76731846
              18.18732896                2.97101392               50.74671912                0.00010000                4.29641051               -0.80596475               -4.39638547               -8.21659575               49.68662281                3.90630924
              19.23097548                2.11980524               50.78385177                0.11942368                3.32961392               -0.54136835               -4.97778052               -4.93697657               32.74840731                7.43305498
              20.25392124                1.33359228               50.46957231                0.29924346                1.72273777                0.78428267               -3.32536660               -0.93985647                7.81550367                1.08963090
              21.26543023                0.56741410               50.00337603                0.72410941                1.15089915                1.93739073               -4.78100892                0.01628337                0.32711334               -6.03555421
              11.74955104                9.64657254               51.47912689                0.78848634               -0.10634857               -0.46601353                1.29514898               -0.06377955                0.07262471                3.78186309
              12.74848755                8.91221820               50.97411250                0.24855193                0.12823459                0.23277364               -0.56439522                0.14476045                1.21110967               -3.33225272
              13.75211573                8.17972607               50.49192461                0.00096455                1.92295672                0.89106631               -2.04646419               -4.20649436               29.96019766               -9.86653424
              14.78694669                7.35468097               50.56156269                0.00010000                3.60341858                0.69134001               -2.56936501               -8.66701199               57.51602366               -7.12840640
              15.82418410                6.51574854               50.63311369                0.00010000                3.88817132                0.19173655               -3.08062454               -9.11388002               57.63803017               -4.38918747
              16.86471011                5.66740836               50.70789261                0.00010000                4.18505690               -0.32089468               -3.58426879               -9.23610128               57.98107459               -1.62140258
              17.90788524                4.81509293               50.78879546                0.00010000                4.37096081               -0.66156476               -4.07141877               -9.06260222               58.68109480                1.28893406
              18.95212933                3.96359615               50.87950177                0.00221120                4.35419025               -0.70014800               -4.52363670               -8.75489756               59.82899351                4.49168508
              19.99496904                3.11586346               50.98403985                0.12621143                3.15625742               -0.29833096               -4.90845976               -5.09276589               38.23966908                8.09572643
              21.01525448                2.34207267               50.64095405                0.30820602                1.56680105                0.85093625               -3.10576772               -0.80093284                8.18869701                1.16758416
              22.02630506                1.58583871               50.13907903                0.72949915                1.10505876                1.75995845               -4.68993729                0.02503454                0.37823606               -6.05068990
              12.47977731               10.64242745               51.36311008                0.77984997                0.00899432               -0.36314057                0.99066458               -0.06401338                0.07416943                3.74503870
              13.47986725                9.91519393               50.82267927                0.23965439                0.27878892                0.36334455               -1.03145849                0.11485622                1.52898526               -3.30207349
              14.48535308                9.18922871               50.31131927                0.00080230                2.49361155                0.99081236               -2.55412576               -4.66400405               35.24174833               -9.61821924
              15.52973948                8.36250126               50.44469374                0.00010000                4.48965488                0.77112599               -2.98886892               -9.36393633               67.37517785               -6.52282943
              16.57514618                7.51825956               50.57878848                0.00010000                4.59146214                0.15786250               -3.41374233               -9.65365416               67.39424078               -3.72040832
              17.62156872                6.66456377               50.71535516                0.00010000                4.62306242               -0.32211299               -3.82752647               -9.49722031               67.74963466               -1.07742894
              18.66760743                5.80877615               50.85906614                0.00010000                4.49458748               -0.57582306               -4.20775178               -9.23204422               68.64752143                1.70611260
              19.71146047                4.95701096               51.01542244                0.00698498                4.15181025               -0.60273941               -4.51004174               -8.88250308               70.12393662                4.94125111
              20.75064364                4.11383862               51.18890820                0.13307965                2.82334322               -0.11037520               -4.65223643               -5.08677167               43.63591760                8.75292499
              21.76792734                3.35061100               50.81234544                0.31706542                1.38776070                0.81829413               -2.81231481               -0.66877426                8.34913569                1.46949145
              22.77839885                2.60261326               50.27430421                0.73447614                1.04715125                1.59560594               -4.52916147                0.02476486                0.41886042               -5.80759363
              13.20273783               11.63930973               51.24664684                0.77207366                0.12455928               -0.26075906                0.68354893               -0.06509424                0.09223321                3.71347187
              14.20398342               10.91948509               50.67128173                0.23216340                0.43952421                0.49651874               -1.49840681                0.04425288                1.95864074               -3.33715780
              15.21152831               10.19954232               50.13313672                0.00067898                3.33268450                1.01776010               -3.02190747               -5.22241335               40.81004884               -9.07106101
              16.27063711                9.37010349               50.33412995                0.00010000                5.87601020                0.38181633               -3.34026911               -9.71974528               77.38655669               -5.41822143
              17.32904851                8.51890579               50.53041866                0.00010000                5.68060023               -0.37743612               -3.66009834               -9.10295010               76.97172803               -2.80596054
              18.38424911                7.66096610               50.72587048                0.00010000                5.08743225               -0.43095847               -3.97261771               -8.48566047               77.22422913               -0.59302544
              19.43079716                6.80357647               50.92949264                0.00010000                4.25838436               -0.31444977               -4.23687167               -8.30796520               78.49041531                1.75120502
              20.46941680                5.95154136               51.15134663                0.01191285                3.44182036               -0.27536875               -4.37550238               -8.37132258               80.65631375                4.73005801
              21.49963357                5.11365596               51.39773431                0.14011617                2.18437733                0.15989674               -4.23667528               -5.06938079               49.18401789                8.98296549
              22.51310435                4.35843856               50.98569704                0.32585901                1.15811373                0.72153548               -2.43654136               -0.62370287                8.43770617                1.98895779
              23.52279584                3.61775083               50.41143463                0.73922854                0.96914938                1.42568711               -4.28685300                0.01411192                0.47788749               -5.38554097
              13.91812470               12.63721227               51.13025155                0.76415568                0.23950231               -0.15781256                0.37752729               -0.06591651               -0.04771895                3.23064163
              14.92051972               11.92512430               50.51872778                0.22540408                0.60808631                0.62903368               -1.97067674               -0.11849840                2.74794010               -2.99300680
              15.93028642               11.20958391               49.96292569                0.00059655                4.77306912                0.81780837               -3.42479861               -5.94857875               47.11394044               -6.68032003
              17.01598110               10.37013759               50.23770014                0.00010000                8.59690709               -1.57044644               -3.59741731               -7.80995447               87.44395969               -3.23983481
              18.10222456                9.51071084               50.49130693                0.00010000                7.56018670               -1.20356473               -3.80570907               -6.21026250               85.88820414               -1.53885663
              19.16718484                8.65594460               50.73849907                0.00010000                5.43241500               -0.56138513               -4.01527403               -5.22759392               85.92239626               -0.23498567
              20.21087286                7.80248716               50.99479766                0.00010000                3.33848453                0.14436191               -4.16974497               -5.37568734               87.66830980                1.16427564
              21.23395453                6.95150359               51.27666055                0.01713671                1.57429812                0.78408097               -4.17079976               -6.00966234               91.31485892                3.13990139
              22.24235883                6.11703656               51.60278115                0.14785562                0.87019424                0.88936109               -3.70753965               -4.53619377               55.53934008                6.67670585
              23.25135841                5.36504171               51.16371193                0.33493092                0.88488584                0.59046758               -1.97098065               -0.77696245                8.88335917                2.22407205
              24.26005654                4.63112701               50.55167648                0.74354335                0.86981321                1.25431038               -3.96169602               -0.02721513                0.38882931               -4.21915143
              14.62559544               13.63615348               51.00434794                0.87999945                0.36463703               -0.10587960                0.03174615                0.33830311                1.47535609                2.74700594
              15.62924181               12.93206576               50.37368627                0.61149127                1.09740027                0.69414635               -2.40608725               -0.14054058                5.96344979               -2.58586681
              16.64754345               12.21589848               49.83250017                0.47728997                9.20346412                0.63145700               -3.68183278               -7.94285804               54.53385045               -4.77468525
              17.81331109               11.33869456               50.16932459                0.44542826               13.57464056               -3.14430331               -3.72830336               -6.32020036               96.03479532               -1.69565258
              18.91903626               10.49483449               50.46515498                0.43653420                8.73049111               -1.58763456               -3.83257712               -2.76663865               93.31661791               -0.74039235
              19.98792091                9.64973840               50.75200881                0.44432540                5.43440830               -0.62061983               -3.95196996               -2.34493154               93.23343771               -0.01160476
              21.02772442                8.80646370               51.04827583                0.46827094                2.33766210                0.39765453               -4.02193820               -2.44061492               95.23029679                0.77686093
              22.03467416                7.96722298               51.37405686                0.51040924               -1.61764302                1.57193967               -3.93525821               -3.67906302              100.04767728                1.93891632
              22.99537156                7.13144318               51.76045814                0.57693937               -2.55997554                1.44066270               -3.28246439               -4.54748014               63.35862235                4.70480984
              23.98347465                6.37024791               51.33837166                0.67095212               -0.26453049                0.52061938               -1.44466751               -1.21868379               12.53963666                2.20879913
              24.99008095                5.64283704               50.70876684                0.87316306                0.66063065                1.17100294               -3.50185268                0.26135377                2.30361231               -3.20999448
               7.52440140                3.84975823               53.22028295                1.00000000               -0.88813282               -0.97962278                3.31472103               -0.21849501               -2.34303280                2.73642412
               8.51552007                3.04287023               52.89960152                0.79305983               -0.87122514               -0.60344753                2.33173749               -0.20700125               -3.24478593               -1.65599609
               9.50697690                2.23235969               52.56153589                0.58090097               -1.06345053               -0.31380212                1.26520463               -0.53632405               -3.15143471               -1.00011567
              10.49425106                1.40633862               52.24311483                0.49002908               -1.32150921               -0.05884580                0.26364322               -0.60045293               -1.04388096               -0.36407069
              11.48054671                0.55487117               51.94671682                0.45157919               -1.14197009                0.24938761               -0.78875176               -0.50511912                1.00995391               -0.26066396
              12.47141166               -0.32303065               51.66807442                0.45312845               -0.39800205                0.55115482               -1.88343192               -0.29807410                2.12951240               -0.03232209
              13.47258667               -1.21695868               51.39266521                0.49292992                0.61263227                0.83968023               -2.96744838               -0.23611896                1.61899915                0.18659988
              14.48366431               -2.11184722               51.10312735                0.57698977                1.38195932                1.11196951               -3.99380412               -0.28683643               -0.03893350                0.35033701
              15.50022586               -2.99855555               50.79423839                0.72354821                1.76454624                1.37500821               -4.98636730               -0.28766855               -1.91641288                0.44648277
              16.51895523               -3.87578728               50.46638075                0.97220249                1.93924256                1.63274320               -5.99184715               -0.22407479               -2.51132435                1.05494613
              17.53901071               -4.74708745               50.14406680                1.00000000                2.00554799                1.98270786               -7.01147234               -0.32916968               -2.13060871               -1.89707197
               8.32910445                4.83996200               53.08750201                0.92299929               -0.69551170               -0.96323218                2.91484564               -0.08639835                0.96094686                3.48210749
               9.32214933                4.03683576               52.76143713                0.44933506               -0.46124909               -0.50492071                1.92164916               -0.16404405                2.59313458               -2.84373139
              10.31987947                3.22922167               52.46855323                0.08371000                0.24207318                0.01044596                1.15156494               -1.00058380                5.20411687               -5.86112818
              11.32699079                2.40575016               52.19484976                0.00808005                1.01503449               -0.57964812                0.29027106               -2.01885472                6.93144900               -4.48105938
              12.34018016                1.55736504               51.93694906                0.01043613                1.36775241               -0.75746937               -0.58388981               -3.02803467                8.58633844               -2.97947188
              13.35434584                0.68248090               51.69701108                0.01370018                1.22268076               -0.43383010               -1.51652017               -3.63181620                9.60976812               -1.90675928
              14.36463377               -0.20856188               51.45983624                0.01657131                0.86242669                0.09287372               -2.44820791               -3.43202033                9.08148460               -0.74936255
              15.37159438               -1.10072753               51.20847913                0.07392114                0.73427165                0.46843104               -3.33063089               -2.41519225                7.48667774                1.21721215
              16.37931920               -1.98480546               50.93778982                0.27718190                0.96930301                0.85144156               -4.19684318               -0.98064448                5.92500682                4.80697580
              17.39098044               -2.85945985               50.65354984                0.61615907                1.38499914                1.36079510               -5.06930806               -0.35321624                3.80483501                2.93992556
              18.40701919               -3.72726038               50.33906394                0.95145632                1.60387500                1.96331505               -5.99979640               -0.32839249                2.36215863               -2.79210449
               9.12892592                5.83049359               52.97038955                0.83114912               -0.59463967               -0.90231833                2.61875627               -0.08926261                0.34456690                4.11503202
              10.12297953                5.03277182               52.59994219                0.30259106               -0.54375507               -0.31109305                1.35739625               -0.10138933                2.77619403               -3.96073091
              11.11805082                4.23256861               52.27857951                0.01196666                0.13755336                0.55384022                0.46783069               -2.10847049               10.55066723              -12.68717429
              12.12573059                3.39474565               52.06414107                0.00010000                1.26022295               -0.79113723               -0.32616392               -4.58446403               16.98548702               -8.86405004
              13.14325528                2.53972178               51.87247624                0.00010000                1.94858315               -1.39395903               -1.20153240               -5.90751450               18.43475000               -6.01533568
              14.16470226                1.66829275               51.68787099                0.00010000                2.19497071               -1.27026284               -2.04614394               -6.73770341               18.98279382               -3.79600280
              15.18715469                0.78489880               51.50743436                0.00010000                2.34508972               -0.79129456               -2.86614690               -6.57584400               19.38072951               -1.43100565
              16.21160405               -0.10247860               51.33006120                0.00010000                2.60952992               -0.44009952               -3.62219382               -5.13252086               20.32705650                2.00328602
              17.23934529               -0.98152672               51.16716804                0.09813362                2.13708832               -0.48141105               -3.33740344               -2.74570107               14.71920188                6.63309757
              18.25434582               -1.84857138               50.87677963                0.28128648                1.43493101                0.61150594               -3.96936403               -0.93865626                4.80622045                3.69116929
              19.26804391               -2.70782115               50.51429260                0.71742562                1.36980961                2.30944612               -5.12907410               -0.69983624                1.23737596               -4.72178355
               9.92276273                6.82191564               52.85094406                0.80958897               -0.47162083               -0.80135082                2.29324706               -0.06849793                0.06494001                3.94135775
              10.91804652                6.03061390               52.43966066                0.27339551               -0.35132549               -0.15099002                0.85994550                0.10323574                1.05103398               -3.78754001
              11.91573622                5.24029847               52.04843511                0.00419775                0.50509103                0.73229082               -0.36109915               -2.60254573               15.61414985              -13.09035747
              12.92814834                4.38992741               51.92852526                0.00010000                1.63732753               -0.18802624               -1.03392609               -5.54626303               28.74515863               -9.12965158
              13.94848277                3.52948586               51.80184275                0.00010000                2.31332078               -0.73471050               -1.79512827               -6.29860826               28.56395051               -6.28325461
              14.97441476                2.65707564               51.67981676                0.00010000                2.77027358               -0.93127587               -2.57688059               -6.92161414               29.00280440               -3.64666889
              16.00388824                1.77561223               51.56266961                0.00010000                3.04773569               -0.86273051               -3.34051851               -6.96708330               29.57694805               -0.92540948
              17.03536947                0.89047048               51.45213253                0.00010000                3.33048592               -0.73439317               -4.00338681               -6.47004661               30.20175571                2.03379840
              18.07049796                0.00556631               51.34683955                0.09838241                3.15661385               -1.05717652               -4.89303404               -4.13641111               22.29331182                4.87317998
              19.09850175               -0.84722973               51.07810868                0.26712424                2.05120240                0.37242894               -3.84434713               -0.97300761                7.20583049                1.72543418
              20.11152201               -1.68107145               50.66905320                0.70351595                1.30202602                2.56521583               -5.12942884               -0.07069039                0.22667419               -6.04070399
              10.71015944                7.81446657               52.73084509                0.79728652               -0.34980378               -0.69159208                1.97716749               -0.06655093                0.07218208                3.92267052
              11.70666140                7.02975202               52.28177102                0.25828867               -0.17365263               -0.02039199                0.36832155                0.16352978                0.90961466               -3.62672835
              12.70668639                6.24721442               51.84968716                0.00165028                0.94782693                0.71975950               -0.98078465               -3.20047240               20.45020281              -11.09274322
              13.72561794                5.39098513               51.79136393                0.00010000                2.17242489                0.26949278               -1.65339244               -6.70123461               38.94047291               -8.80497472
              14.75013489                4.52502757               51.73150998                0.00010000                2.72628305               -0.23136440               -2.35938288               -7.18988652               38.83727874               -6.05026442
              15.78014360                3.64966723               51.67342476                0.00010000                3.21416515               -0.56938881               -3.08994059               -7.57585567               39.08434577               -3.33990710
              16.81441819                2.76764419               51.62026167                0.00010000                3.60527171               -0.70196793               -3.82503381               -7.59849302               39.60975208               -0.55812158
              17.85224904                1.88283354               51.57377235                0.00010000                3.99495472               -0.70118199               -4.60147240               -7.25758437               40.34537062                2.39244161
              18.89431728                0.99732975               51.53592253                0.10488034                3.46371973               -0.62474662               -5.49991669               -4.49494688               28.81950376                5.87090922
              19.92152343                0.15887720               51.25904308                0.27584353                1.99981330                0.78128542               -3.84405737               -1.12310991                8.64577092                0.66094506
              20.93431355               -0.65651684               50.81431730                0.70882063                1.27901179                2.33840626               -5.24992223                0.01186174                0.34105257               -6.62593276
              11.49086081                8.80808379               52.61143609                0.78682463               -0.22915516               -0.58557784                1.66378246               -0.06587172                0.07287938                3.95488038
              12.48856926                8.03020606               52.12472210                0.24643379               -0.01835766                0.11186493               -0.11937418                0.17264011                1.11751267               -3.54940241
              13.49049366                7.25469366               51.65905069                0.00102745                1.38706215                0.80569338               -1.55141322               -3.71489058               25.55666038              -10.52134743
              14.51631050                6.39531727               51.66096286                0.00010000                2.77546386                0.56156382               -2.19664134               -7.74448117               48.84764333               -8.15303198
              15.54600294                5.52485858               51.66411787                0.00010000                3.19852615                0.12999738               -2.86342940               -8.17758016               48.89029736               -5.56161607
              16.58028103                4.64568787               51.66990684                0.00010000                3.63745708               -0.27797281               -3.55203662               -8.40824136               49.14610319               -2.84666386
              17.61875208                3.76157287               51.68084865                0.00010000                4.01255944               -0.52394393               -4.26358976               -8.31954787               49.69876353               -0.00577542
              18.66053222                2.87644684               51.69977806                0.00010000                4.29016398               -0.54912032               -5.01323277               -7.98754493               50.60102240                3.10832756
              19.70455536                1.99307138               51.72996611                0.11143394                3.46769617               -0.27942039               -5.83560632               -4.88279049               34.89707906                6.71484354
              20.72988614                1.16839598               51.43432707                0.28483721                1.89959780                1.01755438               -3.76818055               -1.05265971                9.56595923                0.54310231
              21.74254731                0.36569667               50.95316766                0.71432137                1.26611746                2.12896170               -5.31023081                0.02937083                0.41611560               -6.85115214
              12.26459748                9.80275501               52.49235097                0.77744339               -0.10931434               -0.48088314                1.35094334               -0.06619972                0.07547410                3.95340330
              13.26350434                9.03198932               51.96827179                0.23633250                0.13399419                0.24598545               -0.60452446                0.15873632                1.42407398               -3.49545925
              14.26727736                8.26332829               51.47122614                0.00076663                1.85295348                0.92298002               -2.08416828               -4.17007287               30.84318665              -10.24261305
              15.30056341                7.40221641               51.53528324                0.00010000                3.44676613                0.78339793               -2.67975100               -8.62259423               58.81584150               -7.59439190
              16.33621269                6.52762752               51.60123986                0.00010000                3.73505350                0.34549796               -3.29431248               -9.04286163               58.88830346               -4.92742186
              17.37526448                5.64410778               51.67035798                0.00010000                4.05277851               -0.10391114               -3.93171175               -9.13059762               59.18616463               -2.21711833
              18.41726826                4.75716531               51.74559973                0.00010000                4.28675775               -0.38787601               -4.58761461               -8.90074972               59.85468575                0.66308560
              19.46099963                3.87185113               51.83075539                0.00010000                4.37220412               -0.39984578               -5.25799704               -8.47104971               60.99452122                3.89441000
              20.50471234                2.99174135               51.93009494                0.11813202                3.34226580               -0.04024377               -5.93970989               -4.99631706               40.69605710                7.64734281
              21.52784495                2.17922829               51.60767363                0.29369281                1.77936194                1.08105833               -3.60261370               -0.89756967               10.10935573                0.75083537
              22.54029958                1.38606240               51.08952263                0.71947898                1.24546304                1.95319489               -5.28056954                0.03883066                0.47782851               -6.73721721
              13.03106821               10.79846613               52.37324488                0.76895564                0.01024981               -0.37685973                1.03730923               -0.06661292                0.07684092                3.91368845
              14.03117071               10.03512577               51.81208269                0.22787619                0.28984515                0.38219190               -1.08894527                0.12146792                1.81039226               -3.46407448
              15.03686511                9.27315326               51.28556652                0.00062954                2.41943435                1.02028018               -2.58300681               -4.61527991               36.31943054               -9.96064784
              16.07955940                8.41098523               51.41420753                0.00010000                4.31946108                0.86209797               -3.09792399               -9.27731676               68.91088157               -6.91411069
              17.12325433                7.53176853               51.54351029                0.00010000                4.42859447                0.32207672               -3.64010522               -9.52653155               68.86497206               -4.15492027
              18.16813128                6.64360964               51.67522900                0.00010000                4.48696988               -0.08241359               -4.20740968               -9.32298733               69.16994424               -1.54204568
              19.21299373                5.75381535               51.81423729                0.00010000                4.42019497               -0.26814042               -4.78268790               -8.99777410               70.05306876                1.24098007
              20.25653518                4.86844993               51.96641275                0.00257082                4.21290634               -0.26935564               -5.33666574               -8.56792628               71.57983555                4.54140194
              21.29725186                3.99226651               52.13693271                0.12495784                3.05392554                0.14219545               -5.82148117               -4.97274199               46.36224428                8.55409762
              22.31761369                3.19001714               51.78185677                0.30246164                1.62019234                1.03466514               -3.33914458               -0.75701401               10.37912196                1.18620904
              23.32965571                2.40476057               51.22620305                0.72437762                1.20420113                1.78640959               -5.15188248                0.03741413                0.52392242               -6.36111251
              13.78994595               11.79521782               52.25366340                0.76145695                0.13006114               -0.27274168                0.72088602               -0.06760161                0.09603258                3.88064518
              14.79124656               11.03963316               51.65593174                0.22092835                0.45831757                0.52078582               -1.57347181                0.03619087                2.32963379               -3.50097267
              15.79911230               10.28373390               51.10276010                0.00055096                3.25776186                1.03053818               -3.03348941               -5.16933160               42.11667452               -9.35769125
              16.85640180                9.41945837               51.30016882                0.00010000                5.69726684                0.46249120               -3.43728893               -9.58570074               79.17991254               -5.71663684
              17.91305764                8.53406905               51.49266397                0.00010000                5.51780549               -0.20884985               -3.88648653               -8.93870349               78.67560123               -3.11915518
              18.96675791                7.64245950               51.68421737                0.00010000                4.97074262               -0.19421525               -4.36769528               -8.26936020               78.86741655               -0.91308086
              20.01247249                6.75180250               51.88421983                0.00010000                4.22160220               -0.01177223               -4.84653903               -8.02373787               80.14080015                1.44921914
              21.05118995                5.86646402               52.10345383                0.00733747                3.56088950                0.08330643               -5.26134289               -8.03646897               82.43386919                4.50353916
              22.08369028                4.99458526               52.34950474                0.13189672                2.45103249                0.42376458               -5.50215726               -4.97553058               52.16665418                8.99863620
              23.10021060                4.19992159               51.95891020                0.31105704                1.39353635                0.91894631               -2.97504497               -0.71962302               10.53469416                1.84212406
              24.11156101                3.42179059               51.36570543                0.72891703                1.13504055                1.61314965               -4.91949570                0.02430185                0.58836748               -5.80539683
              14.54088550               12.79301130               52.13416225                0.75382051                0.24929437               -0.16742547                0.40527417               -0.06865937               -0.05191238                3.37719024
              15.54337845               12.04554148               51.49856421                0.21463798                0.63838831                0.65860696               -2.06389103               -0.15942803                3.24268313               -3.13959881
              16.55365327               11.29376403               50.92865827                0.00059237                4.70658885                0.76816770               -3.40458039               -5.83485865               48.70236732               -6.86934974
              17.63751022               10.42023505               51.20124324                0.00010000                8.39129281               -1.45312014               -3.67432741               -7.66842430               89.51403293               -3.41627691
              18.72147913                9.52759154               51.45215263                0.00010000                7.37502043               -1.03352717               -4.01782154               -6.07189647               87.82206341               -1.70616543
              19.78501063                8.63972534               51.69644683                0.00010000                5.35176687               -0.34676539               -4.40348430               -5.06457256               87.77905275               -0.40046657
              20.82851446                7.75357991               51.95018748                0.00010000                3.40062080                0.40204081               -4.78321599               -5.13212097               89.54452827                1.01756047
              21.85302305                6.87011606               52.23078741                0.01241664                1.78846051                1.07971769               -5.07026378               -5.73060218               93.42646877                3.04828572
              22.86428367                6.00074180               52.55964695                0.13957928                1.14964253                1.24069466               -5.03097883               -4.39071723               58.78730401                6.77791942
              23.87601590                5.20839607               52.14160371                0.31995528                1.10600348                0.76815866               -2.50561022               -0.91226185               11.02666655                2.19841814
              24.88640374                4.43702356               51.50923784                0.73297897                1.03878439                1.43891680               -4.58719232               -0.02342720                0.49887652               -4.48353330
              15.28351239               13.79186931               52.00473968                0.87489381                0.37928793               -0.11419882                0.04699782                0.35628742                1.54005540                2.87241335
              16.28730527               13.05280529               51.34908571                0.60633686                1.21045830                0.72638120               -2.51600451               -0.24592050                6.67075506               -2.71200112
              17.30772156               12.29909725               50.79574628                0.47619170                9.09502654                0.53332236               -3.63933925               -7.71363772               56.47857510               -4.92435902
              18.46920580               11.39039596               51.13166433                0.44527448               13.22039321               -2.98390896               -3.78063641               -6.11537928               98.34725388               -1.77245886
              19.57212942               10.51339851               51.42586781                0.43664541                8.51361414               -1.41930288               -4.01402995               -2.67855867               95.45502284               -0.81071713
              20.63947809                9.63552420               51.71074902                0.44408256                5.36549663               -0.42011426               -4.30467777               -2.23101440               95.26991692               -0.07654309
              21.67943936                8.75984332               52.00531188                0.46722727                2.49689679                0.62634061               -4.59853810               -2.28080218               97.27321409                0.72794672
              22.68941602                7.88805837               52.33070849                0.50794231               -1.09217167                1.79423139               -4.79889540               -3.38291116              102.37753310                1.92926939
              23.65759592                7.01939915               52.72163171                0.57273451               -2.18662102                1.86573503               -4.60012990               -4.30745550               66.88133146                4.82294833
              24.64568360                6.21528476               52.32162196                0.66336858               -0.18792213                0.68886926               -1.95987400               -1.47474101               14.83949307                2.25197866
              25.65383748                5.45056893               51.67103727                0.86778222                0.81538787                1.35453627               -4.10590071                0.27178986                2.48501433               -3.36613497
               7.82612024                4.01241224               54.25409282                0.99757820               -0.92094021               -1.01764284                3.44844886               -0.23029067               -2.43516110                2.84046796
               8.81691084                3.16607407               53.92333166                0.78396499               -0.89757219               -0.62480841                2.41503293               -0.21727372               -3.37999739               -1.74879145
               9.80816880                2.31602909               53.57433282                0.57667233               -1.06044998               -0.32542538                1.29435027               -0.52416695               -3.29626039               -0.97582865
              10.79570184                1.45076392               53.24563806                0.48845544               -1.27468260               -0.05392637                0.24081302               -0.57754437               -1.17830110               -0.37818341
              11.78267515                0.56098535               52.93846520                0.45138246               -1.07060432                0.26521303               -0.86308274               -0.48284177                0.83330765               -0.26610889
              12.77428975               -0.35414255               52.64862010                0.45308767               -0.34107411                0.58037294               -2.00857061               -0.28755124                1.94525261               -0.03632178
              13.77585366               -1.28486656               52.36213219                0.49200196                0.64211174                0.88297866               -3.14384970               -0.22470961                1.47872762                0.18445064
              14.78713199               -2.21698926               52.06208384                0.57449331                1.41235871                1.16770797               -4.22116381               -0.26998499               -0.12673240                0.35248629
              15.80410084               -3.14160000               51.74300568                0.71862419                1.82395181                1.44468400               -5.26443919               -0.27533938               -1.98846090                0.44193864
              16.82361103               -4.05702554               51.40485444                0.96420255                2.03135987                1.71604213               -6.32122865               -0.22411958               -2.59154790                1.05090714
              17.84472804               -4.96631975               51.07212324                1.00000000                2.11170107                2.07784708               -7.38777214               -0.35550062               -2.21255251               -1.94630535
               8.67015551                5.00223581               54.11722544                0.91021048               -0.72258315               -0.99960104                3.03124173               -0.09196662                1.04587629                3.63872800
               9.66292967                4.15982598               53.78098216                0.43350318               -0.47866516               -0.52128580                1.98849170               -0.17239097                2.79164142               -3.01672607
              10.66058220                3.31277484               53.48020196                0.07762078                0.22592979                0.02253024                1.17943535               -1.00325929                5.46917759               -6.12847117
              11.66744827                2.45022466               53.19767312                0.00833976                0.98588790               -0.58325342                0.27629399               -1.99988730                7.14265051               -4.83001749
              12.68029996                1.56363748               52.93086075                0.01069257                1.34459633               -0.74513703               -0.63363714               -2.96629577                8.76229857               -3.41245079
              13.69434020                0.65166118               52.68143019                0.01409838                1.23649817               -0.43766718               -1.59907212               -3.53787697                9.75622610               -2.38331178
              14.70502992               -0.27603678               52.43478870                0.01737638                0.92293311                0.07430777               -2.56325682               -3.34064351                9.25083369               -1.25268737
              15.71279886               -1.20531218               52.17444792                0.06950186                0.81678298                0.47381123               -3.47781015               -2.35547935                7.68631563                0.70472854
              16.72136558               -2.12715316               51.89491616                0.26759174                1.04654227                0.89810319               -4.37756864               -0.97277872                6.12981710                4.81938661
              17.73372970               -3.03986512               51.60177662                0.59834442                1.45508307                1.42479756               -5.28643004               -0.35744622                3.97858772                3.02636859
              18.75046725               -3.94554128               51.27779104                0.93900591                1.67375409                2.05236685               -6.25772056               -0.36023466                2.50664650               -2.91535081
               9.50910056                5.99242022               53.99709348                0.81943785               -0.61765728               -0.93261718                2.72350713               -0.09150523                0.33907795                4.30760403
              10.50292399                5.15564835               53.61370658                0.28911191               -0.56978111               -0.32053949                1.39646373               -0.09439686                2.96282068               -4.17882471
              11.49770494                4.31647970               53.28325838                0.01142449                0.09587338                0.58930326                0.47138448               -2.12647883               10.96752427              -13.31103207
              12.50484146                3.43909885               53.06058019                0.00010000                1.21038812               -0.76871665               -0.38405510               -4.59365314               17.40139316               -9.57678607
              13.52191270                2.54608261               52.86000799                0.00010000                1.91825057               -1.37543140               -1.29322811               -5.84035715               18.82344028               -6.85979815
              14.54320647                1.63710411               52.66672135                0.00010000                2.20507269               -1.28058226               -2.18783613               -6.64044377               19.39134780               -4.73934015
              15.56601416                0.71661959               52.47783598                0.00010000                2.39661599               -0.82561146               -3.05900499               -6.46034614               19.83382779               -2.45580858
              16.59113879               -0.20751304               52.29272159                0.00010000                2.65920224               -0.44337234               -3.85116824               -5.04117915               21.35324970                0.93192910
              17.61919820               -1.12363794               52.13296053                0.09012113                2.18557157               -0.33308539               -3.51581106               -2.75224144               15.80457506                5.38321626
              18.63485022               -2.02852959               51.83652083                0.26562834                1.48387370                0.72230434               -4.07670103               -0.96013665                5.14217425                3.31699705
              19.64887568               -2.92527242               51.46215159                0.70640258                1.40254550                2.45072301               -5.29573894               -0.72198545                1.27629942               -5.41511333
              10.34186913                6.98358347               53.87432062                0.79799516               -0.48868782               -0.82514610                2.38369084               -0.07138016                0.06696474                4.12102272
              11.33698226                6.15341519               53.44834170                0.26022217               -0.36335033               -0.15533272                0.87703634                0.12210148                1.16829846               -3.96787593
              12.33460213                5.32456091               53.04473525                0.00378890                0.44950225                0.76119186               -0.37566482               -2.59207684               16.11234347              -13.67304447
              13.34597230                4.43485032               52.91784461                0.00010000                1.54427157               -0.12677260               -1.10034069               -5.56228828               29.45221679               -9.83841814
              14.36548756                3.53612885               52.78324685                0.00010000                2.25110178               -0.68313380               -1.92618237               -6.27121011               29.20053104               -7.09252770
              15.39099434                2.62604954               52.65306525                0.00010000                2.74762940               -0.88012826               -2.77972440               -6.87708956               29.62691619               -4.57269508
              16.42044015                1.70745099               52.52790734                0.00010000                3.06192359               -0.80268127               -3.62136470               -6.91121045               30.25559087               -1.97328728
              17.45223281                0.78582037               52.41036476                0.00010000                3.34485804               -0.62841086               -4.35984271               -6.34495381               30.81014460                0.81544147
              18.48733731               -0.13381487               52.29567610                0.09072254                3.19643202               -0.76898063               -5.33367404               -4.15156669               23.81210450                2.86846018
              19.51616145               -1.02541903               52.03833902                0.25293777                2.10879446                0.59585593               -4.13374691               -1.06905289                8.50106012                0.80781631
              20.52951320               -1.89652682               51.61610758                0.69392623                1.33517481                2.78650987               -5.48551393               -0.05978091                0.28544379               -7.23928477
              11.16800951                7.97591730               53.75100522                0.78591571               -0.36209252               -0.71220077                2.05634900               -0.06952719                0.07480786                4.10673876
              12.16438858                7.15254170               53.28543434                0.24541980               -0.17906149               -0.01827750                0.36464664                0.18326039                1.05521083               -3.80184671
              13.16442828                6.33170354               52.83972160                0.00137494                0.88195843                0.74402750               -1.00283275               -3.18711226               21.06713838              -11.54493048
              14.18202775                5.43656340               52.77440192                0.00010000                2.04305049                0.34220988               -1.73579716               -6.71340170               39.84331313               -9.42921365
              15.20528929                4.53241993               52.70710377                0.00010000                2.61573925               -0.13331094               -2.52386981               -7.17681334               39.68200150               -6.80433130
              16.23434253                3.61950154               52.64124926                0.00010000                3.13649135               -0.44671864               -3.35300577               -7.55109372               39.89352896               -4.21761979
              17.26801911                2.70056597               52.58019106                0.00010000                3.55815223               -0.54485585               -4.20147952               -7.54358137               40.37950980               -1.57163371
              18.30550558                1.77991875               52.52527678                0.00010000                3.96935799               -0.48114739               -5.11069296               -7.07921930               41.01263388                1.17883906
              19.34740627                0.86098245               52.47755144                0.09694898                3.53377680               -0.31277096               -6.17530668               -4.47502387               30.78653994                4.54115293
              20.37618111               -0.01661247               52.21863105                0.26168116                2.12446856                1.06214018               -4.28794132               -1.23236184               10.35312344               -0.19608403
              21.38989564               -0.86954222               51.75944844                0.69928889                1.37145287                2.58562760               -5.77649089                0.03493327                0.44014988               -7.77270707
              11.98722979                8.96933945               53.62841080                0.77547525               -0.23685645               -0.60427413                1.73263862               -0.06851114                0.07571869                4.13891114
              12.98486122                8.15304964               53.12341462                0.23384577               -0.01958033                0.12033627               -0.14223120                0.19036433                1.31641740               -3.72100588
              13.98683818                7.33944146               52.64338898                0.00079770                1.30633251                0.83272184               -1.57206038               -3.69076945               26.32559127              -10.93067856
              15.01098787                6.44169452               52.63849925                0.00010000                2.60874826                0.64925286               -2.28941382               -7.73783858               49.94389685               -8.70106817
              16.03901315                5.53346263               52.63452360                0.00010000                3.04192766                0.26938786               -3.05644188               -8.14966084               49.92403011               -6.23603242
              17.07182643                4.61711517               52.63283583                0.00010000                3.50690853               -0.08788562               -3.87063216               -8.35888794               50.12278820               -3.63848678
              18.10915132                3.69655388               52.63593585                0.00010000                3.92027577               -0.27999873               -4.73424667               -8.21776544               50.61412847               -0.91304665
              19.15023194                2.77619743               52.64645447                0.00010000                4.26083652               -0.25345402               -5.67078155               -7.73025995               51.42115537                2.11096256
              20.19436805                1.85992971               52.66713965                0.10347550                3.59034688                0.04306377               -6.74863175               -4.79039910               37.25231979                5.70452037
              21.22203888                0.99582377               52.39420870                0.27065906                2.08516590                1.30860765               -4.31781105               -1.14555966               11.58775973               -0.14959243
              22.23607137                0.15518573               51.89717142                0.70474678                1.40324858                2.38005982               -5.95627772                0.04959602                0.53332541               -7.83489025
              12.79921890                9.96383181               53.50614576                0.76631348               -0.11250352               -0.49753268                1.41008927               -0.06790303                0.07897030                4.13591181
              13.79809386                9.15494842               52.96202201                0.22422145                0.13745566                0.26014191               -0.64631294                0.17091953                1.69284244               -3.66483301
              14.80196801                8.34835797               52.45024124                0.00056709                1.75779703                0.95201713               -2.09727234               -4.13106486               31.79237335              -10.61394696
              15.83324980                7.44954846               52.50796767                0.00010000                3.24537064                0.88194753               -2.77387614               -8.57624052               60.12090971               -8.07018727
              16.86687542                6.53780769               52.56722744                0.00010000                3.54118633                0.51372059               -3.50692725               -8.96968078               60.11564109               -5.50611729
              17.90407353                5.61774383               52.62925838                0.00010000                3.88530598                0.13741500               -4.29670363               -9.02137618               60.34268311               -2.89017838
              18.94458154                4.69496599               52.69704317                0.00010000                4.17255091               -0.07891089               -5.14203348               -8.72802087               60.94727501               -0.08571885
              19.98752455                3.77484967               52.77434183                0.00010000                4.36951998               -0.05284313               -6.05314793               -8.14962230               62.01799440                3.11602265
              21.03197194                2.86184372               52.86524566                0.11010567                3.52446772                0.27905297               -7.06548640               -4.86067662               43.39649702                6.94411174
              22.05801390                2.00955968               52.56890178                0.27953998                2.00958551                1.36374231               -4.21787968               -0.97920930               12.37209426                0.22718828
              23.07216365                1.17805898               52.03346764                0.70983105                1.41497510                2.20112416               -6.00035060                0.05559769                0.60530767               -7.54205619
              13.60363851               10.95938880               53.38385627                0.75812103                0.01149455               -0.39132758                1.08667105               -0.06848653                0.08040558                4.09336350
              14.60375345               10.15825248               52.80090036                0.21623027                0.29891712                0.40178483               -1.14912063                0.12392671                2.16738909               -3.63245130
              15.60961685                9.35848180               52.25965913                0.00046435                2.31299475                1.04693824               -2.57805417               -4.56311490               37.48067011              -10.28329815
              16.65001335                8.45933347               52.38273526                0.00010000                4.09036518                0.95932962               -3.18234447               -9.18315352               70.44703727               -7.30844418
              17.69142415                7.54373704               52.50598638                0.00010000                4.21136251                0.50363254               -3.86037503               -9.39167226               70.30069836               -4.62148840
              18.73424060                6.61986347               52.63120696                0.00010000                4.30304552                0.18714138               -4.60490025               -9.13966637               70.52219350               -2.07306408
              19.77748506                5.69497566               52.76341238                0.00010000                4.30605832                0.08223338               -5.40409437               -8.74638713               71.34781747                0.66943817
              20.82036177                4.77514056               52.90868913                0.00010000                4.24797169                0.11939076               -6.24601255               -8.20900837               72.85089232                3.98677305
              21.86244450                3.86551077               53.07247857                0.11680897                3.29388373                0.45353626               -7.13149826               -4.82518044               49.37478147                8.14953732
              22.88623944                3.02309862               52.74556255                0.28819170                1.88701183                1.29872057               -3.98851485               -0.83594582               12.81558171                0.82926943
              23.90018473                2.19920821               52.17126656                0.71451129                1.39452952                2.02745631               -5.90815663                0.05141335                0.65818383               -6.98876128
              14.40012180               11.95600526               53.26106456                0.75089121                0.13575973               -0.28545024                0.76056011               -0.06991280                0.10004559                4.05820062
              15.40147940               11.16298412               52.63981230                0.20982806                0.47514630                0.54629350               -1.65228690                0.02076909                2.80119356               -3.67144647
              16.40962472               10.36929674               52.07246693                0.00044527                3.14260465                1.03644692               -2.99451274               -5.11055901               43.53209141               -9.61407247
              17.46433149                9.46873505               52.26538418                0.00010000                5.44436298                0.54915347               -3.50009752               -9.43311723               80.96987306               -6.01172661
              18.51851198                8.54788034               52.45268893                0.00010000                5.28550486               -0.01766750               -4.10064372               -8.76051514               80.33493597               -3.45551584
              19.57004159                7.62148666               52.63851658                0.00010000                4.79323594                0.07700746               -4.77916407               -8.03896199               80.42651195               -1.28462223
              20.61437670                6.69661066               52.83256186                0.00010000                4.13838427                0.33853285               -5.50966653               -7.71556966               81.65335845                1.06393570
              21.65280927                5.77723748               53.04611977                0.00275546                3.65667877                0.50370387               -6.25346290               -7.65167706               83.98718330                4.16159656
              22.68751028                4.87091445               53.28769116                0.12381996                2.73941357                0.74786039               -6.95007463               -4.84296399               55.45377562                8.85513863
              23.70759754                4.03553410               52.92619614                0.29660023                1.67312286                1.15998498               -3.63788415               -0.81224662               13.08701369                1.64745786
              24.72097274                3.21860810               52.31304472                0.71883055                1.33751928                1.84581433               -5.68939757                0.03645470                0.72976949               -6.26803843
              15.18828254               12.95367979               53.13835704                0.74344902                0.25948222               -0.17791915                0.43479850               -0.07100932               -0.05559427                3.53207226
              16.19087736               12.16917835               52.47744996                0.20410378                0.66861023                0.68993073               -2.16174567               -0.21490675                3.86939754               -3.29206009
              17.20165474               11.37921074               51.89483409                0.00063557                4.59450224                0.69692775               -3.32113069               -5.69751020               50.42885270               -7.02841609
              18.28276740               10.47031654               52.16421359                0.00010000                8.09037492               -1.31659261               -3.70652146               -7.50119451               91.57933976               -3.58852868
              19.36346224                9.54338369               52.41095050                0.00010000                7.09818173               -0.83452695               -4.21101603               -5.91864452               89.71049895               -1.88649152
              20.42473104                8.62140361               52.65042938                0.00010000                5.19803044               -0.09417548               -4.80454546               -4.89018909               89.54469043               -0.59587372
              21.46742285                7.70174632               52.89913334                0.00010000                3.41466987                0.70815936               -5.45282870               -4.86682199               91.26694089                0.82157634
              22.49302444                6.78521464               53.17525528                0.00770435                1.99328787                1.43643638               -6.09418735               -5.40913102               95.27128442                2.89299270
              23.50728861                5.88046798               53.50216157                0.13142749                1.46382086                1.65090921               -6.57403429               -4.21709391               62.34985741                6.78328550
              24.52230085                5.04629832               53.11359973                0.30539340                1.37386048                0.98584438               -3.16411766               -1.05410380               13.66447684                2.14880290
              25.53476582                4.23612450               52.45993264                0.72268123                1.24649626                1.66536851               -5.35047198               -0.01848809                0.63966294               -4.76687526
              15.96770449               13.95244688               53.00528790                0.86985300                0.39458227               -0.12329144                0.06350698                0.37578124                1.60919071                3.00459801
              16.97165032               13.17678273               52.32336618                0.60131113                1.34159192                0.76043818               -2.63161988               -0.38328351                7.53832788               -2.84315292
              17.99453633               12.38323529               51.75971339                0.47510679                8.92421631                0.40245561               -3.52058385               -7.43081779               58.59420946               -5.05323984
              19.15013464               11.44240320               52.09371187                0.44517155               12.72578435               -2.79133438               -3.78120379               -5.86555077              100.67101272               -1.85067686
              20.24905202               10.53118980               52.38487438                0.43664871                8.18702690               -1.21938931               -4.16966980               -2.58102433               97.56514140               -0.89071343
              21.31387518                9.61960315               52.66591526                0.44384911                5.20886087               -0.18004639               -4.66303909               -2.10638342               97.22723406               -0.16010051
              22.35322924                8.71077385               52.95630507                0.46626602                2.60149049                0.90275305               -5.22452372               -2.10120820               99.16462727                0.64970500
              23.36590499                7.80596621               53.27807895                0.50555675               -0.55722574                2.07515698               -5.78494136               -3.05400526              104.41331491                1.88290304
              24.34208472                6.90393263               53.66845554                0.56867218               -1.75230230                2.34646557               -6.14862816               -4.05614977               70.69583748                4.88199729
              25.33085894                6.05525098               53.29917418                0.65609344               -0.05670535                0.89526644               -2.59737830               -1.74504880               17.64164566                2.28688486
              26.34095061                5.25191547               52.62664883                0.86259330                1.00916702                1.57909744               -4.84625263                0.28492886                2.69449550               -3.52682755
               8.13722050                4.18030235               55.28925193                0.99095615               -0.95403812               -1.05664482                3.58388119               -0.24209326               -2.53313495                2.94879619
               9.12768012                3.29259339               54.94790218                0.77493825               -0.92376046               -0.64670781                2.49989905               -0.22732359               -3.52304406               -1.84613164
              10.11874529                2.40110484               54.58742290                0.57253818               -1.05637295               -0.33781526                1.32400770               -0.51175260               -3.44972566               -0.95011694
              11.10655266                1.49470481               54.24793110                0.48692651               -1.22572328               -0.04971401                0.21763175               -0.55411307               -1.32175559               -0.39163271
              12.09423083                0.56475789               53.92945517                0.45113139               -0.99514682                0.28153582               -0.94017830               -0.46028181                0.64666290               -0.27104933
              13.08664973               -0.38937728               53.62790300                0.45305300               -0.27666714                0.60906957               -2.13775513               -0.27775989                1.74674636               -0.04048302
              14.08869748               -1.35858269               53.32978822                0.49124437                0.68032217                0.92632803               -3.32737059               -0.21389528                1.32190271                0.18226170
              15.10025617               -2.32952566               53.01870407                0.57206750                1.44942752                1.22549519               -4.45853533               -0.25404698               -0.22829594                0.35513384
              16.11768604               -3.29353775               52.68894960                0.71374832                1.88752708                1.51651590               -5.55460939               -0.26431031               -2.07527556                0.43783156
              17.13800671               -4.24861349               52.33995618                0.95661999                2.12680153                1.80146198               -6.66395403               -0.22351025               -2.68660841                1.04827455
              18.16022207               -5.19734916               51.99631135                1.00000000                2.22153550                2.17534176               -7.77846870               -0.38344691               -2.30710436               -2.00265958
               9.02250853                5.16973590               55.14812685                0.89757105               -0.75028874               -1.03759311                3.14993451               -0.09791947                1.13596281                3.80239193
              10.01500564                4.28612632               54.80120697                0.41786238               -0.49682340               -0.53788031                2.05718090               -0.18091446                3.00073892               -3.20026800
              11.01257206                3.39772669               54.49214194                0.07167125                0.20896861                0.03549172                1.20971400               -1.00681213                5.74947274               -6.40536019
              12.01918501                2.49420767               54.20037564                0.00864576                0.95484995               -0.58331850                0.26540134               -1.98486310                7.37212827               -5.20568306
              13.03166906                1.56757324               53.92427632                0.01100732                1.31787026               -0.73090843               -0.68291330               -2.90710769                8.96115951               -3.87915473
              14.04554242                0.61671341               53.66502964                0.01456922                1.24818322               -0.43759147               -1.68149945               -3.44205807                9.92595276               -2.91340839
              15.05663272               -0.34931941               53.40857111                0.01827229                0.98254056                0.06233380               -2.67960388               -3.24252994                9.44327469               -1.82915801
              16.06519323               -1.31727071               53.13892293                0.06523149                0.89770626                0.48843967               -3.62773825               -2.28824286                7.90966715                0.10807190
              17.07458685               -2.27837259               52.85023845                0.25810998                1.12420441                0.94577097               -4.56070578               -0.96883238                6.35420963                4.77661759
              18.08767732               -3.23059887               52.54782124                0.58049652                1.52682120                1.49098252               -5.50483943               -0.36158113                4.16522060                3.11289186
              19.10512327               -4.17559574               52.21390953                0.92669258                1.74459551                2.14545989               -6.51741903               -0.39537172                2.66127570               -3.06043462
               9.90248128                6.15955049               55.02485969                0.80774728               -0.64102422               -0.96557735                2.83111617               -0.09390319                0.33236175                4.50879491
              10.89607104                5.28183579               54.62787147                0.27547711               -0.59767955               -0.32988472                1.43756871               -0.08717935                3.16488387               -4.41025747
              11.89052769                4.40181468               54.28800720                0.01081306                0.04689027                0.63238340                0.47981205               -2.14446127               11.40216060              -13.95565163
              12.89700885                3.48303844               54.05645997                0.00010000                1.15276196               -0.74351728               -0.43675655               -4.60894493               17.83309191              -10.32578478
              13.91358293                2.55013972               53.84661168                0.00010000                1.88461863               -1.35168581               -1.38757401               -5.77819283               19.23336758               -7.77078212
              14.93470122                1.60187089               53.64411427                0.00010000                2.21240378               -1.28097960               -2.33817632               -6.53627784               19.81414383               -5.78794654
              15.95783101                0.64266398               53.44625426                0.00010000                2.44216343               -0.84445916               -3.26482012               -6.32799648               20.30906696               -3.62737893
              16.98354449               -0.31975687               53.25303784                0.00010000                2.69032701               -0.42525874               -4.09299806               -4.93379670               22.44738252               -0.32619057
              18.01163755               -1.27462233               53.09685182                0.08217262                2.22268774               -0.16413982               -3.73119082               -2.74290094               17.02444661                3.90810100
              19.02799824               -2.21879384               52.79524561                0.25004740                1.53354174                0.87076213               -4.17916366               -0.97017410                5.56166087                2.78014998
              20.04230838               -3.15443996               52.40837782                0.69557865                1.43101395                2.62208750               -5.46271356               -0.73608876                1.32449207               -6.30258675
              10.77605986                7.15042435               54.89861788                0.78642277               -0.50620009               -0.85196594                2.47808280               -0.07376958                0.06964536                4.30964209
              11.77099786                6.27952862               54.45720138                0.24707841               -0.37898425               -0.15968107                0.89562972                0.14640985                1.30869983               -4.15784138
              12.76848018                5.41037436               54.04092182                0.00335557                0.38416063                0.79237040               -0.37892025               -2.58287060               16.64535206              -14.27158631
              13.77868107                4.47933733               53.90651844                0.00010000                1.43962887               -0.06461125               -1.16211988               -5.58708202               30.17232376              -10.56771206
              14.79727275                3.54053953               53.76331910                0.00010000                2.18057595               -0.62377611               -2.06187848               -6.24494345               29.84015428               -7.96226728
              15.82229259                2.59109382               53.62422228                0.00010000                2.72138967               -0.81633144               -2.99674076               -6.82612268               30.25044443               -5.60012124
              16.85170055                1.63379141               53.49024231                0.00010000                3.07555065               -0.72404870               -3.92346144               -6.83599222               30.93698011               -3.17121791
              17.88380360                0.67422412               53.36493568                0.00010000                3.35326258               -0.49612609               -4.73784974               -6.19249696               31.43165503               -0.61997150
              18.91876580               -0.28165538               53.24016607                0.08292334                3.21439318               -0.43442014               -5.76951797               -4.11757406               25.45165056                0.51975030
              19.94809147               -1.21318363               52.99543374                0.23907971                2.14639745                0.89398367               -4.48527710               -1.14039764                9.91482961               -0.40640749
              20.96169375               -2.12315399               52.55934292                0.68466494                1.36022791                3.07025758               -5.90492671               -0.03836698                0.36781558               -8.76565539
              11.64279736                8.14251117               54.77197207                0.77451844               -0.37481243               -0.73514395                2.13929941               -0.07151628                0.07792057                4.30180815
              12.63904923                7.27864217               54.28906396                0.23274646               -0.18678916               -0.01651774                0.36182265                0.20362420                1.23877582               -3.98519871
              13.63906157                6.41766209               53.82963051                0.00109248                0.80264023                0.75930472               -1.00410495               -3.17276362               21.72858111              -11.99843687
              14.65510204                5.48174622               53.75664799                0.00010000                1.89329966                0.41964144               -1.81013961               -6.73125735               40.75108926              -10.07355736
              15.67692757                4.53766420               53.68103258                0.00010000                2.49124253               -0.02626375               -2.69273673               -7.16638730               40.51651130               -7.61158642
              16.70492689                3.58554426               53.60636465                0.00010000                3.05266501               -0.30924009               -3.63332811               -7.52246140               40.68268299               -5.19117898
              17.73798087                2.62818301               53.53623208                0.00010000                3.51072250               -0.36657867               -4.60512078               -7.47540937               41.12253563               -2.73482624
              18.77514134                1.67032061               53.47155849                0.00010000                3.93564709               -0.23115360               -5.64693364               -6.87729105               41.64437395               -0.26030507
              19.81669381                0.71668927               53.41241640                0.08915693                3.57737801                0.05614773               -6.84991557               -4.40765253               32.88415093                2.86059426
              20.84668890               -0.20091416               53.17328426                0.24792206                2.23939849                1.41585145               -4.84156385               -1.31029939               12.22032754               -1.28900375
              21.86148178               -1.09303481               52.69878748                0.69008987                1.47928805                2.90668283               -6.41425955                0.06766698                0.56959874               -9.18898578
              12.50236754                9.13572148               54.64608886                0.76434736               -0.24481137               -0.62416963                1.80500554               -0.07096964                0.07913260                4.33482810
              13.49991943                8.27919827               54.12187747                0.22157555               -0.02233443                0.12823746               -0.16556510                0.20277234                1.56821530               -3.89986059
              14.50192085                7.42556045               53.62760948                0.00056699                1.20671952                0.85585585               -1.56662589               -3.66752567               27.15293829              -11.32791119
              15.52405382                6.48773016               53.61517459                0.00010000                2.41130566                0.74152177               -2.36773851               -7.73264207               51.04053818               -9.26249665
              16.55014696                5.54001425               53.60298904                0.00010000                2.86353660                0.41891012               -3.25098321               -8.12569520               50.93378260               -6.95618275
              17.58132455                4.58490902               53.59249420                0.00010000                3.36345216                0.11944061               -4.20736765               -8.30894505               51.05838824               -4.51861268
              18.61741601                3.62645983               53.58616371                0.00010000                3.82134878               -0.01043061               -5.23677032               -8.10792704               51.47094569               -1.96367471
              19.65775152                2.66960105               53.58636243                0.00010000                4.22157580                0.08081537               -6.36693691               -7.44882832               52.14779894                0.89396344
              20.70184752                1.71946757               53.59499348                0.09548402                3.69290186                0.42976924               -7.68230174               -4.65395614               39.77685723                4.35317689
              21.73160956                0.81513340               53.34797085                0.25686601                2.27204295                1.66661819               -5.00464957               -1.20559798               13.84547383               -1.01275341
              22.74728838               -0.06502034               52.83404211                0.69544058                1.56788214                2.70804698               -6.74232358                0.07423725                0.68339526               -9.01195375
              13.35442438               10.13002778               54.52055276                0.75540615               -0.11586802               -0.51534369                1.47241638               -0.07105617                0.08181919                4.33044171
              14.35326570                9.28120692               53.95534553                0.21212292                0.13773946                0.27440926               -0.68944544                0.17738153                2.03552149               -3.84138499
              15.35717917                8.43477920               53.42928070                0.00037418                1.63648478                0.98505789               -2.07320528               -4.09537489               32.82000003              -10.96388570
              16.38599540                7.49657665               53.47980571                0.00010000                3.00278139                0.98348403               -2.84553898               -8.53088655               61.42048631               -8.55036353
              17.41723480                6.54604240               53.53110131                0.00010000                3.31535056                0.69315153               -3.71583644               -8.89969732               61.30529646               -6.12139757
              18.45230241                5.58793307               53.58442391                0.00010000                3.69477514                0.39905696               -4.67893913               -8.91216975               61.43614611               -3.64205367
              19.49113030                4.62797440               53.64275906                0.00010000                4.04273125                0.26127980               -5.73313353               -8.54721230               61.94655947               -0.96668986
              20.53315703                3.67193692               53.70969243                0.00010000                4.34760134                0.34032009               -6.90000102               -7.79772154               62.89288991                2.13323332
              21.57808233                2.72528465               53.78878521                0.10210952                3.69539060                0.66720874               -8.24640483               -4.67460879               46.31739951                5.92711255
              22.60706485                1.83241820               53.52331604                0.26559675                2.25958384                1.70873850               -4.98574313               -1.03153755               14.95617202               -0.41769228
              23.62327401                0.96112613               52.96951561                0.70035570                1.62091598                2.52143023               -6.87694679                0.07694144                0.77050373               -8.47975517
              14.19858814               11.12541460               54.39497830                0.74737051                0.01274919               -0.40733567                1.13897479               -0.07146502                0.08372076                4.28444059
              15.19871563               10.28468645               53.78910028                0.20466668                0.30277389                0.42238551               -1.21188963                0.12246843                2.62414096               -3.80774657
              16.20464362                9.44526161               53.23400544                0.00031906                2.17286310                1.07491437               -2.52455029               -4.51417673               38.74782775              -10.57596853
              17.24217289                8.50739984               53.35056065                0.00010000                3.80764916                1.05844265               -3.23256831               -9.09012308               71.97167601               -7.69689644
              18.28079660                7.55387728               53.46630279                0.00010000                3.94881308                0.69761061               -4.07011024               -9.25602602               71.68485470               -5.11551924
              19.32114915                6.59289016               53.58313100                0.00010000                4.08356582                0.48057838               -5.01734578               -8.95395262               71.78923996               -2.67131162
              20.36246792                5.63168543               53.70615541                0.00010000                4.16688421                0.46929293               -6.06634858               -8.48382730               72.51513064               -0.01821781
              21.40448684                4.67640745               53.84149249                0.00010000                4.27030763                0.55964404               -7.22532363               -7.81132003               73.91416985                3.25294367
              22.44787407                3.73281174               53.99430275                0.10882981                3.53252497                0.83601877               -8.53138572               -4.62460887               52.65614666                7.47058118
              23.47513734                2.84930817               53.70208647                0.27416174                2.17686441                1.62076839               -4.79876052               -0.89355002               15.66365158                0.38774118
              24.49141136                1.98540827               53.10803992                0.70496465                1.62740193                2.33188098               -6.83233807                0.06927103                0.83370783               -7.70680215
              15.03445138               12.12188106               54.26887460                0.74041689                0.14166796               -0.29926017                0.80286771               -0.07266206                0.10429460                4.24701074
              16.03586806               11.28965463               53.62288600                0.19873607                0.48654351                0.57299736               -1.73487179               -0.00149257                3.40890008               -3.84938814
              17.04418225               10.45627749               53.04286984                0.00038064                2.98546015                1.03438171               -2.88746896               -5.05430188               45.08523174               -9.82825887
              18.09557726                9.51774551               53.23016686                0.00010000                5.12208521                0.63684760               -3.51630606               -9.27375857               82.73936439               -6.29462329
              19.14662396                8.55999461               53.41065110                0.00010000                4.99189740                0.18994859               -4.29626991               -8.57620773               81.93160286               -3.81084890
              20.19541521                7.59754464               53.58863409                0.00010000                4.56562564                0.37595121               -5.20195604               -7.80309487               81.88191642               -1.70834555
              21.23793647                6.63736026               53.77402650                0.00010000                4.01945521                0.72914000               -6.21701936               -7.39276837               83.00541995                0.58617458
              22.27580432                5.68312980               53.97838457                0.00010000                3.73764785                0.98046391               -7.33229712               -7.22107805               85.27731822                3.67555748
              23.31268943                4.74200503               54.21050325                0.11581985                3.03965031                1.14156929               -8.54316045               -4.66169659               59.05400848                8.49536020
              24.33659732                3.86483357               53.88615252                0.28258672                1.98849065                1.45429564               -4.46045849               -0.89221250               16.12676657                1.39906655
              25.35245924                3.00776375               53.25191748                0.70910939                1.58619161                2.13368398               -6.62936478                0.04900951                0.91049308               -6.78434104
              15.86158777               13.11942940               54.14285822                0.73315673                0.27015796               -0.18907605                0.46661916               -0.07388645               -0.05951442                3.69677973
              16.86428935               12.29614640               53.45532929                0.19368120                0.69394633                0.72275876               -2.26483284               -0.28509359                4.67305740               -3.45217507
              17.87546670               11.46594925               52.86223566                0.00074985                4.43456257                0.59981785               -3.14913477               -5.54659006               52.33031920               -7.14799424
              18.95298060               10.52013679               53.12711281                0.00010000                7.70033065               -1.16798182               -3.68033407               -7.31925932               93.61971491               -3.75103658
              20.02947331                9.55767625               53.36793231                0.00010000                6.73705037               -0.61290583               -4.37777834               -5.75613514               91.53452460               -2.07722933
              21.08772161                8.60040918               53.60035592                0.00010000                4.97770389                0.19028976               -5.21185110               -4.71155828               91.19889274               -0.82156696
              22.12902739                7.64626823               53.84113091                0.00010000                3.38494473                1.05668462               -6.16650576               -4.58803604               92.80530098                0.57031075
              23.15542050                6.69601673               54.10890366                0.00297342                2.19544904                1.84696384               -7.21929676               -5.04487829               96.79333138                2.64831507
              24.17293637                5.75564313               54.42816626                0.12358099                1.80569327                2.12230614               -8.30577780               -3.99473099               66.23457075                6.65258875
              25.19153437                4.87839409               54.07832136                0.29142364                1.67974091                1.25199965               -3.97517321               -1.19176392               16.84733417                2.07274252
              26.20653119                4.02808195               53.40222840                0.71277420                1.49968180                1.94181234               -6.27789022               -0.01527120                0.81760952               -5.07009542
              16.67953965               14.11809954               54.00600982                0.86476708                0.41066911               -0.13298567                0.08167853                0.39621399                1.68246184                3.14512133
              17.68364634               13.30410980               53.29645331                0.59625460                1.48602047                0.79634019               -2.75377222               -0.55558548                8.62064322               -2.98153604
              18.70926006               12.46827385               52.72533460                0.47404838                8.69093631                0.23246023               -3.29621128               -7.10686021               60.92505297               -5.15345546
              19.85746507               11.49438587               53.05604025                0.44503923               12.09843987               -2.57509189               -3.71650459               -5.57842106              102.98353027               -1.92778820
              20.95122886               10.54773649               53.34247441                0.43678562                7.75635028               -0.99397620               -4.29230448               -2.47621694               99.62992555               -0.97969811
              22.01259207                9.60135044               53.61748824                0.44361931                4.96696742                0.09412514               -5.02101947               -1.97508071               99.08829508               -0.26334557
              23.05056821                8.65849395               53.90082141                0.46523304                2.64698869                1.22257212               -5.88742252               -1.90998610              100.87506028                0.53641526
              24.06553185                7.72006908               54.21500966                0.50312081               -0.00753805                2.40523513               -6.87105143               -2.69100539              106.08993909                1.78365311
              25.05041745                6.78445115               54.59865915                0.56470927               -1.26043103                2.88080220               -7.88911403               -3.76166816               74.78031342                4.84008586
              26.04032323                5.88987356               54.26967439                0.64904913                0.11803240                1.14794743               -3.38165120               -2.01367208               21.00101027                2.31204617
              27.05277809                5.04659999               53.57411222                0.85755848                1.24548661                1.85180470               -5.74472455                0.29733397                2.93799164               -3.68847211
               8.45815704                4.35363833               56.32577044                0.98435476               -0.98780477               -1.09624395                3.72148679               -0.25389755               -2.63656493                3.06284209
               9.44827899                3.42254187               55.97332964                0.76600465               -0.95058336               -0.66905261                2.58665651               -0.23744551               -3.67451335               -1.94866493
              10.43914537                2.48758867               55.60081298                0.56845275               -1.05222655               -0.35053390                1.35445369               -0.49922302               -3.61369789               -0.92343311
              11.42723446                1.53804218               55.24999069                0.48551551               -1.17544384               -0.04600583                0.19394289               -0.53113150               -1.47648218               -0.40462173
              12.41563650                0.56592205               54.91966164                0.45090340               -0.91714172                0.29758165               -1.01915929               -0.43911718                0.44670223               -0.27539913
              13.40889163               -0.42920548               54.60586499                0.45303169               -0.20729224                0.63872269               -2.27182496               -0.26817402                1.53387740               -0.04421142
              14.41149065               -1.43878710               54.29558478                0.49051335                0.72565310                0.97011276               -3.51639562               -0.20479298                1.14839407                0.17992392
              15.42340469               -2.45032430               53.97291313                0.56979746                1.49262853                1.28397854               -4.70358989               -0.23968053               -0.34863839                0.35760020
              16.44134322               -3.45542106               53.63191349                0.70920658                1.95562084                1.58980352               -5.85455191               -0.25246901               -2.17843517                0.43561561
              17.46251711               -4.45179017               53.27157536                0.94899580                2.22661873                1.88934506               -7.01934918               -0.22281863               -2.79293914                1.04635547
              18.48587560               -5.44156929               52.91655387                1.00000000                2.33584905                2.27528536               -8.18409509               -0.41385434               -2.41096600               -2.07060636
               9.38671453                5.34267589               56.18022413                0.88511551               -0.77851622               -1.07666196                3.27047102               -0.10409428                1.23142554                3.97461772
              10.37892936                4.41585134               55.82212578                0.40227418               -0.51557695               -0.55465392                2.12754355               -0.18986918                3.22145617               -3.39432864
              11.37640299                3.48408333               55.50439624                0.06557280                0.19135464                0.04990583                1.24171328               -1.01274716                6.04616305               -6.69248921
              12.38275646                2.53758212               55.20298115                0.00899944                0.92330825               -0.58009131                0.25676233               -1.97605538                7.61722246               -5.60725696
              13.39486915                1.56889787               54.91720249                0.01138008                1.29040043               -0.71489369               -0.73085950               -2.85555548                9.18110917               -4.38387960
              14.40856446                0.57718175               54.64780021                0.01511448                1.25664894               -0.43209900               -1.76446011               -3.35143526               10.12242600               -3.50349558
              15.42000213               -0.42908597               54.38119663                0.01926049                1.03801992                0.05939556               -2.79619550               -3.14424921                9.66051831               -2.48930650
              16.42932486               -1.43748451               54.10189315                0.06111251                0.97746687                0.51373503               -3.77898987               -2.21764293                8.15469211               -0.58391056
              17.43955147               -2.43952303               53.80370205                0.24885626                1.20190863                1.00087608               -4.74552251               -0.96380345                6.60018359                4.65186340
              18.45336304               -3.43289672               53.49167983                0.56297564                1.59823558                1.56255376               -5.72503935               -0.36265419                4.37091098                3.19302350
              19.47151618               -4.41881644               53.14744266                0.91441727                1.81531435                2.24058743               -6.77999846               -0.43069665                2.83183277               -3.24079582
              10.30972425                6.33210509               56.05371580                0.79604948               -0.66500892               -1.00059800                2.94178041               -0.09660472                0.32514228                4.72087779
              11.30307416                5.41144879               55.64245795                0.26215408               -0.62823001               -0.33927319                1.48030832               -0.07976725                3.38370073               -4.65536214
              12.29715965                4.48858679               55.29285462                0.01013256               -0.00876712                0.67112685                0.49071513               -2.16096570               11.85725784              -14.61283403
              13.30289882                3.52644035               55.05184506                0.00010000                1.08830531               -0.71370287               -0.48283486               -4.63487887               18.27890061              -11.11383092
              14.31892576                2.55162418               54.83225651                0.00010000                1.84739743               -1.32176350               -1.48532644               -5.72850740               19.65636328               -8.75544669
              15.33984677                1.56215254               54.61995782                0.00010000                2.21730853               -1.26925080               -2.49894583               -6.43539092               20.24343308               -6.95479891
              16.36327193                0.56240081               54.41253958                0.00010000                2.48210576               -0.84326045               -3.48746387               -6.18689591               20.80204894               -4.96492032
              17.38948888               -0.44004959               54.21086163                0.00010000                2.71037166               -0.38075966               -4.35564141               -4.80935284               23.59346952               -1.79233824
              18.41747936               -1.43540354               54.05833672                0.07418781                2.25342773                0.02692876               -4.00819125               -2.70843558               18.39606772                2.20543970
              19.43455744               -2.42053909               53.75293756                0.23487290                1.58108752                1.06554476               -4.27814288               -0.97179277                6.09146094                2.03024766
              20.44910111               -3.39675755               53.35289732                0.68504854                1.45436736                2.82834220               -5.62770243               -0.74509670                1.37950341               -7.43535171
              11.22609503                7.32266393               55.92388228                0.77507185               -0.52427165               -0.88113065                2.57630456               -0.07681014                0.07202217                4.50891971
              12.22085231                6.40906588               55.46625430                0.23417958               -0.39514616               -0.16435777                0.91578860                0.16367236                1.48028307               -4.35835924
              13.21819211                5.49750587               55.03715684                0.00290256                0.30845868                0.82301714               -0.36063771               -2.57507988               17.21398298              -14.87023962
              14.22702149                4.52330806               54.89460222                0.00010000                1.31973517               -0.00021214               -1.21785006               -5.61473142               30.89430444              -11.31994357
              15.24458681                3.54246260               54.74200929                0.00010000                2.10292643               -0.55529550               -2.20279000               -6.22671158               30.47050141               -8.89727994
              16.26908002                2.55179673               54.59313044                0.00010000                2.69397688               -0.73732499               -3.23121326               -6.77319259               30.86065493               -6.73935768
              17.29846635                1.55404882               54.44943812                0.00010000                3.09310688               -0.62263852               -4.25263713               -6.74461874               31.61229630               -4.53447433
              18.33094215                0.55490030               54.31560777                0.00010000                3.37029521               -0.33322563               -5.14751193               -6.01567076               32.07341774               -2.28912353
              19.36587225               -0.43898445               54.18028574                0.07527772                3.21695157               -0.06147713               -6.20642463               -4.03009779               27.18563128               -2.15682570
              20.39528119               -1.41158582               53.94863347                0.22555529                2.15894490                1.28047204               -4.92351600               -1.18029990               11.41693936               -1.98802982
              21.40905115               -2.36224960               53.49800905                0.67564601                1.37699652                3.43682125               -6.40384323               -0.00737479                0.48411166              -10.68838581
              12.13538415                8.31448247               55.79379121                0.76333804               -0.38784871               -0.76042997                2.22556728               -0.07507508                0.08098376                4.50804759
              13.13150566                7.40816163               55.29267079                0.22007497               -0.19841421               -0.01475060                0.35969760                0.22086268                1.47216804               -4.17781093
              14.13141587                6.50504713               54.81963950                0.00080808                0.70708991                0.78635863               -0.97947354               -3.16588984               22.44080043              -12.44324844
              15.14564746                5.52643611               54.73819912                0.00010000                1.72434933                0.49894009               -1.87254263               -6.75656340               41.65135297              -10.73638019
              16.16590285                4.54051827               54.65324903                0.00010000                2.35746189                0.09038231               -2.86614216               -7.16238456               41.32429134               -8.47377385
              17.19279670                3.54740604               54.56858270                0.00010000                2.96865680               -0.15565411               -3.93439828               -7.49153683               41.43492318               -6.26762694
              18.22527599                2.54994804               54.48808865                0.00010000                3.47060176               -0.16477092               -5.04197007               -7.39422501               41.82766665               -4.05957384
              19.26220873                1.55328589               54.41233811                0.00010000                3.90437670                0.05212253               -6.21507001               -6.65825604               42.24839466               -1.94241107
              20.30336352                0.56336692               54.34055312                0.08132088                3.60039250                0.48044451               -7.52641000               -4.28955128               35.05743955                0.81873052
              21.33421658               -0.39492965               54.12179978                0.23436626                2.34588206                1.85613704               -5.54070333               -1.33847469               14.19219364               -2.66747626
              22.35028116               -1.32802112               53.63116325                0.68116221                1.60645796                3.32340596               -7.19187542                0.11813350                0.74404077              -10.92191777
              13.03723522                9.30745533               55.66451091                0.75334297               -0.25303057               -0.64656336                1.88074979               -0.07416647                0.08220245                4.54205686
              14.03470491                8.40877086               55.12010332                0.20919317               -0.03176904                0.13681442               -0.18929236                0.21742050                1.89185510               -4.08694258
              15.03659983                7.51323304               54.61205646                0.00034288                1.08570869                0.88185845               -1.52311142               -3.64960208               28.05211334              -11.71071675
              16.05641908                6.53328686               54.59114448                0.00010000                2.18846757                0.83595091               -2.42651251               -7.73856721               52.12076035               -9.83112634
              17.08036919                5.54427025               54.56950394                0.00010000                2.67002144                0.57738580               -3.44606144               -8.10714538               51.90012192               -7.72060871
              18.10981951                4.54868365               54.54868847                0.00010000                3.21664066                0.34299581               -4.56508512               -8.25874232               51.93306557               -5.49083636
              19.14470200                3.55075340               54.53120044                0.00010000                3.72693212                0.28462314               -5.77539505               -7.98863417               52.25411237               -3.16688360
              20.18435815                2.55594275               54.51911573                0.00010000                4.17973865                0.45491886               -7.10091767               -7.14907466               52.78601113               -0.55956362
              21.22829677                1.57062444               54.51349361                0.08758304                3.77707881                0.88548939               -8.62242795               -4.45365122               42.39909936                2.62916911
              22.25989973                0.62553692               54.29411571                0.24326025                2.46499936                2.10099344               -5.87120931               -1.21077815               16.27328939               -2.08491302
              23.27759676               -0.29578148               53.76232495                0.68639551                1.76970286                3.12435910               -7.70162533                0.11283136                0.88326170              -10.42366897
              13.93126975               10.30155121               55.53559409                0.74453699               -0.11933927               -0.53497797                1.53768261               -0.07364078                0.08545384                4.53670569
              14.93007636                9.41089792               54.94823310                0.20029334                0.13190379                0.28931064               -0.73390120                0.18186608                2.47715666               -4.02547234
              15.93390782                8.52268430               54.40877713                0.00020055                1.48812794                1.00701182               -2.00174628               -4.06147953               33.94505274              -11.28825607
              16.95983891                7.54315513               54.45105689                0.00010000                2.72276662                1.08737637               -2.88550101               -8.49439381               62.69524211               -9.02430540
              17.98836316                6.55206599               54.49291071                0.00010000                3.06498932                0.88033137               -3.91900786               -8.83537296               62.43492254               -6.76965300
              19.02113870                5.55426596               54.53567959                0.00010000                3.49405261                0.67717015               -5.07979334               -8.80361106               62.44465290               -4.47381822
              20.05824421                4.55564050               54.58238050                0.00010000                3.91087492                0.62952347               -6.36169596               -8.35787530               62.83640937               -1.98657189
              21.09935620                3.56238427               54.63634181                0.00010000                4.32260585                0.77822760               -7.79088437               -7.42120645               63.61380809                0.92736904
              22.14469633                2.58107671               54.70031756                0.09410566                3.85253690                1.12899563               -9.44975043               -4.43086850               49.38856863                4.55989081
              23.17640694                1.64709022               54.46918692                0.25195209                2.52391286                2.12400234               -5.95265131               -1.03675364               17.80330844               -1.21095424
              24.19517458                0.73446606               53.89592871                0.69124903                1.87676457                2.92258911               -7.94938670                0.10534644                0.98704320               -9.58450661
              14.81706897               11.29675577               55.40663577                0.73670547                0.01401624               -0.42428246                1.19416133               -0.07411201                0.08767429                4.48804797
              15.81720914               10.41455708               54.77666257                0.19333616                0.30220317                0.44347100               -1.27709421                0.11016561                3.21285828               -3.99111880
              16.82311304                9.53337328               54.20916812                0.00021083                1.99701933                1.09085187               -2.39656356               -4.46910072               40.14248272              -10.82268346
              17.85714952                8.55503439               54.31808389                0.00010000                3.47189286                1.15676478               -3.23864896               -8.99988981               73.46325769               -8.06790521
              18.89255089                7.56187687               54.42458417                0.00010000                3.65116265                0.89839243               -4.26572227               -9.12468379               72.99238564               -5.63193533
              19.93017278                6.56222705               54.53086005                0.00010000                3.84376438                0.79144353               -5.44406017               -8.76835977               72.94884640               -3.33602809
              20.96942618                5.56334387               54.64208541                0.00010000                4.01625228                0.88590734               -6.76607382               -8.21146724               73.53513495               -0.82685703
              22.01049782                4.57150730               54.76418266                0.00010000                4.27736363                1.04765974               -8.25557809               -7.38084152               74.76413629                2.31897359
              23.05497345                3.59320435               54.90185086                0.10084267                3.76387405                1.29407149               -9.97958137               -4.36820790               56.14094540                6.46863818
              24.08577530                2.66801697               54.64958734                0.26039621                2.49892726                2.00951617               -5.81609323               -0.91111696               18.86903237               -0.15168573
              25.10495200                1.76267030               54.03461980                0.69568812                1.91766976                2.71333686               -7.96459464                0.08923868                1.06104793               -8.53417340
              15.69418489               12.29306556               55.27712191                0.73012127                0.14772634               -0.31378011                0.84777830               -0.07576532                0.10849297                4.44789202
              16.69566215               11.41976734               54.60511486                0.18789854                0.49318018                0.60052310               -1.82086755               -0.04061437                4.19506754               -4.03575492
              17.70404850               10.54450134               54.01471755                0.00038091                2.78376850                1.02064065               -2.68820898               -5.00561709               46.80477315               -9.97711873
              18.75133752                9.56629042               54.19505805                0.00010000                4.73141611                0.71940159               -3.47292539               -9.10759878               84.46430704               -6.55557968
              19.79867682                8.57003383               54.36676353                0.00010000                4.64834935                0.40694581               -4.46839187               -8.39184342               83.43904010               -4.17985744
              20.84430451                7.57009483               54.53447746                0.00010000                4.30289008                0.69455351               -5.63325424               -7.56688342               83.21131134               -2.18256556
              21.88473462                6.57335865               54.70822147                0.00010000                3.87871862                1.15068777               -6.96039870               -7.06012112               84.17534806                0.01161774
              22.92187888                5.58333746               54.89947383                0.00010000                3.80439411                1.50242761               -8.47253555               -6.75213126               86.28322721                3.02929225
              23.96082250                4.60695814               55.11682795                0.10782803                3.34198803                1.60797511              -10.21827479               -4.42340264               62.91775909                7.85013793
              24.98871864                3.68728054               54.83698697                0.26883918                2.34150887                1.81071640               -5.48763682               -0.94076194               19.63233299                1.09472941
              26.00765268                2.78873280               54.18045742                0.69964322                1.89340334                2.49287715               -7.77738322                0.06282182                1.14264396               -7.36029768
              16.56215010               13.29048017               55.14768942                0.72306091                0.28109643               -0.20097283                0.50092864               -0.07716981               -0.06382464                3.87121426
              17.56496107               12.42656754               54.43215330                0.18345919                0.71637551                0.75683170               -2.37217724               -0.38089125                5.70886879               -3.61991388
              18.57647761               11.55378609               53.83185139                0.00096506                4.22519922                0.47334808               -2.85747933               -5.38715785               54.44658091               -7.20826398
              19.64946505               10.56942242               54.09060691                0.00010000                7.22160028               -1.01489399               -3.58117595               -7.12211947               95.60587301               -3.89843216
              20.72090962                9.57001579               54.32339494                0.00010000                6.30226211               -0.37610988               -4.51257653               -5.58892869               93.26738751               -2.27474290
              21.77551029                8.57611812               54.54619236                0.00010000                4.70357528                0.49883842               -5.62126699               -4.53342957               92.72060313               -1.07604895
              22.81498112                7.58635762               54.77580322                0.00010000                3.31727076                1.43812562               -6.91300988               -4.30439362               94.13679487                0.26140818
              23.84185571                6.60155585               55.03086934                0.00010000                2.37906007                2.30449042               -8.41201853               -4.65033101               97.95818825                2.30152595
              24.86256233                5.62536385               55.33604601                0.11560787                2.16648456                2.63952257              -10.16402411               -3.75603998               70.43330800                6.34520740
              25.88518540                4.70423129               55.03409627                0.27760900                2.03707972                1.57526467               -4.98261829               -1.30642876               20.58877738                1.97264196
              26.90330392                3.81252785               54.33437483                0.70315715                1.81185200                2.28227966               -7.40825952               -0.01123871                1.04820130               -5.39720545
              17.42046675               14.28904610               55.00692147                0.85988357                0.42716516               -0.14340647                0.10176929                0.41745202                1.75960453                3.29356170
              18.42473840               13.43490397               54.26829073                0.59142895                1.64918518                0.83364357               -2.88082582               -0.77615654                9.98262737               -3.12698339
              19.45345045               12.55396830               53.69378916                0.47306351                8.39635186                0.01822072               -2.93626096               -6.74828750               63.52023185               -5.21075478
              20.59266544               11.54599254               54.01938177                0.44484818               11.33760439               -2.34298801               -3.57115521               -5.25279445              105.25018486               -2.00114582
              21.68020254               10.56251164               54.29902829                0.43685652                7.23143242               -0.75041529               -4.37772725               -2.36675494              101.62445372               -1.07579799
              22.73729409                9.58007160               54.56549487                0.44337916                4.65032388                0.39534735               -5.37550433               -1.84114446              100.83584961               -0.38589375
              23.77320902                8.60212116               54.83855662                0.46429873                2.62859725                1.57635378               -6.57699195               -1.70942675              102.38515354                0.38623005
              24.78986603                7.62942727               55.14065792                0.50078942                0.49086196                2.78714216               -8.01866558               -2.31759634              107.37850385                1.61541504
              25.78302626                6.65974859               55.51067326                0.56075218               -0.72199783                3.43847327               -9.76680283               -3.48567866               79.14349154                4.68146696
              26.77542608                5.71878583               55.23154116                0.64207846                0.39042686                1.45545401               -4.35323919               -2.24444220               24.93955328                2.33355010
              27.79083480                4.83437839               54.51175434                0.85267207                1.54087199                2.18505437               -6.84004391                0.31234333                3.23615831               -3.85497530
               8.78937081                4.53265182               57.36368167                0.97791626               -1.02234923               -1.13689232                3.86139489               -0.26610868               -2.74677588                3.18195479
               9.77914732                3.55602781               56.99963531                0.75728804               -0.97802641               -0.69163819                2.67502403               -0.24757496               -3.83522893               -2.05645676
              10.76981028                2.57546966               56.61451197                0.56426493               -1.04864799               -0.36343906                1.38537605               -0.48685102               -3.78883098               -0.89583618
              11.75817436                1.58063146               56.25180995                0.48402548               -1.12598568               -0.04232959                0.16990936               -0.51018775               -1.64362816               -0.41704825
              12.74729057                0.56416820               55.90907198                0.45071257               -0.83851138                0.31325830               -1.09961232               -0.42000820                0.23160191               -0.28013471
              13.74140413               -0.47413193               55.58246650                0.45308584               -0.13366706                0.66826113               -2.40885226               -0.25953883                1.30384172               -0.04767681
              14.74461723               -1.52620791               55.25946031                0.48988784                0.77752780                1.01475693               -3.71008421               -0.19679728                0.95632830                0.17758183
              15.75695469               -2.58033370               54.92463227                0.56764125                1.54189351                1.34362862               -4.95447205               -0.22703647               -0.48591525                0.36015614
              16.77545510               -3.62840255               54.57185856                0.70466145                2.02764318                1.66440051               -6.16261085               -0.24320620               -2.30014528                0.43371033
              17.79750755               -4.66789531               54.19956919                0.94167106                2.32953193                1.97947157               -7.38584021               -0.22207896               -2.91887751                1.04719900
              18.82204574               -5.70053888               53.83262945                1.00000000                2.45381857                2.37837611               -8.60248085               -0.44550388               -2.53260043               -2.14749990
               9.76333373                5.52128290               57.21353627                0.87278338               -0.80710820               -1.11709605                3.39286128               -0.11069570                1.33314458                4.15633276
              10.75526265                4.54911143               56.84375784                0.38689549               -0.53468918               -0.57138900                2.19936810               -0.19943536                3.45415993               -3.59939048
              11.75263995                3.57183527               56.51697620                0.05974161                0.17302802                0.06638682                1.27495413               -1.02139038                6.36003795               -6.99009654
              12.75872321                2.58020816               56.20551089                0.00940420                0.89161178               -0.57453502                0.24989848               -1.97619362                7.88128259               -6.03384025
              13.77047219                1.56730078               55.90965913                0.01181295                1.26367934               -0.69721062               -0.77712192               -2.81753084                9.42293158               -4.93132135
              14.78399680                0.53255068               55.62974044                0.01573411                1.26389773               -0.42116927               -1.84762513               -3.27392214               10.34273478               -4.16163228
              15.79575014               -0.51606034               55.35264720                0.02034332                1.08924234                0.06659987               -2.91393488               -3.05485708                9.90282905               -3.24392239
              16.80578165               -1.56689741               55.06334313                0.05705196                1.05268512                0.55077270               -3.93178366               -2.15180793                8.42556062               -1.38607101
              17.81680384               -2.61175855               54.75532800                0.23985789                1.27866393                1.06526624               -4.93244526               -0.95876554                6.86990276                4.40343459
              18.83135492               -3.64810060               54.43332045                0.54550258                1.67152107                1.63763910               -5.94795457               -0.36186302                4.59372349                3.26833166
              19.85023426               -4.67675511               54.07830956                0.90222543                1.88793395                2.34127438               -7.04604461               -0.46879234                3.01586008               -3.45249249
              10.73149983                6.51030990               57.08369530                0.78461343               -0.68935893               -1.03777738                3.05509492               -0.09986010                0.31666100                4.94480037
              11.72460624                5.54460003               56.65747763                0.24897559               -0.66070445               -0.34814141                1.52401629               -0.07231016                3.62027579               -4.91409864
              12.71828574                4.57679739               56.29782150                0.00939504               -0.07106348                0.71747081                0.50725945               -2.18436534               12.33896121              -15.27393316
              13.72318497                3.56914076               56.04680327                0.00010000                1.01558491               -0.68118854               -0.52219377               -4.67909484               18.73442292              -11.94043171
              14.73859744                2.55022399               55.81690515                0.00010000                1.80509199               -1.28496901               -1.58676518               -5.70068512               20.08170945               -9.82180228
              15.75928681                1.51744468               55.59413535                0.00010000                2.21853696               -1.24344457               -2.67229224               -6.35099185               20.66951323               -8.25501721
              16.78296818                0.47512409               55.37650498                0.00010000                2.51649627               -0.81934053               -3.73137539               -6.05219636               21.30221973               -6.49037319
              17.80961674               -0.56931825               55.16592501                0.00010000                2.72573947               -0.30687101               -4.65068288               -4.67893146               24.76105188               -3.49341105
              18.83748297               -1.60709723               55.01668799                0.06638861                2.28250607                0.23751208               -4.36808514               -2.65877022               19.92866885                0.25865164
              19.85526686               -2.63514253               54.70968276                0.22000485                1.62479801                1.31470786               -4.37751322               -0.96320678                6.77597759                1.00994044
              20.86997893               -3.65371339               54.29582377                0.67475692                1.47120705                3.07837398               -5.79354931               -0.73755765                1.44929765               -8.86360283
              11.69275626                7.50052735               56.95014397                0.76363790               -0.54273121               -0.91332044                2.67742481               -0.07997304                0.07467748                4.71861787
              12.68732895                6.54214860               56.47551715                0.22121244               -0.41721749               -0.16815527                0.93721429                0.18476945                1.69688960               -4.56964576
              13.68441192                5.58618468               56.03370906                0.00243795                0.21928845                0.85500538               -0.31676158               -2.57503512               17.82029824              -15.45172567
              14.69171472                4.56658439               55.88216144                0.00010000                1.18713235                0.06677945               -1.26495025               -5.66243427               31.60211335              -12.09512727
              15.70815456                3.54160140               55.71926330                0.00010000                2.01810694               -0.47649616               -2.34859408               -6.22351152               31.07562943               -9.90295460
              16.73207686                2.50768179               55.55959801                0.00010000                2.66572892               -0.64054983               -3.48604090               -6.72748120               31.43929380               -8.00299099
              17.76146914                1.46755285               55.40518957                0.00010000                3.11737358               -0.49474398               -4.61646518               -6.64530026               32.26342310               -6.08129470
              18.79442433                0.42696517               55.26198544                0.00010000                3.39917898               -0.13586612               -5.60413546               -5.82665698               32.74056103               -4.20672015
              19.82945272               -0.60700831               55.11603757                0.06751817                3.21413083                0.34766199               -6.66204149               -3.89368196               28.97199980               -5.13643982
              20.85870695               -1.62180644               54.89696342                0.21228587                2.15860543                1.76983034               -5.48362311               -1.17617687               12.96530610               -4.04256662
              21.87262483               -2.61518763               54.43126606                0.66706989                1.39178798                3.89621621               -7.00944631                0.04471666                0.65447770              -13.10852906
              12.64665786                8.49204349               56.81648342                0.75204587               -0.40135680               -0.78838079                2.31582220               -0.07713113                0.08508965                4.72638813
              13.64264430                7.54123693               56.29625791                0.20759526               -0.21543081               -0.01257485                0.35796948                0.23680168                1.77177467               -4.38090108
              14.64234925                6.59389750               55.81004104                0.00052770                0.59376357                0.80119023               -0.91952631               -3.16252698               23.21445467              -12.87530224
              15.65451957                5.57047635               55.71919714                0.00010000                1.53402845                0.58327368               -1.91687626               -6.79483066               42.52629603              -11.41248975
              16.67302982                4.54069406               55.62370974                0.00010000                2.21330865                0.21694983               -3.04287561               -7.16959075               42.08257027               -9.39385283
              17.69878574                3.50463368               55.52767668                0.00010000                2.88744890                0.01568089               -4.25950417               -7.46261778               42.12604667               -7.45630940
              18.73077880                2.46522921               55.43539268                0.00010000                3.44295060                0.06387277               -5.52032044               -7.30336965               42.47645689               -5.55984874
              19.76764475                1.42796443               55.34725709                0.00010000                3.88010690                0.37204542               -6.82843797               -6.43094761               42.82703077               -3.87561585
              20.80838093                0.39985601               55.26188820                0.07332229                3.61389489                0.96474119               -8.22661932               -4.11667692               37.23603121               -1.59753812
              21.83992265               -0.59974592               55.06247019                0.22115078                2.46273615                2.39272209               -6.43600356               -1.30540054               16.19365459               -4.40789098
              22.85763566               -1.57578906               54.55494997                0.67260985                1.77130054                3.84642298               -8.14854502                0.19120133                0.97709089              -13.05245224
              13.59282677                9.48475973               56.68370386                0.74238838               -0.26157941               -0.67032287                1.95991499               -0.07638457                0.08594213                4.76277021
              14.59021097                8.54189710               56.11809163                0.19711482               -0.04524077                0.14506458               -0.21326486                0.22151225                2.31066494               -4.28367807
              15.59192195                7.60220849               55.59714725                0.00013520                0.94052857                0.90024593               -1.42848265               -3.63700235               29.03685473              -12.07176167
              16.60902155                6.57824987               55.56664434                0.00010000                1.93417291                0.93373930               -2.45710623               -7.75104977               53.16191799              -10.39925118
              17.63060541                5.54594040               55.53406781                0.00010000                2.46339072                0.74375201               -3.63979464               -8.09868672               52.79519105               -8.52965874
              18.65828936                4.50799540               55.50119250                0.00010000                3.07327946                0.58257259               -4.94687339               -8.20850772               52.71874497               -6.56108921
              19.69207100                3.46883030               55.47065581                0.00010000                3.64446082                0.60643920               -6.35747750               -7.85859258               52.94362180               -4.53220757
              20.73117858                2.43440607               55.44434408                0.00010000                4.13792669                0.87264711               -7.88021871               -6.83462009               53.33907078               -2.26210325
              21.77482953                1.41228652               55.42254492                0.07941811                3.85327185                1.41346056               -9.58405329               -4.18652041               45.03978152                0.52485445
              22.80824401                0.42604800               55.23054666                0.22984696                2.68528019                2.62367021               -6.97773961               -1.14742378               18.77933455               -3.41483293
              23.82853514               -0.53825918               54.68000960                0.67776539                2.02911246                3.64651016               -8.88273669                0.16406388                1.14711760              -12.12212164
              14.53085543               10.47863703               56.55130641                0.73387915               -0.12296430               -0.55559986                1.60603965               -0.07681901                0.08906949                4.75622707
              15.52962579                9.54413822               55.94066750                0.18870290                0.12005048                0.30426052               -0.77974876                0.17474251                3.04622644               -4.21865714
              16.53325644                8.61190242               55.38924577                0.00010000                1.30704375                1.03295198               -1.85844016               -4.04185461               35.18520609              -11.56275087
              17.55576666                7.58915113               55.42209569                0.00010000                2.40270534                1.18953499               -2.88467571               -8.46664327               63.92049981               -9.48511782
              18.58131055                6.55556910               55.45272115                0.00010000                2.79795095                1.07226822               -4.11399519               -8.78016259               63.47247444               -7.44855999
              19.61172568                5.51628514               55.48282804                0.00010000                3.29428640                0.96881653               -5.50164401               -8.69378123               63.33867563               -5.38791734
              20.64719627                4.47735799               55.51552514                0.00010000                3.78852286                1.02385045               -7.03245272               -8.15453792               63.59573590               -3.15188162
              21.68749614                3.44541737               55.55387475                0.00010000                4.29061604                1.26244140               -8.72577298               -7.02036162               64.18970106               -0.50977911
              22.73300859                2.42812522               55.59979020                0.08585092                4.00118654                1.66937971              -10.66522236               -4.11155658               52.52278849                2.81789795
              23.76751987                1.45272748               55.40426302                0.23851231                2.82613487                2.62132019               -7.18029840               -0.97395289               20.81309302               -2.18338608
              24.78953129                0.49714114               54.81052788                0.68248088                2.20114234                3.42276293               -9.26412769                0.14297838                1.26936158              -10.89203132
              15.46028802               11.47364773               56.41886153                0.72621761                0.01524200               -0.44258921                1.25228252               -0.07754646                0.09136299                4.70433395
              16.46044044               10.54798231               55.76355839                0.18199134                0.28919638                0.46552869               -1.34472680                0.08838897                3.98351333               -4.18309504
              17.46607194                9.62286753               55.18607417                0.00016198                1.77907797                1.10747151               -2.16836054               -4.44318328               41.69180762              -10.99656578
              18.49602200                8.60204057               55.28578767                0.00010000                3.08981068                1.24798833               -3.19036965               -8.92154987               74.88563868               -8.41342124
              19.52786816                7.56738576               55.38098834                0.00010000                3.33014254                1.10087967               -4.44418758               -8.99970113               74.19079928               -6.16606698
              20.56262485                6.52737173               55.47424980                0.00010000                3.59899234                1.11379404               -5.88621622               -8.58103186               73.97118436               -4.06655463
              21.59984800                5.48930731               55.57083393                0.00010000                3.86896332                1.32584027               -7.50405403               -7.92330233               74.39057708               -1.76009723
              22.64000411                4.45965490               55.67638093                0.00010000                4.27201443                1.58057945               -9.32497975               -6.91334795               75.40109199                1.17527481
              23.68528829                3.44567411               55.79471112                0.09253419                3.98724630                1.83437042              -11.44779991               -4.03288109               59.76568558                5.11135672
              24.71974904                2.47847441               55.58576461                0.24690941                2.86395486                2.47458745               -7.09830370               -0.86916913               22.34942650               -0.80892370
              25.74256739                1.53019608               54.94874802                0.68679412                2.28183512                3.18308120               -9.34644909                0.11416348                1.35440455               -9.49569967
              16.38063534               12.46978525               56.28583017                0.71987410                0.15384330               -0.32968060                0.89514325               -0.07887097                0.11318586                4.66124850
              17.38217377               11.55344879               55.58646865                0.17719642                0.48495905                0.62949669               -1.90998567               -0.09345391                5.21932599               -4.23090070
              18.39033452               10.63405185               54.98910566                0.00047642                2.53218270                0.99224129               -2.36644298               -4.97325609               48.73226433              -10.04160148
              19.43281743                9.61411090               55.16070836                0.00010000                4.28254169                0.79019299               -3.35787021               -8.94663167               86.10582880               -6.78318257
              20.47598536                8.57758670               55.32128326                0.00010000                4.26830324                0.62654367               -4.61392514               -8.20912181               84.82305287               -4.55724565
              21.51818349                7.53856102               55.47596900                0.00010000                4.02308523                1.02495296               -6.07283281               -7.33056794               84.38688717               -2.70457725
              22.55644706                6.50387480               55.63481852                0.00010000                3.73394435                1.59269661               -7.73577814               -6.71468771               85.14581992               -0.66037503
              23.59286238                5.47702896               55.80893386                0.00010000                3.85422033                2.06041230               -9.64982654               -6.23624021               87.00256858                2.20707581
              24.63353147                4.46481263               56.00613775                0.09965737                3.63760677                2.15139302              -11.91687577               -4.08612098               66.98425527                6.88154524
              25.66561452                3.50221923               55.77639978                0.25541469                2.74198718                2.24091654               -6.77419031               -0.93889050               23.52767428                0.72173664
              26.68837121                2.56080276               55.09636981                0.69061385                2.27566951                2.93224202               -9.17157424                0.07688764                1.43887031               -8.01532279
              17.29138351               13.46705412               56.15287679                0.71311042                0.29212466               -0.21392872                0.53807608               -0.08029366               -0.06806187                4.05598501
              18.29430476               12.56057225               55.40788575                0.17345683                0.72806017                0.79232410               -2.48367626               -0.50421726                7.05275030               -3.79571175
              19.30594471               11.64271235               54.80508607                0.00131809                3.96248794                0.30656787               -2.40974505               -5.22443432               56.82257642               -7.19057806
              20.37355452               10.61784443               55.05548929                0.00010000                6.66454464               -0.86488409               -3.39712092               -6.91917517               97.48890000               -4.02155368
              21.43923561                9.57991664               55.27768078                0.00010000                5.80854361               -0.13164328               -4.61259299               -5.41770755               94.87466003               -2.47585261
              22.48972539                8.54787079               55.48793058                0.00010000                4.39253496                0.82332642               -6.03194037               -4.35790744               94.08522071               -1.35631164
              23.52708631                7.52116125               55.70287071                0.00010000                3.23080440                1.84184780               -7.68400902               -4.01732422               95.24588081               -0.10478212
              24.55434148                6.50086315               55.94066329                0.00010000                2.56446498                2.78856250               -9.64106954               -4.21681845               98.74744015                1.84550423
              25.57837560                5.48870197               56.22488578                0.10761018                2.53198111                3.20066838              -12.05244746               -3.43489151               74.87424720                5.81125690
              26.60498110                4.52329274               55.97866899                0.26420908                2.42812367                1.97177762               -6.23853094               -1.37211738               24.83277235                1.84292005
              27.62693808                3.58884092               55.25406321                0.69394415                2.19569805                2.69693590               -8.77878120               -0.00999711                1.34022369               -5.76121699
              18.19199322               14.46550667               56.00804521                0.85489172                0.44379824               -0.15474499                0.12456765                0.43983069                1.84121985                3.45006973
              19.19643120               13.56929527               55.23883680                0.58666630                1.82902206                0.87230248               -3.01247779               -1.05352906               11.70714006               -3.27920200
              20.22857366               12.64018321               54.66660938                0.47220199                8.03992210               -0.25291458               -2.40245271               -6.36120827               66.41879727               -5.20719816
              21.35722964               11.59681322               54.98461715                0.44462285               10.45155899               -2.10312073               -3.33624561               -4.89395620              107.41992383               -2.06566656
              22.43760484               10.57495383               55.25491987                0.43687182                6.62755469               -0.49628047               -4.42433166               -2.25236057              103.51414744               -1.17672762
              23.48978073                9.55502754               55.50997815                0.44310614                4.27516921                0.71567514               -5.72725252               -1.70656916              102.44891146               -0.52524168
              24.52310822                8.54071175               55.76928157                0.46325784                2.56022745                1.95505082               -7.28546073               -1.50917501              103.68710330                0.19925280
              25.54098528                7.53280021               56.05463635                0.49834118                0.96479119                3.19370644               -9.19649173               -1.92990689              108.25386481                1.37619093
              26.54240405                6.52882600               56.40332309                0.55678373               -0.14760336                4.01240267              -11.67413849               -3.15442736               83.72557641                4.35938193
              27.53803322                5.54165478               56.18260961                0.63531146                0.73354261                1.83620448               -5.56009042               -2.39901401               29.42102645                2.35004019
              28.55707490                4.61474148               55.43731134                0.84798217                1.90416810                2.59005578               -8.16307527                0.32235176                3.59595503               -4.03704168
               9.13131423                4.71756822               58.40299834                0.97163437               -1.05701215               -1.17793092                4.00251820               -0.27804891               -2.86358280                3.30722776
              10.12074411                3.69316768               58.02683012                0.74838369               -1.00600587               -0.71464700                2.76500369               -0.25838482               -4.00605783               -2.16966002
              11.11119411                2.66474348               57.62852050                0.56022264               -1.04711096               -0.37716116                1.41768138               -0.47775806               -3.97715465               -0.86804323
              12.09980189                1.62229935               57.25338888                0.48256654               -1.07910651               -0.03873531                0.14575463               -0.49019176               -1.82337593               -0.42908222
              13.08961198                0.55914506               56.89766939                0.45055042               -0.76108782                0.32932124               -1.18095474               -0.40168635                0.00155550               -0.28422154
              14.08458013               -0.52470688               56.55768795                0.45311181               -0.05802671                0.69871342               -2.54786036               -0.25261931                1.05710602               -0.05165717
              15.08845145               -1.62160924               56.22138309                0.48930914                0.83539974                1.06001483               -3.90687121               -0.19134343                0.74586636                0.17534792
              16.10128813               -2.72054289               55.87382369                0.56554318                1.59759739                1.40442183               -5.21041014               -0.21710896               -0.64424261                0.36209132
              17.12040340               -3.81368572               55.50866127                0.70047469                2.10402698                1.74019577               -6.47641685               -0.23341001               -2.44237310                0.43358283
              18.14336867               -4.89834870               55.12385856                0.93433814                2.43498374                2.07050540               -7.75770328               -0.22096169               -3.05958925                1.05008434
              19.16910307               -5.97587950               54.74450425                1.00000000                2.57344035                2.48188972               -9.02696596               -0.47787099               -2.66662417               -2.23591822
              10.15293428                5.70578891               58.24808136                0.86058374               -0.83616524               -1.15874110                3.51672667               -0.11784117                1.44111492                4.34821855
              11.14457263                4.68602121               57.86611314                0.37191646               -0.55417905               -0.58800906                2.27268508               -0.21038346                3.69942800               -3.81564661
              12.14185070                3.66097187               57.52989532                0.05384682                0.15632783                0.08158930                1.31037143               -1.03450470                6.69349065               -7.29521642
              13.14769918                2.62191199               57.20797912                0.00986508                0.86237668               -0.56590932                0.24314404               -1.99159292                8.16523442               -6.48391869
              14.15909823                1.56243827               56.90166005                0.01230799                1.23659546               -0.67805505               -0.82251249               -2.80079278                9.68689424               -5.52449458
              15.17243109                0.48228026               56.61084770                0.01643157                1.26788931               -0.40492483               -1.93165967               -3.21951510               10.58808045               -4.89579517
              16.18445602               -0.61100909               56.32291793                0.02152615                1.13620919                0.08301084               -3.03321359               -2.98518547               10.17139849               -4.10613569
              17.19515528               -1.70649867               56.02325748                0.05327968                1.12580927                0.59913818               -4.08816081               -2.10179427                8.72157690               -2.31886275
              18.20697220               -2.79628376               55.70505314                0.23093690                1.35503337                1.13728177               -5.12257848               -0.96266915                7.16455847                3.98625396
              19.22225594               -3.87764365               55.37272074                0.52833541                1.74414809                1.71827228               -6.17277126               -0.36021519                4.83814241                3.33192898
              20.24185516               -4.95106061               55.00652177                0.89017157                1.95992215                2.44467025               -7.31379838               -0.50659772                3.21795025               -3.70693657
              11.16849280                6.69439339               58.11481770                0.77323093               -0.71393301               -1.07703712                3.17104154               -0.10319320                0.30750065                5.18148924
              12.16135347                5.68140750               57.67293828                0.23586180               -0.69397854               -0.35642626                1.56860659               -0.06828682                3.87947610               -5.18667430
              13.15461323                4.66637527               57.30299981                0.00860526               -0.14249223                0.76399753                0.52990596               -2.21616248               12.84327787              -15.91887629
              14.15850363                3.61098116               57.04140119                0.00010000                0.93073156               -0.64501708               -0.55440029               -4.74904895               19.19286009              -12.80553328
              15.17322786                2.54558396               56.80052120                0.00010000                1.75667851               -1.24196774               -1.69116907               -5.71109678               20.49789121              -10.97616852
              16.19363720                1.46719462               56.56651197                0.00010000                2.21493988               -1.20423363               -2.85900529               -6.30122257               21.07953847               -9.70428037
              17.21752666                0.38005097               56.33791207                0.00010000                2.54448545               -0.77278389               -4.00117242               -5.94316904               21.79392781               -8.22937172
              18.24452691               -0.70856012               56.11784797                0.00010000                2.73841645               -0.20337565               -4.98757840               -4.56204811               25.91436844               -5.46536830
              19.27229499               -1.79094008               55.97097501                0.05861161                2.32071505                0.46851519               -4.85158951               -2.60305350               21.64795316               -1.94271420
              20.29094121               -2.86398326               55.66538730                0.20544115                1.67550231                1.62095302               -4.48625165               -0.94715671                7.65780614               -0.35874022
              21.30580504               -3.92698610               55.23702633                0.66481011                1.48638281                3.37571124               -5.96724154               -0.71627083                1.53445907              -10.65967251
              12.17684221                7.68424817               57.97743077                0.75240635               -0.56171948               -0.94715237                2.78158559               -0.08334025                0.07799550                4.94141600
              13.17122501                6.67889268               57.48499858                0.20843014               -0.44442119               -0.17191803                0.95919820                0.20168610                1.97170159               -4.79230764
              14.16795379                5.67625182               57.03082161                0.00196497                0.11422496                0.88638129               -0.24597799               -2.58642670               18.47641103              -16.01121299
              15.17350951                4.60901165               56.86930321                0.00010000                1.03545230                0.13611294               -1.29736003               -5.73259267               32.28128085              -12.88826466
              16.18866283                3.53759892               56.69503740                0.00010000                1.92150570               -0.38736251               -2.49714076               -6.24846114               31.63606374              -10.98439349
              17.21193963                2.45819558               56.52340962                0.00010000                2.63422765               -0.52546278               -3.76234793               -6.70330984               31.96332080               -9.40466766
              18.24134738                1.37353523               56.35710881                0.00010000                3.14828716               -0.33830774               -5.02171128               -6.55318515               32.86485271               -7.83331506
              19.27490537                0.28943382               56.20352506                0.00010000                3.44934405                0.09875296               -6.12514036               -5.63608848               33.42083905               -6.39418343
              20.31033427               -0.78691346               56.04704491                0.05989896                3.22267272                0.79244454               -7.17543759               -3.70411764               30.75525704               -8.39651394
              21.33935883               -1.84522459               55.83896101                0.19967055                2.16005860                2.36562711               -6.20475389               -1.12731163               14.51551446               -6.68698778
              22.35353544               -2.88354638               55.35782012                0.65893967                1.41766121                4.45861958               -7.74980164                0.12073899                0.89619577              -16.12303882
              13.17753696                8.67545035               57.84010765                0.74113289               -0.41534246               -0.81802131                2.40925509               -0.08130551                0.08775761                4.95819212
              14.17338354                7.67796914               57.29983018                0.19529357               -0.23856157               -0.01024872                0.35644071                0.24511737                2.15859864               -4.59511917
              15.17276573                6.68410290               56.80124898                0.00026069                0.45605713                0.81706272               -0.80559744               -3.17176419               24.05924317              -13.28044535
              16.18250468                5.61370342               56.69986160                0.00010000                1.31544900                0.66958160               -1.93560419               -6.85194046               43.35087391              -12.09573602
              17.19907471                4.53783671               56.59239152                0.00010000                2.05650072                0.35333686               -3.21946818               -7.19780172               42.76310199              -10.37548733
              18.22363469                3.45668537               56.48339262                0.00010000                2.80750061                0.20574625               -4.60994798               -7.44425573               42.72530479               -8.76894696
              19.25522472                2.37328482               56.37768224                0.00010000                3.43095645                0.32207764               -6.04810366               -7.20974812               43.03964048               -7.25281157
              20.29225382                1.29341494               56.27576935                0.00010000                3.88231602                0.73246018               -7.50833367               -6.20154600               43.36159138               -6.07430378
              21.33287104                0.22490881               56.17602074                0.06543158                3.63870392                1.50664936               -8.98594510               -3.87650495               39.31097739               -4.39560856
              22.36502790               -0.81667071               55.99307971                0.20826800                2.59961832                3.03360104               -7.57484795               -1.20297983               18.13862596               -6.58825246
              23.38486341               -1.83781371               55.46819235                0.66442713                1.98355079                4.48722839               -9.31472897                0.28959069                1.28775412              -15.64422137
              14.17017852                9.66788774               57.70370921                0.73156424               -0.27037066               -0.69661352                2.04171889               -0.08040325                0.08913066                4.99593055
              15.16747481                8.67868771               57.11583802                0.18511350               -0.06971500                0.15444369               -0.23750443                0.21916634                2.85628019               -4.49043810
              16.16878422                7.69259308               56.58348681                0.00010000                0.76310385                0.91997368               -1.26444353               -3.64332006               30.12282530              -12.38420999
              17.18273689                6.62240328               56.54200236                0.00010000                1.64703136                1.03030106               -2.44839134               -7.78292871               54.13261576              -10.96367264
              18.20172485                5.54466566               56.49670805                0.00010000                2.24347572                0.91687712               -3.82851557               -8.10435958               53.58466699               -9.38550739
              19.22760640                4.46231051               56.44975101                0.00010000                2.93490039                0.83824718               -5.35427636               -8.16076733               53.37953220               -7.73830139
              20.26042285                3.37997678               56.40405089                0.00010000                3.58220290                0.95699663               -6.99095437               -7.71699927               53.50703421               -6.07303510
              21.29925046                2.30408302               56.36151136                0.00010000                4.12334804                1.33684478               -8.72634866               -6.50629555               53.78853991               -4.22473044
              22.34288982                1.24321953               56.32181254                0.07125207                3.93856407                2.01798290              -10.58892549               -3.83714025               47.56027743               -1.96288560
              23.37802174                0.21544743               56.15456091                0.21685398                2.93617129                3.24376329               -8.38249599               -1.00590645               21.24649337               -5.05997230
              24.40161324               -0.79380182               55.58467021                0.66947425                2.35914974                4.28503588              -10.32253755                0.23350884                1.49143008              -14.15674138
              15.15432896               10.66151808               57.56771488                0.72318564               -0.12674315               -0.57845238                1.67742508               -0.07980729                0.09331341                4.98918572
              16.15306153                9.68105801               56.93263813                0.17713108                0.09273988                0.32031595               -0.82692597                0.15881218                3.79180583               -4.42159752
              17.15618376                8.70250237               56.37160833                0.00010000                1.08560007                1.04944971               -1.61223901               -4.04064370               36.56794792              -11.77354700
              18.17477353                7.63430944               56.39336337                0.00010000                2.04482702                1.28750093               -2.83277892               -8.45584411               65.05650673               -9.92638518
              19.19708030                6.55617425               56.41063081                0.00010000                2.51673486                1.26638870               -4.29712601               -8.73396118               64.38039361               -8.15861148
              20.22510822                5.47345031               56.42564671                0.00010000                3.10159640                1.27222466               -5.94625840               -8.58025170               64.07975757               -6.38982086
              21.25911222                4.39242475               56.44173145                0.00010000                3.68884692                1.44358811               -7.75238355               -7.93073743               64.19303347               -4.47100602
              22.29888516                3.32015183               56.46182635                0.00010000                4.28258016                1.79353296               -9.71905339               -6.58821386               64.60668401               -2.18765850
              23.34476383                2.26526847               56.48701311                0.07754411                4.15229774                2.29322019              -11.89654483               -3.69668012               55.57036616                0.70153616
              24.38193112                1.24820455               56.32558095                0.22530469                3.16341295                3.21271455               -8.73528432               -0.83381355               23.84915512               -3.37475161
              25.40803209                0.24788701               55.71064615                0.67411966                2.61009678                4.03580967              -10.86466304                0.19124639                1.63698046              -12.44222898
              16.12950251               11.65631869               57.43168142                0.71582903                0.01642580               -0.46214070                1.31330128               -0.08033200                0.09547849                4.93452543
              17.12966676               10.68509403               56.74976803                0.17082462                0.26087052                0.48819796               -1.41463150                0.04875165                4.99397295               -4.38488244
              18.13471992                9.71358207               56.16580091                0.00020061                1.51406804                1.10775170               -1.82508985               -4.43352030               43.43853190              -11.09191826
              19.15994812                8.64815330               56.25427650                0.00010000                2.65924171                1.33078550               -3.07411905               -8.85428308               76.19677324               -8.72248197
              20.18790475                7.56999343               56.33570042                0.00010000                2.99013735                1.30111143               -4.60299631               -8.88006844               75.23963538               -6.71626888
              21.21975087                6.48775500               56.41313572                0.00010000                3.36009181                1.44360942               -6.34567220               -8.38730616               74.81896104               -4.86440594
              22.25510659                5.40884854               56.49200433                0.00010000                3.74457998                1.78448073               -8.28386282               -7.61136912               75.05261030               -2.82071367
              23.29464247                4.33995368               56.57768306                0.00010000                4.28984527                2.15223949              -10.44068327               -6.40193727               75.81916283               -0.18330714
              24.34090349                3.28908393               56.67289486                0.08416931                4.20422286                2.45729568              -12.89314050               -3.59870490               63.35936345                3.38922715
              25.37872693                2.27970173               56.50762127                0.23372373                3.25848817                3.03031680               -8.71528244               -0.75303013               25.95613654               -1.60766638
              26.40607326                1.28691438               55.84769082                0.67829316                2.73463269                3.76120741              -11.02352531                0.14416213                1.73382696              -10.61941997
              17.09517164               12.65227526               57.29502478                0.70959092                0.16015342               -0.34669334                0.94546998               -0.08190683                0.11878561                4.88890409
              18.09677318               11.69082197               56.56691515                0.16679036                0.46412153                0.65955640               -2.00273221               -0.17389150                6.55426852               -4.43666087
              19.10445407               10.72465740               55.96738869                0.00070400                2.22516645                0.94443709               -1.88862614               -4.96455663               50.91310668              -10.00346144
              20.14127651                9.66092515               56.12790065                0.00010000                3.77115766                0.84646284               -3.16178396               -8.78803507               87.61421314               -6.96736802
              21.17987723                8.58219648               56.27448502                0.00010000                3.86152412                0.84343495               -4.73162658               -8.02729361               86.04164051               -4.93965591
              22.21850699                7.50232250               56.41302080                0.00010000                3.74044663                1.36138707               -6.52242963               -7.09041057               85.37534725               -3.27240066
              23.25468616                6.42811437               56.55350591                0.00010000                3.60520183                2.04751974               -8.54254632               -6.35332192               85.89513141               -1.42746123
              24.29061103                5.36319662               56.70647730                0.00010000                3.91777622                2.64048822              -10.85387298               -5.67765081               87.43444144                1.20664475
              25.33304168                4.31441438               56.87849044                0.09124743                3.92145220                2.76598614              -13.57090640               -3.66238275               71.09340891                5.57999084
              26.36904007                3.30881089               56.70150316                0.24208983                3.17241687                2.75890709               -8.38846439               -0.86833651               27.67055247                0.26921708
              27.39649002                2.32311116               55.99702594                0.68199163                2.74499520                3.47238010              -10.85780615                0.09236199                1.82464116               -8.76415319
              18.05077096               13.64938482               57.15845094                0.70305803                0.30358377               -0.22822987                0.57832541               -0.08315047               -0.07216105                4.25370200
              19.05380679               12.69828516               56.38247978                0.16361984                0.72773240                0.82979341               -2.60061626               -0.66850799                8.79681129               -3.98170511
              20.06532560               11.73247081               55.78365649                0.00184892                3.64207762                0.10601582               -1.77906516               -5.08053110               59.51506049               -7.07211277
              21.12664835               10.66508256               56.02266449                0.00010000                6.03179619               -0.72508293               -3.11985892               -6.70658794               99.20770753               -4.11781461
              22.18596153                9.58686213               56.23114308                0.00010000                5.26882151                0.11512160               -4.67861936               -5.24262801               96.31482276               -2.67661456
              23.23202478                8.51498274               56.42555355                0.00010000                4.06022503                1.15745575               -6.44575917               -4.18297830               95.26561680               -1.65980195
              24.26716603                7.44979894               56.62212304                0.00010000                3.13823334                2.25850711               -8.47506866               -3.73062847               96.11727215               -0.52302669
              25.29478944                6.39276345               56.83804795                0.00010000                2.74377711                3.29041760              -10.87816193               -3.75522502               99.17421761                1.27645533
              26.32204157                5.34440366               57.09499706                0.09927768                2.89369886                3.78236167              -13.87900246               -3.06803680               79.40586467                5.05063641
              27.35266342                4.33487987               56.90932565                0.25086158                2.86391938                2.45472561               -7.80757755               -1.36116968               29.43652133                1.67864884
              28.37931996                3.35636198               56.15879921                0.68514460                2.66565380                3.20150688              -10.43476388               -0.00876811                1.71923628               -6.16825885
              18.99570797               14.64771067               57.00941282                0.84995407                0.46090577               -0.16741590                0.15046413                0.46441885                1.93012090                3.61746225
              20.00031703               13.70741784               56.20804118                0.58205213                2.01690390                0.91326820               -3.15063953               -1.39562368               13.90104538               -3.44023701
              21.03604605               12.72677772               55.64574011                0.47139203                7.62182018               -0.56930937               -1.67616228               -5.97767274               69.70250837               -5.12572520
              22.15275343               11.64642349               55.95265686                0.44445947                9.45392174               -1.86590677               -3.00267872               -4.50343163              109.42223805               -2.11751154
              23.22512448               10.58449891               56.21054165                0.43689955                5.95785916               -0.23632162               -4.43557566               -2.13129806              105.26031136               -1.27833070
              24.27191062                9.52547162               56.45094982                0.44288565                3.85842016                1.04888738               -6.07941235               -1.57213623              103.90436757               -0.67831366
              25.30229289                8.47328451               56.69284740                0.46228195                2.44955954                2.34855712               -8.00816610               -1.31064616              104.77028646               -0.01855841
              26.32090181                7.42900497               56.95672809                0.49608438                1.36358200                3.62415278              -10.37223507               -1.54990839              108.74714796                1.06780925
              27.32956453                6.39006161               57.27719049                0.55252725                0.44782729                4.56579559              -13.50271795               -2.80268288               88.37905104                3.87948283
              28.32985835                5.35790540               57.12033935                0.62861301                1.18929531                2.30255339               -7.05532661               -2.42652256               34.29939676                2.35796122
              29.35335043                4.38714130               56.34849283                0.84353853                2.34920811                3.07793150               -9.74690144                0.32663703                4.04527196               -4.23404360
               9.48443560                4.90863035               59.44373203                0.96532173               -1.09315932               -1.22024403                4.14666819               -0.29049267               -2.98665650                3.44005641
              10.47350401                3.83406856               59.05493539                0.73990894               -1.03635830               -0.73782256                2.85673135               -0.27023632               -4.18683655               -2.28880571
              11.46370843                2.75535914               58.64286560                0.55644892               -1.04730277               -0.39075152                1.45081845               -0.46642631               -4.17858673               -0.83982466
              12.45255795                1.66286933               58.25472505                0.48110849               -1.03429111               -0.03518492                0.12157394               -0.47231254               -2.01682579               -0.44109407
              13.44302261                0.55050245               57.88545288                0.45042919               -0.68627004                0.34566297               -1.26235580               -0.38580831               -0.24426315               -0.28726691
              14.43883255               -0.58148459               57.53150930                0.45320748                0.01881020                0.72953349               -2.68752654               -0.24685543                0.79276479               -0.05585469
              15.44339882               -1.72577062               57.18132288                0.48888501                0.89795533                1.10585916               -4.10453242               -0.18679164                0.51540602                0.17319975
              16.45679166               -2.87195946               56.82042407                0.56362052                1.65869765                1.46605065               -5.46759350               -0.20856979               -0.82160625                0.36404484
              17.47657277               -4.01251464               56.44233023                0.69623298                2.18405674                1.81674277               -6.79248774               -0.22702776               -2.60358790                0.43370064
              18.50047279               -5.14461798               56.04441513                0.92695953                2.54245521                2.16272298               -8.13378230               -0.22124626               -3.22028995                1.05480312
              19.52742187               -6.26929228               55.65209013                1.00000000                2.69490809                2.58763457               -9.45732529               -0.51049585               -2.81895735               -2.33527866
              10.55609246                5.89642791               59.28387080                0.84843375               -0.86552115               -1.20200397                3.64345045               -0.12510224                1.55707807                4.55264337
              11.54743724                4.82669034               58.88921154                0.35693908               -0.57243344               -0.60437278                2.34785616               -0.22333121                3.95906211               -4.04409266
              12.54464379                3.75145163               58.54318363                0.04807100                0.14129648                0.10672165                1.34551621               -1.05964484                7.04410373               -7.60738243
              13.55026317                2.66251748               58.21037377                0.01038450                0.83488505               -0.55816644                0.23665495               -2.02648612                8.46632557               -6.95311031
              14.56134149                1.55395908               57.89320888                0.01286836                1.21186782               -0.65895926               -0.86825457               -2.81424348                9.97296397               -6.16510685
              15.57450053                0.42581075               57.59110724                0.01720665                1.27134226               -0.38591274               -2.01681283               -3.20084702               10.85758865               -5.71226114
              16.58676833               -0.71471203               57.29198293                0.02280647                1.17887188                0.10581949               -3.15526273               -2.94988851               10.46387089               -5.08829831
              17.59807797               -1.85729895               56.98157991                0.04954064                1.19317105                0.65331311               -4.24766351               -2.07928392                9.04311421               -3.40213985
              18.61063175               -2.99434721               56.65287643                0.22233350                1.42855906                1.22856783               -5.31722035               -0.96809332                7.48618740                3.32276349
              19.62664915               -4.12299075               56.30986503                0.51116309                1.81797271                1.80301875               -6.40266965               -0.35849257                5.10367102                3.38000067
              20.64699121               -5.24341593               55.93203359                0.87823362                2.03420594                2.55435413               -7.58755879               -0.54410984                3.43786844               -4.00394341
              11.62140869                6.88459027               59.14711613                0.76209691               -0.73950321               -1.11810920                3.28954382               -0.10651088                0.29700982                5.43350516
              12.61401366                5.82198111               58.68884977                0.22279752               -0.73601489               -0.36398946                1.61451677               -0.05808951                4.16340571               -5.47424280
              13.60668839                4.75749358               58.30841962                0.00777087               -0.22464395                0.81298124                0.55906726               -2.26416935               13.38690933              -16.54918156
              14.60952078                3.65170600               58.03571527                0.00010000                0.83780418               -0.60793977               -0.57686583               -4.86544697               19.65408563              -13.69942846
              15.62344448                2.53732326               57.78308177                0.00010000                1.69829682               -1.19579322               -1.79615135               -5.77404515               20.89421776              -12.22243363
              16.64348672                1.41079716               57.53695525                0.00010000                2.20331325               -1.15514795               -3.05796268               -6.31030775               21.45954541              -11.31604879
              17.66751074                0.27634577               57.29648153                0.00010000                2.56772218               -0.70857960               -4.29850963               -5.89039658               22.25906812              -10.20686927
              18.69484116               -0.85889319               57.06617344                0.00010000                2.76959819               -0.07704673               -5.37907493               -4.47310033               26.98992010               -7.74807398
              19.72290271               -1.98794328               56.91965620                0.05091347                2.37652511                0.71814507               -5.48755817               -2.55871294               23.57200241               -4.44336189
              20.74237166               -3.10855761               56.61995772                0.19149567                1.72436634                1.98760746               -4.61842995               -0.93345176                8.81643788               -2.16238430
              21.75739003               -4.21820519               56.17647894                0.65529585                1.50183705                3.73007545               -6.15928099               -0.67279308                1.64532742              -12.89370706
              12.67918056                7.87406572               59.00577568                0.74141206               -0.58084129               -0.98306852                2.88738733               -0.08755405                0.08108749                5.17637893
              13.67337214                6.81941055               58.49470112                0.19590783               -0.47725252               -0.17430022                0.98115739                0.21534073                2.32006021               -5.02605192
              14.66963551                5.76771125               58.02878950                0.00149079               -0.01237973                0.90649107               -0.13522955               -2.61187821               19.18667522              -16.51607062
              15.67312455                4.65035869               57.85621424                0.00010000                0.85669622                0.20782394               -1.30840991               -5.83971591               32.91426437              -13.69349957
              16.68676943                3.53004321               57.66932049                0.00010000                1.80736599               -0.29047947               -2.64388883               -6.31672688               32.13105211              -12.14435804
              17.70927187                2.40270779               57.48435105                0.00010000                2.59406614               -0.39419007               -4.05792664               -6.72062145               32.40849155              -10.95746499
              18.73865075                1.27111638               57.30475534                0.00010000                3.18165717               -0.15574355               -5.47126405               -6.49317694               33.38407002               -9.81261322
              19.77290501                0.14116012               57.13948263                0.00010000                3.52355783                0.36926267               -6.72653395               -5.47018845               34.08761834               -8.88003040
              20.80912191               -0.97998431               56.97252882                0.05227264                3.26685077                1.25597450               -7.79144053               -3.50056502               32.47025094              -11.91181803
              21.83824203               -2.08323860               56.77286834                0.18744066                2.18543052                3.07233667               -7.12209393               -1.03391068               16.02739730              -10.06346638
              22.85283052               -3.16881442               56.27627002                0.65127216                1.45884926                5.13408072               -8.64178065                0.23118942                1.24266426              -19.84587292
              13.72896796                8.86492890               58.86466852                0.73029519               -0.42930152               -0.84973041                2.50381063               -0.08481933                0.09068295                5.20235720
              14.72467494                7.81849510               58.30338672                0.18303988               -0.27326326               -0.00650763                0.35489163                0.24406681                2.66782424               -4.81983273
              15.72350269                6.77562340               57.79392909                0.00010000                0.28597805                0.82268395               -0.62106067               -3.20270034               24.99088269              -13.63818003
              16.73039450                5.65586248               57.68048505                0.00010000                1.06290732                0.75579765               -1.91831297               -6.93908257               44.09351586              -12.77996246
              17.74476084                4.53151367               57.55932037                0.00010000                1.88033095                0.49738742               -3.39022597               -7.25842266               43.33691081              -11.42245986
              18.76800112                3.40291336               57.43547772                0.00010000                2.72170186                0.41337472               -4.98315575               -7.45087411               43.20033777              -10.21799294
              19.79919487                2.27323090               57.31443060                0.00010000                3.42684787                0.61020067               -6.62902833               -7.13103565               43.47951989               -9.15788401
              20.83653808                1.14849206               57.19709041                0.00010000                3.90476250                1.13471743               -8.27240896               -5.98859909               43.81855356               -8.55930901
              21.87729012                0.03717621               57.08216930                0.05748251                3.69927419                2.10103705               -9.86268809               -3.58696597               41.15791664               -7.57882195
              22.91052356               -1.04711087               56.91097323                0.19584860                2.79376665                3.77929593               -9.01146519               -1.03128017               19.93193720               -9.30681210
              23.93316546               -2.11552358               56.36865540                0.65660565                2.26418954                5.24833068              -10.73396023                0.42446065                1.70676193              -18.77592790
              14.77035176                9.85707111               58.72453824                0.72083400               -0.27927782               -0.72401795                2.12586290               -0.08370941                0.09344170                5.24347305
              15.76755898                8.81928040               58.11334154                0.17345430               -0.10688169                0.16405756               -0.26236028                0.19936640                3.57007543               -4.70790157
              16.76821412                7.78416493               57.57185838                0.00010000                0.54468228                0.92469880               -1.00337814               -3.67091496               31.33341603              -12.63651427
              17.77845262                6.66547464               57.51767651                0.00010000                1.31679904                1.12434031               -2.38976687               -7.83470778               54.99714576              -11.51729172
              18.79455010                5.53999096               57.45749749                0.00010000                2.00422692                1.09454129               -4.00660184               -8.13125578               54.23148874              -10.29241959
              19.81853716                4.41097528               57.39410697                0.00010000                2.79506169                1.10953230               -5.78510557               -8.12257474               53.87784734               -9.03394134
              20.85045134                3.28332039               57.33083673                0.00010000                3.53252795                1.33767681               -7.68007821               -7.57191931               53.90129137               -7.80589171
              21.88918772                2.16385446               57.26981710                0.00010000                4.12670940                1.85002182               -9.65801725               -6.17369434               54.10378880               -6.46508626
              22.93298552                1.06203643               57.21076641                0.06303401                4.05642465                2.69487113              -11.69193588               -3.40679779               49.79101357               -4.82129972
              23.97031621               -0.00765269               57.06289674                0.20409521                3.25798099                3.96414863              -10.14800014               -0.77689365               23.53416791               -7.09847122
              24.99814514               -1.06384781               56.47355885                0.66167215                2.78289308                5.03997659              -12.06790260                0.32923947                1.94877052              -16.59337537
              15.80287520               10.85044854               58.58485491                0.71273502               -0.13067539               -0.60213842                1.75159817               -0.08359840                0.09703273                5.23751541
              16.80156845                9.82177625               57.92412898                0.16570812                0.05074724                0.33636234               -0.87535299                0.11551296                4.77292613               -4.63574162
              17.80389015                8.79411738               57.35700099                0.00010000                0.81529339                1.05419347               -1.24421729               -4.06534877               38.12318534              -11.90287634
              18.81787432                7.67834929               57.36544012                0.00010000                1.63724653                1.37895054               -2.71758999               -8.45537728               66.05403978              -10.34167743
              19.83663508                6.55340450               57.36677863                0.00010000                2.21729389                1.46076043               -4.46441946               -8.69968722               65.11742639               -8.90320221
              20.86222020                5.42510400               57.36390288                0.00010000                2.91211137                1.58671222               -6.41259716               -8.46285315               64.62775472               -7.48865282
              21.89487731                4.29998444               57.36047747                0.00010000                3.60639782                1.88990910               -8.52551606               -7.68549850               64.58528388               -5.95594429
              22.93434815                3.18549250               57.35949368                0.00010000                4.28920062                2.37416735              -10.78775716               -6.13008429               64.84596828               -4.11451209
              23.98066132                2.09107363               57.36185930                0.06906806                4.32608895                2.99724474              -13.18453761               -3.18842815               58.33172816               -1.76533738
              25.02086993                1.03217210               57.22955733                0.21244066                3.57395877                3.90257757              -10.68581028               -0.60190420               26.73413714               -4.84246114
              26.05214049               -0.01472405               56.59323462                0.66616735                3.12705633                4.76378534              -12.80136562                0.25836924                2.12147597              -14.28810977
              16.82602435               11.84502835               58.44512756                0.70555763                0.01760463               -0.48273675                1.37679269               -0.08431500                0.09930305                5.17958366
              17.82620040               10.82600764               57.73526576                0.16008725                0.21548807                0.51137862               -1.48639643               -0.02263812                6.30884279               -4.59775503
              18.83033411                9.80524880               57.14957237                0.00035651                1.19287769                1.10048347               -1.33681166               -4.46164941               45.41620695              -11.07763375
              19.85005795                8.69305365               57.22430529                0.00010000                2.17337648                1.40131329               -2.88168301               -8.79557965               77.34612128               -8.99084744
              20.87380164                7.56920617               57.28892841                0.00010000                2.63211050                1.49732120               -4.74072712               -8.76405938               76.09374255               -7.28437105
              21.90270016                6.44270953               57.34733635                0.00010000                3.12756144                1.77955856               -6.82285049               -8.18191201               75.45367223               -5.73473825
              22.93635287                5.32111858               57.40515667                0.00010000                3.63983375                2.26112122               -9.10903474               -7.26779145               75.48403575               -4.01360438
              23.97549684                4.21133781               57.46756727                0.00010000                4.30922433                2.76522365              -11.60949974               -5.84593597               76.02109915               -1.75362645
              25.02253736                3.12198133               57.53684831                0.07545638                4.42894857                3.16183056              -14.34093616               -3.06132424               66.71293530                1.32622763
              26.06407581                2.07039887               57.41145896                0.22061265                3.72837311                3.68635469              -10.74529455               -0.54666470               29.48191520               -2.59063590
              27.09710482                1.03142790               56.72827752                0.67022031                3.30290121                4.45676798              -13.05464100                0.18680262                2.23412429              -11.95440765
              17.83923031               12.84079380               58.30473957                0.69956135                0.16649210               -0.36441155                0.99881524               -0.08608441                0.12427502                5.13159667
              18.84089523               11.83200383               57.54641401                0.15645635                0.41904218                0.69022365               -2.09870058               -0.29158605                8.29284425               -4.65444273
              19.84761115               10.81612704               56.95133314                0.00109866                1.85550631                0.88349382               -1.23550897               -4.99505870               53.39710537               -9.82793148
              20.87800536                9.70637555               57.09747268                0.00010000                3.20434311                0.88391360               -2.88064500               -8.63059976               88.92301833               -7.10400163
              21.91169802                8.58335092               57.22665073                0.00010000                3.43320972                1.05607721               -4.82357409               -7.84195140               87.05174008               -5.32682851
              22.94666955                7.46069517               57.34552041                0.00010000                3.45975889                1.70181047               -6.98388838               -6.83932333               86.14384084               -3.88702270
              23.98089319                6.34520686               57.46396760                0.00010000                3.49485645                2.51203214               -9.38193920               -5.96568624               86.39942409               -2.28721984
              25.01656668                5.24079697               57.59185640                0.00010000                3.97402933                3.24018243              -12.08249046               -5.07208255               87.60186505                0.04516543
              26.06037378                4.15431024               57.73471962                0.08239472                4.19616932                3.45166609              -15.16361010               -3.11099668               75.04031128                3.94949402
              27.10049007                3.10589919               57.60863049                0.22885265                3.67223518                3.38153317              -10.42068347               -0.70326801               31.84204841               -0.29584226
              28.13381848                2.07441131               56.87921369                0.67374070                3.33284163                4.12904771              -12.90975298                0.11475486                2.33482394               -9.65601055
              18.84188261               13.83774011               58.16444330                0.69320695                0.31528208               -0.24308248                0.62109079               -0.08736901               -0.07769931                4.46488501
              19.84503544               12.83981212               57.35587342                0.15434864                0.70892996                0.86819535               -2.72153262               -0.87959218               11.04401484               -4.17944656
              20.85606121               11.82291868               56.76950477                0.00258542                3.25933213               -0.13127903               -0.95136201               -4.93416026               62.58208078               -6.84508389
              21.91022208               10.71073192               56.99309211                0.00010000                5.32908908               -0.59486562               -2.75260370               -6.48617322              100.68788159               -4.17203874
              22.96264300                9.59032772               57.18410839                0.00010000                4.69178409                0.36195696               -4.71656637               -5.05830467               97.54673707               -2.87773664
              24.00405776                8.47674574               57.35901540                0.00010000                3.71471779                1.49867842               -6.86543605               -4.00378562               96.23746657               -1.98501826
              25.03693735                7.37135922               57.53336934                0.00010000                3.04470217                2.68424991               -9.28466611               -3.43808947               96.74582012               -0.98840305
              26.06495180                6.27614146               57.72310005                0.00010000                2.91389253                3.79995745              -12.10855457               -3.26630459               99.27722321                0.61650818
              27.09521520                5.19101465               57.94730573                0.09036643                3.24787884                4.38592812              -15.59524477               -2.60559503               83.85102717                4.05674284
              28.12990938                4.13802953               57.82251744                0.23753850                3.35802388                3.04437075               -9.77267715               -1.23885264               34.18422394                1.46250761
              29.16237568                3.11400885               57.04536793                0.67680610                3.24662993                3.81310269              -12.43780703               -0.00932345                2.21256885               -6.64840792
              19.83333893               14.83593215               58.01105449                0.84514931                0.47858958               -0.18079616                0.17878627                0.48918933                2.02441719                3.79666463
              20.83812482               13.84936773               57.17582401                0.57765789                2.23346074                0.95556185               -3.29380624               -1.81259576               16.66648870               -3.61235438
              21.87800814               12.81350146               56.63308614                0.47073976                7.13740169               -0.94172152               -0.74281102               -5.54978191               73.36778168               -4.94059190
              22.98087286               11.69447824               56.92456357                0.44427058                8.32549831               -1.62536815               -2.58164609               -4.08049224              111.18208579               -2.14487770
              24.04451811               10.59059006               57.16620835                0.43698633                5.23447398                0.02623477               -4.42011138               -2.00296374              106.82204183               -1.37908369
              25.08556234                9.49066874               57.38838991                0.44268279                3.41087859                1.39230052               -6.43492476               -1.43445264              105.18414842               -0.84154919
              26.11273568                8.39889186               57.60911824                0.46125571                2.30114106                2.75326398               -8.74211529               -1.11379835              105.64187489               -0.25999206
              27.13158516                7.31679612               57.84719165                0.49369136                1.68190648                4.06546578              -11.52220521               -1.17981726              108.91028306                0.70526584
              28.14637381                6.24202881               58.13326873                0.54807556                1.05668269                5.10141557              -15.19682206               -2.38461481               92.97615308                3.25197821
              29.15271881                5.16678661               58.04150308                0.62175079                1.76497797                2.87570773               -8.90741802               -2.28682893               39.37541221                2.35593538
              30.18167337                4.15067337               57.24237331                0.83929830                2.89545578                3.66645127              -11.64007827                0.31844473                4.61320073               -4.45666400
               9.84917439                5.10609180               60.48593171                0.95919306               -1.13005792               -1.26341269                4.29392753               -0.30325652               -3.11810266                3.57985425
              10.83787381                3.97883926               60.08396475                0.73158691               -1.06708348               -0.76142812                2.94989863               -0.28232092               -4.37802779               -2.41247308
              11.82783272                2.84731092               59.65753687                0.55246102               -1.04978607               -0.40407222                1.48354795               -0.45917899               -4.39161190               -0.81158011
              12.81687809                1.70218002               59.25582036                0.47977038               -0.99451254               -0.03204581                0.09811708               -0.45892334               -2.22391545               -0.45221525
              13.80794247                0.53788774               58.87242227                0.45039603               -0.61563287                0.36195190               -1.34282807               -0.37183786               -0.50495223               -0.29010158
              14.80456543               -0.64501987               58.50393742                0.45334609                0.09511638                0.76089480               -2.82546895               -0.24331435                0.51226720               -0.05978603
              15.80984479               -1.83946533               58.13929244                0.48838110                0.96416149                1.15316210               -4.30180040               -0.18609361                0.26801215                0.17043506
              16.82384866               -3.03557368               57.76447182                0.56170468                1.72478928                1.52828390               -5.72431427               -0.20439883               -1.01949240                0.36521664
              17.84434058               -4.22610411               57.37281152                0.69216497                2.26771514                1.89496401               -7.11032718               -0.22191183               -2.78732510                0.43483959
              18.86920296               -5.40815243               56.96118291                0.91949539                2.65166668                2.25662036               -8.51163755               -0.22147072               -3.39900467                1.06213492
              19.89737391               -6.58247199               56.55535774                1.00000000                2.81709518                2.69437124               -9.88945616               -0.54180727               -2.98668854               -2.44668965
              10.97339437                6.09345767               60.32095037                0.83678275               -0.89533276               -1.24665904                3.77202530               -0.13370246                1.67882728                4.76843879
              11.96444104                4.97122498               59.91307027                0.34245328               -0.59119102               -0.62030977                2.42340605               -0.23715916                4.22986713               -4.28310935
              12.96157055                3.84327020               59.55680565                0.04226739                0.12797049                0.12374235                1.37991600               -1.08561058                7.41237929               -7.91975841
              13.96700045                2.70185957               59.21271222                0.01096796                0.81267440               -0.55139538                0.23137949               -2.08589193                8.78831005               -7.43593499
              14.97782403                1.54150725               58.88429496                0.01349675                1.19041856               -0.64320280               -0.91504379               -2.86703552               10.27881111               -6.85194522
              15.99080882                0.36258908               58.57051145                0.01806082                1.27183657               -0.36751471               -2.10280770               -3.22890249               11.14937034               -6.61533677
              17.00326076               -0.82793371               58.25981267                0.02419012                1.21576197                0.13032506               -3.28179354               -2.96174435               10.78170841               -6.20194271
              18.01512406               -2.02029084               57.93830421                0.04601710                1.25750377                0.70746792               -4.41200941               -2.09593865                9.38986465               -4.66558009
              19.02841084               -3.20715447               57.59870874                0.21400730                1.50240705                1.33221947               -5.51950586               -0.98426061                7.83344982                2.34421990
              20.04517220               -4.38558623               57.24466734                0.49455095                1.89322813                1.89590862               -6.64055206               -0.35647745                5.39224781                3.39976846
              21.06627540               -5.55552828               56.85477059                0.86637299                2.11032031                2.66876601               -7.86899746               -0.57944311                3.67711338               -4.35599271
              12.09096573                7.08115862               60.18060858                0.75104496               -0.76476351               -1.16171602                3.40827461               -0.11161990                0.28535497                5.69874976
              13.08331810                5.96643306               59.70522862                0.20993005               -0.77399078               -0.36951453                1.66097614               -0.06007450                4.47649991               -5.77592289
              14.07548592                4.84978577               59.31418115                0.00689319               -0.31974511                0.85753712                0.59256600               -2.33386625               13.96472555              -17.12387878
              15.07692320                3.69115212               59.02986387                0.00010000                0.71931612               -0.57438457               -0.58538677               -5.02493625               20.11330747              -14.61436113
              16.08987224                2.52502368               58.76459818                0.00010000                1.62525739               -1.15170514               -1.89812713               -5.90996232               21.26160263              -13.55835942
              17.10942834                1.34762984               58.50535272                0.00010000                2.18087943               -1.10326384               -3.26568166               -6.40083620               21.79801194              -13.09932447
              18.13348983                0.16314117               58.25194188                0.00010000                2.58611492               -0.63661990               -4.62106749               -5.92088586               22.67336499              -12.44461935
              19.16115064               -1.02142432               58.01026647                0.00010000                2.82304654                0.06035395               -5.83008191               -4.44203427               27.92397222              -10.38452869
              20.18995076               -2.19945972               57.86122385                0.04351447                2.46482937                0.97457743               -6.29231972               -2.54336055               25.69952503               -7.31243787
              21.21044723               -3.37023426               57.57301870                0.17800157                1.78591986                2.40384043               -4.78357496               -0.93217941               10.30713710               -4.50580952
              22.22566916               -4.52909667               57.11384071                0.64619558                1.52219270                4.14439917               -6.37397893               -0.62074323                1.78400195              -15.63967889
              13.20061308                8.07022335               60.03517852                0.73053295               -0.60006852               -1.02118421                2.99446792               -0.09144260                0.08477298                5.42423182
              14.19461240                6.96383469               59.50462173                0.18347266               -0.52194580               -0.17505001                1.00351523                0.21794736                2.76777194               -5.27115669
              15.19017417                5.86042094               59.02811702                0.00102802               -0.16742916                0.92423218                0.03663237               -2.67318372               19.96640149              -16.94175063
              16.19126381                4.69037187               58.84313501                0.00010000                0.64864479                0.27448928               -1.29145526               -5.99436383               33.48123382              -14.49897405
              17.20314706                3.51847315               58.64215963                0.00010000                1.67053947               -0.19065866               -2.78253284               -6.44500257               32.54386863              -13.38316600
              18.22467460                2.34052381               58.44225109                0.00010000                2.53750719               -0.25301235               -4.36657311               -6.80181901               32.75442866              -12.67022291
              19.25389721                1.15933389               58.24768353                0.00010000                3.21048278                0.04522925               -5.96162175               -6.49474805               33.78884202              -12.03797341
              20.28888426               -0.01908376               58.06899438                0.00010000                3.62281820                0.66593009               -7.41642650               -5.36306262               34.69776418              -11.68510804
              21.32635357               -1.18766292               57.89121610                0.04462799                3.36406548                1.72772469               -8.54727260               -3.31149305               34.04178663              -15.69198131
              22.35616557               -2.33750942               57.69651913                0.17562911                2.26158971                3.86994527               -8.28702829               -0.91220304               17.46754267              -14.34654839
              23.37158536               -3.47264030               57.18498451                0.64390045                1.54197956                5.92377913               -9.72738811                0.38517033                1.74784544              -24.42709479
              14.30191422                9.06073494               59.89018386                0.71963994               -0.44347611               -0.88262730                2.60003386               -0.08890408                0.09409209                5.46160576
              15.29747946                7.96293206               59.30692801                0.17111512               -0.32145806               -0.00236339                0.35347262                0.22396277                3.33743936               -5.05593337
              16.29548506                6.86827041               58.78882776                0.00010000                0.07521281                0.81849734               -0.35127289               -3.26733792               26.02821333              -13.92517466
              17.29898371                5.69664190               58.66149534                0.00010000                0.76676007                0.83652570               -1.85432156               -7.06415147               44.72400748              -13.45747167
              18.31082026                4.52121051               58.52458700                0.00010000                1.67737554                0.64429273               -3.54812992               -7.36476045               43.77856776              -12.53734639
              19.33253122                3.34256959               58.38372950                0.00010000                2.61910879                0.63413621               -5.37185438               -7.50076169               43.52494221              -11.81381117
              20.36320243                2.16404576               58.24510167                0.00010000                3.41774880                0.92390922               -7.25907572               -7.09169845               43.76273861              -11.29230632
              21.40088620                0.99189428               58.11032117                0.00010000                3.94720637                1.57308953               -9.13159425               -5.82193418               44.14352021              -11.34751626
              22.44214656               -0.16490522               57.97876698                0.04955557                3.81471758                2.73832238              -10.91439476               -3.27263808               42.65503533              -11.17086355
              23.47718055               -1.29283535               57.81285040                0.18368760                3.07438792                4.62016658              -10.80554085               -0.79843862               21.49621062              -12.70019891
              24.50363432               -2.41062109               57.25351314                0.64919315                2.64537682                6.11958760              -12.46276455                0.60538037                2.26678940              -22.57960567
              15.39444075               10.05257081               59.74622646                0.71037495               -0.28845735               -0.75279350                2.21225949               -0.08797609                0.09710099                5.50631712
              16.39155617                8.96378742               59.11059081                0.16165648               -0.16615895                0.17434457               -0.28788120                0.15572998                4.51105175               -4.93697535
              17.39111757                7.87679089               58.56341925                0.00010000                0.27422591                0.92302202               -0.62128907               -3.74168776               32.69782259              -12.80923821
              18.39704069                6.70710239               58.49420702                0.00010000                0.94032964                1.21026072               -2.27373417               -7.91694581               55.71135178              -12.05725618
              19.40992416                5.53135901               58.41657601                0.00010000                1.73917137                1.27343919               -4.16776099               -8.18750258               54.70575533              -11.25548728
              20.43182412                4.35320653               58.33404890                0.00010000                2.64071928                1.39391402               -6.23254489               -8.10568351               54.18411486              -10.45969819
              21.46273855                3.17781208               58.25044933                0.00010000                3.47862163                1.74700808               -8.42111905               -7.44019165               54.09063348               -9.74744769
              22.50139655                2.01237803               58.16835101                0.00010000                4.14459495                2.41085717              -10.68810766               -5.85860236               54.23379715               -9.00079676
              23.54563045                0.86710353               58.08797383                0.05479867                4.22580562                3.43925200              -12.96700945               -2.91479704               51.57512549               -8.04658320
              24.58591267               -0.24510609               57.95160091                0.19165140                3.68169987                4.78142354              -12.34009360               -0.46470411               25.52577438               -9.63993211
              25.61926444               -1.35024855               57.34331216                0.65397052                3.33517785                5.90136173              -14.18415620                0.45938964                2.55636200              -19.53212957
              16.47772147               11.04567907               59.60274684                0.70240107               -0.13475014               -0.62725482                1.82742691               -0.08744110                0.10074817                5.50074433
              17.47637397                9.96641895               58.91513107                0.15460782               -0.01925716                0.35332433               -0.92443401                0.04472088                6.05702480               -4.86101801
              18.47733633                8.88673085               58.34672399                0.00010000                0.48513540                1.04531778               -0.73768346               -4.13424369               39.88788228              -11.93299927
              19.48607668                7.72084712               58.33901157                0.00010000                1.18148665                1.46007013               -2.53430369               -8.47888748               66.86411842              -10.72915526
              20.50096606                6.54667929               58.32134242                0.00010000                1.89439007                1.65374555               -4.61320571               -8.67874345               65.64935256               -9.68894641
              21.52396448                5.37044787               58.29739477                0.00010000                2.71305172                1.91180851               -6.89549936               -8.34607188               64.95240282               -8.69603052
              22.55522710                4.19898592               58.27122112                0.00010000                3.52291078                2.36371262               -9.34905705               -7.42593042               64.73831322               -7.62161080
              23.59442270                3.04011143               58.24607121                0.00010000                4.30538210                3.00701994              -11.94581613               -5.65649168               64.86955882               -6.29946068
              24.64133474                1.90387982               58.22332236                0.06053785                4.54079241                3.78223168              -14.61104774               -2.58391248               60.61676396               -4.56326430
              25.68523855                0.80279312               58.11186474                0.19970795                4.08861428                4.69609656              -13.11197642               -0.27251572               29.31253629               -6.68238037
              26.72310703               -0.29259386               57.45461884                0.65850033                3.78684803                5.60478502              -15.15128659                0.35401163                2.76528794              -16.52582796
              17.55121215               12.04002571               59.45921727                0.69535647                0.01866532               -0.50438083                1.44254200               -0.08784091                0.10414265                5.44048192
              18.55139880               10.97085390               58.72004010                0.14951590                0.13961913                0.53532505               -1.55969790               -0.13329738                8.01518856               -4.82252088
              19.55400453                9.89769725               58.13906468                0.00065495                0.80578521                1.07177599               -0.67467255               -4.52744673               47.66409351              -10.93614297
              20.56751451                8.73630379               58.19664284                0.00010000                1.63720010                1.46055892               -2.61778065               -8.74603599               78.27062588               -9.21717735
              21.58674854                7.56443392               58.24088588                0.00010000                2.25407738                1.69003209               -4.85959712               -8.64814286               76.71892833               -7.87676640
              22.61259606                6.39144270               58.27667871                0.00010000                2.89039256                2.12275649               -7.31516622               -7.96225667               75.84773507               -6.68664157
              23.64455639                5.22508633               58.30982363                0.00010000                3.53883813                2.75856936               -9.97770848               -6.89063572               75.65861556               -5.34863807
              24.68337282                4.07251843               58.34549307                0.00010000                4.33570605                3.42278590              -12.84540221               -5.24322807               75.98538274               -3.53754159
              25.73127051                2.94274816               58.38607614                0.06656089                4.67816035                3.95335093              -15.86887918               -2.39817554               69.61496209               -1.03886487
              26.77693603                1.84881584               58.29271538                0.20778087                4.29240567                4.45212226              -13.27708221               -0.23762911               32.73425584               -3.83798302
              27.81711862                0.76184715               57.58659800                0.66252778                4.01825956                5.27471945              -15.52045519                0.24878542                2.89865307              -13.58477290
              18.61430827               13.03559145               59.31500108                0.68967497                0.17282217               -0.38290555                1.05459861               -0.08937066                0.12986998                5.39033734
              19.61603649               11.97712545               58.52494114                0.14676611                0.35146212                0.72161596               -2.19693432               -0.45991288               10.52595154               -4.88489602
              20.62133751               10.90816637               57.94267851                0.00168168                1.41914000                0.80594467               -0.40798714               -5.06615796               56.22419609               -9.49961095
              21.64441929                9.75005829               58.07028775                0.00010000                2.57633933                0.91235497               -2.52496099               -8.46992975               89.96866838               -7.19406360
              22.67286430                8.58047993               58.17801354                0.00010000                2.98238233                1.26579265               -4.89782293               -7.64654221               87.82144009               -5.72384011
              23.70406694                7.41290300               58.27334303                0.00010000                3.17371782                2.04850913               -7.45703848               -6.57027610               86.67223975               -4.55309561
              24.73633865                6.25415730               58.36586713                0.00010000                3.39146820                2.98969496              -10.25246490               -5.54472363               86.64388918               -3.24149178
              25.77189630                5.10856714               58.46482749                0.00010000                4.03675821                3.86199653              -13.34691481               -4.40928863               87.51223499               -1.27520687
              26.81707382                3.98294684               58.57521824                0.07336911                4.47453368                4.21206215              -16.74347056               -2.41786824               78.57419716                2.04648305
              27.86138697                2.89183556               58.49308949                0.21574152                4.24731463                4.12207968              -12.95665559               -0.43483149               35.79735610               -1.02258217
              28.90202011                1.81290053               57.73883088                0.66598403                4.06331364                4.91935226              -15.39790600                0.14408373                3.00629426              -10.73947414
              19.66635673               14.03236760               59.17087276                0.68351933                0.32688949               -0.25849349                0.66576774               -0.09068669               -0.08283934                4.68924382
              20.66962562               12.98528622               58.32804913                0.14504110                0.66959040                0.90720652               -2.84423807               -1.14863962               13.89890201               -4.38844109
              21.67974853               11.91381614               57.76462925                0.00352216                2.80883670               -0.36816126                0.05695675               -4.87053634               66.07251057               -6.48401843
              22.72580236               10.75455089               57.96761241                0.00010000                4.56122238               -0.47376421               -2.31833201               -6.26063627              101.86616470               -4.19439311
              23.77097298                9.58974977               58.13681175                0.00010000                4.08554029                0.61186940               -4.73787608               -4.86316579               98.54688016               -3.08093804
              24.80751316                8.43241288               58.28824483                0.00010000                3.35123954                1.84943041               -7.29220105               -3.81263923               96.99173888               -2.33324243
              25.83799777                7.28488023               58.43642972                0.00010000                2.94421760                3.12147761              -10.11008231               -3.13322660               97.13256978               -1.49781580
              26.86639751                6.14975836               58.59587686                0.00010000                3.08234765                4.31799768              -13.33952088               -2.74150686               99.10000942               -0.12429189
              27.89964473                5.02698941               58.78309217                0.08098851                3.59440932                5.01141729              -17.19439193               -2.03992908               87.93252597                2.86891735
              28.93828570                3.93125744               58.71387210                0.22408019                3.91128129                3.76086366              -12.22312591               -0.99400835               38.80612490                1.17389890
              29.97787035                2.86023420               57.91004307                0.66896858                3.95846523                4.55483609              -14.85948777               -0.00963016                2.86688395               -7.21991642
              20.70665729               15.03042158               59.01298855                0.84040948                0.49578717               -0.19460210                0.20911833                0.51485650                2.12476724                3.98693110
              21.71161516               13.99526959               58.14216505                0.57337183                2.40024158                0.99833608               -3.43891355               -2.28196792               20.11923436               -3.79464424
              22.75466212               12.90080315               57.63088389                0.47015837                6.58288879               -1.30129908                0.36944211               -5.24297046               77.51267942               -4.62643716
              23.84327293               11.74058301               57.90102394                0.44402823                7.15384352               -1.39678799               -2.10845572               -3.65723366              112.63641073               -2.15182303
              24.89773899               10.59271732               58.12213943                0.43704333                4.47053797                0.29675499               -4.39048919               -1.85796935              108.18891478               -1.47659233
              25.93268369                9.44989161               58.32225132                0.44248486                2.92948273                1.74787289               -6.79421039               -1.28947001              106.28874458               -1.01280266
              26.95632864                8.31658686               58.51800510                0.46029137                2.11366450                3.17066281               -9.48041085               -0.91513873              106.31502501               -0.51881954
              27.97495698                7.19492710               58.72628399                0.49140345                1.92237592                4.51687370              -12.64777112               -0.81463672              108.81249462                0.31022081
              28.99477616                6.08317518               58.97325405                0.54325666                1.66525158                5.61857748              -16.71574233               -1.88056972               97.27397711                2.50586406
              30.00826201                4.96705283               58.94219099                0.61477072                2.45489091                3.57953985              -11.19715231               -1.96126491               44.38324275                2.32870725
              31.04387398                3.90399725               58.11569127                0.83527882                3.56119645                4.37630551              -13.90231112                0.29480475                5.34842376               -4.71927509
              10.22600746                5.31019011               61.52961058                0.95328719               -1.16691747               -1.30703046                4.44107947               -0.31603170               -3.25615436                3.72454984
              11.21433829                4.12760806               61.11393336                0.72315433               -1.09934385               -0.78437790                3.04386690               -0.29590488               -4.57968668               -2.54255060
              12.20402059                2.94058998               60.67253656                0.54862581               -1.05720261               -0.41778078                1.51817552               -0.45545462               -4.61805995               -0.78325204
              13.19319424                1.74004130               60.25668739                0.47833470               -0.96070394               -0.02860320                0.07577466               -0.44716409               -2.44136895               -0.46269020
              14.18480651                0.52095505               59.85859632                0.45029275               -0.54932564                0.37892245               -1.42192390               -0.36228584               -0.77736402               -0.29357181
              15.18220772               -0.71582837               59.47499992                0.45360558                0.17090746                0.79170748               -2.96067473               -0.24162127                0.21666824               -0.06383532
              16.18822466               -1.96340238               59.09528688                0.48804775                1.03375060                1.20020624               -4.49553875               -0.18606868                0.00263980                0.16736388
              17.20288274               -3.21231990               58.70593779                0.55998853                1.79452585                1.59147019               -5.97770145               -0.20084921               -1.23484009                0.36678482
              18.22411517               -4.45561228               58.30012368                0.68815895                2.35318689                1.97371381               -7.42345179               -0.21896801               -2.98899043                0.43726260
              19.24994647               -5.69034415               57.87418238                0.91178311                2.76116327                2.35129809               -8.88653809               -0.22339650               -3.59585384                1.07213254
              20.27933844               -6.91705177               57.45430101                1.00000000                2.93919657                2.80330099              -10.32128742               -0.57190757               -3.17196469               -2.56813046
              11.40542920                6.29711981               61.35931131                0.82507756               -0.92498923               -1.29265022                3.90030855               -0.14213968                1.80714973                4.99426656
              12.39617930                5.11976428               60.93767966                0.32774750               -0.60898880               -0.63484372                2.49952274               -0.25374190                4.51428004               -4.53348271
              13.39324942                3.93641218               60.57078195                0.03664249                0.11803796                0.15573217                1.41576240               -1.13409755                7.80292161               -8.23498153
              14.39854006                2.73975527               60.21500136                0.01161620                0.79345314               -0.55226579                0.22572193               -2.17461165                9.13060768               -7.92467346
              15.40911848                1.52474427               59.87490800                0.01419491                1.17150795               -0.63318205               -0.96353989               -2.96426955               10.60583015               -7.58145928
              16.42197022                0.29208871               59.54905109                0.01899532                1.27456274               -0.35503022               -2.19112681               -3.31245267               11.46165741               -7.60517421
              17.43460974               -0.95140031               59.22634705                0.02567133                1.25044873                0.14924505               -3.41261872               -3.03271370               11.11998866               -7.45258842
              18.44697920               -2.19640520               58.89333973                0.04265337                1.31639388                0.75229825               -4.58239536               -2.16594693                9.76138265               -6.12854147
              19.46093762               -3.43587514               58.54248631                0.20592078                1.57265267                1.44564395               -5.72826251               -1.02000797                8.20711591                0.96371394
              20.47843225               -4.66683117               58.17705398                0.47799529                1.96946826                1.99092811               -6.88787367               -0.35962726                5.70360609                3.38475480
              21.50032698               -5.88901876               57.77465364                0.85468202                2.18947307                2.79195378               -8.16184142               -0.61437906                3.93599300               -4.75938652
              12.57787572                7.28433711               61.21528162                0.74000910               -0.79046363               -1.20723661                3.52872716               -0.11457215                0.27438934                5.97925711
              13.56997108                6.11491119               60.72206929                0.19726677               -0.82640349               -0.37381327                1.70801265               -0.05113538                4.81891817               -6.09140044
              14.56134765                4.94370463               60.32027094                0.00598629               -0.43005879                0.89087277                0.63456812               -2.43571860               14.59393102              -17.62157130
              15.56136991                3.72899599               60.02400753                0.00010000                0.59200145               -0.55037673               -0.57744024               -5.26233317               20.57761389              -15.53367758
              16.57318768                2.50829141               59.74511923                0.00010000                1.53666741               -1.11766021               -1.99292511               -6.12563551               21.59465066              -14.97680043
              17.59210326                1.27707103               59.47164161                0.00010000                2.14383070               -1.05810805               -3.47628194               -6.59212828               22.08820313              -15.05456679
              18.61606429                0.03958253               59.20406018                0.00010000                2.59676865               -0.57012848               -4.96217655               -6.06352043               23.01998333              -14.95351903
              19.64403863               -1.19727394               58.94957181                0.00010000                2.90383437                0.19042288               -6.33344187               -4.49667013               28.64085990              -13.41145145
              20.67414098               -2.42669940               58.79380981                0.03599554                2.59294561                1.22540425               -7.27338894               -2.58781867               28.04793886              -10.62236026
              21.69589754               -3.65052559               58.52428622                0.16514049                1.86425276                2.84149458               -5.00118875               -0.95605330               12.21708764               -7.51457671
              22.71142604               -4.86121269               58.04899936                0.63745615                1.55284945                4.59950062               -6.62561150               -0.54222582                1.97095253              -18.99660077
              13.74198959                8.27297508               61.06566504                0.71966262               -0.62005161               -1.06120217                3.10417216               -0.09441683                0.08853944                5.68774507
              14.73578908                7.11228802               60.51477142                0.17129652               -0.57696715               -0.17519188                1.02699011                0.20316495                3.35072678               -5.52844734
              15.73045025                5.95422963               60.02952215                0.00059020               -0.35412288                0.90565277                0.28138226               -2.76941517               20.82518164              -17.24216352
              16.72870662                4.72874774               59.83038514                0.00010000                0.40402396                0.33225273               -1.24006082               -6.20465283               33.95836198              -15.29213460
              17.73853073                3.50239107               59.61366983                0.00010000                1.50649587               -0.09705218               -2.90673710               -6.64554191               32.86512567              -14.69573641
              18.75883654                2.27092655               59.39701959                0.00010000                2.45767835               -0.11158532               -4.67876362               -6.96559544               32.99055107              -14.54470871
              19.78768430                1.03719712               59.18552291                0.00010000                3.22455928                0.25182259               -6.48149814               -6.58648013               34.05261209              -14.51927964
              20.82332772               -0.19259674               58.99115410                0.00010000                3.73742963                0.97295220               -8.18824490               -5.34298146               35.20445447              -14.83364564
              21.86243289               -1.41136706               58.80158337                0.03719078                3.52483742                2.18503085               -9.46165233               -3.18419558               35.37494272              -19.74933602
              22.89382447               -2.61000128               58.60712778                0.16437459                2.42118916                4.71644777               -9.73616542               -0.79288076               18.79101306              -19.71072250
              23.91085667               -3.79702874               58.08172226                0.63696003                1.70322011                6.78846739              -11.03927917                0.58473979                2.45754190              -30.01038395
              14.89736150                9.26311307               60.91666920                0.70902996               -0.45816718               -0.91702999                2.69820390               -0.09179740                0.09821724                5.73649305
              15.89277983                8.11140735               60.31045618                0.15918001               -0.39309345                0.00249086                0.35270767                0.17513852                4.21645543               -5.30425511
              16.88949963                6.96181768               59.78690363                0.00010000               -0.18322062                0.79271579                0.02467525               -3.38310974               27.19792452              -14.12490126
              17.88911541                5.73564104               59.64339862                0.00010000                0.42991997                0.90327735               -1.73996196               -7.23255233               45.21292407              -14.12069492
              18.89809803                4.50635036               59.48835778                0.00010000                1.44349417                0.78673648               -3.68652440               -7.52545574               44.07311899              -13.71967964
              19.91798530                3.27483932               59.32804064                0.00010000                2.48799762                0.85947535               -5.76502303               -7.61108906               43.68769362              -13.56107865
              20.94785798                2.04461898               59.16924909                0.00010000                3.38789394                1.25274335               -7.92502256               -7.11883122               43.86424535              -13.66592743
              21.98574318                0.82218510               59.01445853                0.00010000                4.00018095                2.03426190              -10.08342506               -5.73031631               44.27792763              -14.45570453
              23.02786160               -0.38299879               58.86388140                0.04169559                3.99792171                3.39582228              -12.17009094               -2.97882468               43.65880902              -15.21129549
              24.06570161               -1.55619663               58.69486241                0.17198172                3.46570833                5.52678041              -12.97191678               -0.53878311               22.74609960              -16.87833744
              25.09717577               -2.72544334               58.11940010                0.64193170                3.14741565                7.07163232              -14.52151455                0.82498947                2.99902413              -27.15377893
              16.04356508               10.25463448               60.76878343                0.70010764               -0.29778440               -0.78202228                2.29946848               -0.09165299                0.10084346                5.78452395
              17.04058723                9.11233784               60.10758391                0.15027709               -0.25053540                0.18496272               -0.31308330                0.07007233                5.74369995               -5.17720086
              18.03855437                7.97008395               59.55943260                0.00010000               -0.05321687                0.89971365               -0.11795880               -3.86284487               34.25081568              -12.89135481
              19.03952289                6.74681328               59.47220183                0.00010000                0.51344834                1.28446607               -2.09782738               -8.02676562               56.23598720              -12.58305870
              20.04882333                5.51812580               59.37414227                0.00010000                1.44116244                1.44826696               -4.30831472               -8.27781612               54.99179108              -12.27962666
              21.06834614                4.28811605               59.26945607                0.00010000                2.45692784                1.68571255               -6.68573432               -8.12347814               54.28811831              -12.02369049
              22.09796189                3.06225198               59.16241434                0.00010000                3.39965095                2.17794676               -9.20066822               -7.34592036               54.05096608              -11.90975498
              23.13633916                1.84808849               59.05605495                0.00010000                4.16381210                3.00880603              -11.81822369               -5.59038404               54.12079027              -11.84846597
              24.18123813                0.65654939               58.95142622                0.04659910                4.45771027                4.23524115              -14.46311175               -2.41063502               52.73934986              -11.65759786
              25.22549337               -0.49946567               58.81609487                0.17963097                4.23058767                5.68033295              -14.97769996               -0.10114587               27.10592149              -12.79107869
              26.26584989               -1.65559610               58.18987572                0.64662277                4.03565194                6.84584479              -16.69594258                0.62507170                3.34464994              -23.06277470
              17.18012172               11.24747262               60.62140345                0.69228755               -0.13899180               -0.65253660                1.90427586               -0.09177844                0.10495971                5.77990405
              18.17873180               10.11510661               59.90564030                0.14363641               -0.11772173                0.37046592               -0.97360646               -0.07955679                7.71907481               -5.09796425
              19.17776729                8.97981196               59.34224732                0.00025523                0.09032245                1.02437353               -0.08611027               -4.26586820               41.90232198              -11.85449132
              20.18053825                7.76133036               59.31475404                0.00010000                0.67358248                1.53103224               -2.29262195               -8.51849385               67.44361975              -11.09437744
              21.19123894                6.53531570               59.27451452                0.00010000                1.54256483                1.84369616               -4.74424462               -8.67278925               65.96201386              -10.52501818
              22.21138955                5.30855357               59.22599289                0.00010000                2.48640996                2.24561889               -7.38587062               -8.23834105               65.04699679              -10.02239899
              23.24096713                4.08817791               59.17349633                0.00010000                3.41242730                2.86239134              -10.21096139               -7.17217048               64.63193406               -9.48142018
              24.27963809                2.88236123               59.12057736                0.00010000                4.31179637                3.68711027              -13.19963540               -5.19295248               64.62961824               -8.75766908
              25.32720306                1.70170604               59.06963835                0.05187229                4.80930417                4.63793832              -16.24896090               -1.92875189               62.22126757               -7.68652314
              26.37582418                0.55741003               58.96731780                0.18739385                4.73674994                5.59400621              -16.05040767                0.12566050               31.42946064               -8.99519712
              27.42193806               -0.58852645               58.29020889                0.65122657                4.61138831                6.55582500              -17.95677985                0.47948976                3.60668268              -19.24025568
              18.30646154               12.24158374               60.47397840                0.68549483                0.01952239               -0.52637796                1.50981158               -0.09236514                0.10819252                5.71792867
              19.30665676               11.11974715               59.70407181                0.13925710                0.02758556                0.55951394               -1.63359926               -0.30036486               10.20460962               -5.05998359
              20.30701325                9.99057142               59.13607892                0.00110053                0.34962554                1.03791503                0.14326941               -4.66660258               50.22851231              -10.66701850
              21.31364927                8.77743393               59.17194967                0.00010000                1.05655453                1.50971731               -2.30379219               -8.70331278               78.91812181               -9.40932539
              22.32814434                7.55499972               59.19173647                0.00010000                1.85339204                1.88162744               -4.96728351               -8.52864484               77.10724076               -8.50320724
              23.35071711                6.33302843               59.20103303                0.00010000                2.62832459                2.47567842               -7.81619876               -7.73143479               76.00046294               -7.73016070
              24.38071083                5.11949981               59.20560250                0.00010000                3.41174386                3.27965124              -10.87961134               -6.49391721               75.56255727               -6.83754819
              25.41895199                3.92183070               59.21065922                0.00010000                4.34517319                4.12739074              -14.16259728               -4.61847415               75.68397787               -5.54469671
              26.46761429                2.74930815               59.21947073                0.05765671                4.96435364                4.82589170              -17.55502369               -1.65117935               71.81639887               -3.67241068
              27.51823906                1.61241446               59.14591731                0.19511283                4.98491692                5.34403963              -16.37939534                0.16063102               35.51844764               -5.43620567
              28.56731263                0.47552040               58.41786841                0.65528995                4.90735703                6.23516042              -18.49616160                0.33677149                3.77882485              -15.58827422
              19.42194760               13.23694506               60.32583154                0.68013059                0.17892333               -0.40231112                1.11127701               -0.09423991                0.13420109                5.66466370
              20.42373683               12.12629688               59.50247532                0.13714791                0.24004313                0.75361114               -2.29500210               -0.68872894               13.34285755               -5.12773452
              21.42674846               11.00057026               58.94317340                0.00243060                0.91534306                0.72307575                0.57217699               -5.19186427               59.43432932               -9.03025421
              22.44204369                9.79152471               59.04697346                0.00010000                1.91615365                0.93369715               -2.13652759               -8.29542020               90.70470811               -7.24462591
              23.46507153                8.57294825               59.12869427                0.00010000                2.51085345                1.47916746               -4.96763212               -7.43268617               88.34957987               -6.13630514
              24.49226076                7.35806714               59.19637964                0.00010000                2.86074944                2.40720829               -7.93826058               -6.28099281               86.96890684               -5.27752046
              25.52228652                6.15377094               59.25891830                0.00010000                3.25997540                3.48825593              -11.14608651               -5.09561050               86.62704113               -4.29781119
              26.55746027                4.96490904               59.32491810                0.00010000                4.06545973                4.51842124              -14.66042617               -3.71047574               87.17070356               -2.75226746
              27.60359572                3.79822387               59.39985021                0.06396504                4.76821393                5.05245159              -18.40620569               -1.61810182               81.42552474               -0.07142840
              28.65282455                2.66429082               59.34949738                0.20285412                4.94329405                4.99957788              -16.07627204               -0.06025958               39.30002287               -1.99001337
              29.70246160                1.53617676               58.57125557                0.65877440                4.96370499                5.86148668              -18.40402841                0.19153399                3.90218456              -12.09205265
              20.52587309               14.23353752               60.17775866                0.67390722                0.33838949               -0.27529349                0.71222753               -0.09513123               -0.08806820                4.92761284
              21.52925698               13.13481938               59.29898866                0.13617222                0.60375238                0.94730558               -2.96793486               -1.48136246               17.44456584               -4.60906093
              22.53794814               12.00503293               58.77064391                0.00458990                2.30529432               -0.60534073                1.16369271               -4.80285623               70.02746104               -5.99551678
              23.57536287               10.79610787               58.94672547                0.00010000                3.75000212               -0.34529898               -1.86423603               -6.00740116              102.70198490               -4.18915232
              24.61294818                9.58458307               59.08935087                0.00010000                3.44558485                0.87273054               -4.75994405               -4.64688934               99.32498249               -3.28666842
              25.64427457                8.38117260               59.21317137                0.00010000                2.95042703                2.21662825               -7.72370247               -3.60536733               97.54825281               -2.70760260
              26.67195672                7.18926493               59.33116769                0.00010000                2.80074860                3.57968844              -10.94415659               -2.81282395               97.29435287               -2.05423626
              27.70028954                6.01219912               59.45630964                0.00010000                3.19568779                4.86386203              -14.57900421               -2.18909582               98.69697181               -0.93792911
              28.73587048                4.85035718               59.60341789                0.07110828                3.93957193                5.67992284              -18.76812571               -1.37212385               91.37359495                1.53973511
              29.77908098                3.71240601               59.57805492                0.21076240                4.57504763                4.62160831              -15.23176393               -0.62425742               43.00453482                0.75520667
              30.82737143                2.59275014               58.74817818                0.66143034                4.82904502                5.44073539              -17.76925444               -0.00660343                3.73585817               -7.93493288
              21.61748126               15.23143919               60.01523686                0.83570423                0.51329074               -0.20983312                0.24121661                0.54119790                2.23238469                4.19026941
              22.62261417               14.14524300               59.10704574                0.56922534                2.59607896                1.04236190               -3.58628658               -2.81306880               24.33079761               -3.98823258
              23.66940284               12.98846344               58.64047498                0.46949810                5.98656805               -1.65694912                1.51809863               -4.88574281               82.17458163               -4.18121158
              24.74234553               11.78461873               58.88239446                0.44391986                5.88330883               -1.14891418               -1.62205178               -3.20476288              113.75800298               -2.13534207
              25.78706902               10.59040286               59.07839857                0.43707871                3.65630114                0.58197919               -4.36720613               -1.69886708              109.38638054               -1.56848041
              26.81547156                9.40239971               59.25250570                0.44224210                2.39672488                2.12271096               -7.15255061               -1.13220910              107.25314569               -1.19200933
              27.83500352                8.22536471               59.41951003                0.45934440                1.85572719                3.60997764              -10.21001519               -0.70599162              106.82487866               -0.79304411
              28.85258610                7.06218628               59.59423623                0.48910797                2.04714165                4.99871572              -13.74843809               -0.44746310              108.54242645               -0.10593016
              29.87594635                5.91182233               59.79895388                0.53812254                2.26801750                6.14651429              -18.11693951               -1.26557733              101.01430075                1.69670312
              30.89794645                4.75672299               59.81756003                0.60786730                3.28474676                4.43169728              -13.98333155               -1.45499592               49.00653478                2.23817167
              31.94164129                3.64499147               58.96432709                0.83143768                4.36948367                5.22413333              -16.58379147                0.25383391                6.29882661               -5.04426383
              10.61540574                5.52118134               62.57475330                0.94732209               -1.20516471               -1.35093802                4.58972974               -0.32907889               -3.40006633                3.87715373
              11.60335410                4.28049564               62.14484209                0.71519171               -1.13441271               -0.80762490                3.13842790               -0.31112281               -4.78993290               -2.67724775
              12.59271749                3.03515509               61.68790038                0.54473101               -1.06815776               -0.43189059                1.55399490               -0.45088891               -4.85501324               -0.75568510
              13.58199094                1.77629828               61.25733585                0.47705854               -0.93174174               -0.02523302                0.05524551               -0.43854678               -2.66922434               -0.47178211
              14.57408266                0.49939294               60.84398380                0.45023403               -0.48913501                0.39622269               -1.49827027               -0.35403510               -1.05910438               -0.29644291
              15.57220824               -0.79439891               60.44472392                0.45382162                0.24385341                0.82428171               -3.09246846               -0.24210012               -0.08835467               -0.06753216
              16.57895972               -2.09823841               60.04938167                0.48758639                1.10534038                1.24796255               -4.68481274               -0.19092965               -0.27536532                0.16268338
              17.59431505               -3.40304186               59.64491779                0.55830325                1.86782281                1.65461751               -6.22515371               -0.20254411               -1.46667017                0.36744308
              18.61631618               -4.70208411               59.22434248                0.68421501                2.43967546                2.05177957               -7.72771758               -0.21828465               -3.20998444                0.43959712
              19.64310856               -5.99245300               58.78345215                0.90390175                2.86905874                2.44580152               -9.25282683               -0.22594507               -3.81091761                1.08441982
              20.67369735               -7.27453987               58.34893199                1.00000000                3.05887957                2.91255046              -10.74533117               -0.59882777               -3.37443663               -2.69757102
              11.85280066                6.50767196               62.39895654                0.81358486               -0.95446617               -1.33956553                4.03015982               -0.15163456                1.94424341                5.23413420
              12.84325599                5.27241939               61.96306072                0.31354917               -0.62466872               -0.64911757                2.57662037               -0.27413648                4.81255767               -4.79497090
              13.84030728                4.03083619               61.58512090                0.03105903                0.11152784                0.17295278                1.45022583               -1.18323193                8.21156068               -8.54286150
              14.84548655                2.77604595               61.21722666                0.01232722                0.77918105               -0.56017486                0.21902539               -2.29223865                9.49085266               -8.40851572
              15.85589090                1.50335517               60.86502416                0.01496277                1.15581825               -0.63335486               -1.01397469               -3.10767668               10.95253875               -8.34541191
              16.86860292                0.21384390               60.52668891                0.02001233                1.27404993               -0.35155408               -2.28415100               -3.45353722               11.79454981               -8.67647309
              17.88137190               -1.08575878               60.19156030                0.02725155                1.28047701                0.15666733               -3.54847450               -3.16700050               11.48017593               -8.84169090
              18.89421246               -2.38649569               59.84665630                0.04134548                1.37334995                0.77870702               -4.76056646               -2.29521793               10.15527256               -7.80900286
              19.90883890               -3.68156631               59.48414349                0.19806577                1.64322665                1.55400622               -5.94482138               -1.08101781                8.60252052               -0.89129062
              20.92707699               -4.96799498               59.10690987                0.46187254                2.04785237                2.09267035               -7.14463637               -0.36785915                6.03416113                3.31009559
              21.94979595               -6.24541436               58.69153376                0.84310952                2.27189586                2.92212789               -8.46625488               -0.64370904                4.21124378               -5.22908560
              13.08287819                7.49439003               62.25118312                0.72922271               -0.81710481               -1.25406412                3.65096905               -0.11915176                0.26152807                6.27727503
              14.07470714                6.26751329               61.73938887                0.18470047               -0.87259489               -0.37702713                1.75641179               -0.06310274                5.19914982               -6.42154661
              15.06542629                5.03861415               61.32687252                0.00506647               -0.55399768                0.90543984                0.69294368               -2.58308508               15.28317901              -18.00803710
              16.06362719                3.76509478               61.01831507                0.00010000                0.43524386               -0.54539300               -0.55059591               -5.55457427               21.04923660              -16.43821865
              17.07413117                2.48672584               60.72473967                0.00010000                1.43121297               -1.10176473               -2.07737657               -6.43002806               21.89433557              -16.46361748
              18.09225145                1.19857000               60.43582708                0.00010000                2.09140665               -1.03066469               -3.68273589               -6.89006368               22.33019193              -17.17160026
              19.11595930               -0.09510506               60.15269834                0.00010000                2.59833834               -0.52409108               -5.31050203               -6.32973448               23.28711753              -17.73259787
              20.14421822               -1.38746772               59.88359763                0.00010000                3.01179067                0.29261462               -6.87323415               -4.65992430               29.07768722              -16.85063665
              21.17619512               -2.67100398               59.71575607                0.02877378                2.76906063                1.44225374               -8.39099516               -2.70460101               30.59990078              -14.45441181
              22.19959943               -3.95059959               59.47299492                0.15252964                1.97334096                3.28474608               -5.30097937               -1.01616895               14.59709401              -11.31329973
              23.21566194               -5.21609731               58.98132848                0.62920554                1.60625078                5.10828203               -6.93266666               -0.46220750                2.22189662              -23.05961293
              14.30417110                8.48259068               62.09726196                0.70921709               -0.64012798               -1.10218109                3.21333264               -0.09986220                0.09116312                5.96502044
              15.29776982                7.26487885               61.52516153                0.15920965               -0.65535082               -0.17394111                1.05132191                0.16106459                4.10528356               -5.79647141
              16.29106409                6.04894498               61.03374467                0.00019278               -0.57432258                0.86238940                0.60487707               -2.93329768               21.78889585              -17.38855880
              17.28628337                4.76513809               60.81833380                0.00010000                0.13755178                0.36582642               -1.15307290               -6.47321270               34.32809562              -16.05568310
              18.29381512                3.48131987               60.58402488                0.00010000                1.31745885               -0.01906867               -3.01266324               -6.91990157               33.09502607              -16.07221934
              19.31263255                2.19323061               60.34867581                0.00010000                2.34999078                0.01707675               -4.98364501               -7.22090722               33.12016854              -16.57313691
              20.34081494                0.90375939               60.11805357                0.00010000                3.21401694                0.44704167               -7.01259137               -6.78819299               34.16415137              -17.25341811
              21.37691289               -0.38064339               59.90522948                0.00010000                3.85319045                1.26735323               -9.01798598               -5.44432045               35.56281214              -18.33478315
              22.41787875               -1.65272123               59.70198306                0.02968236                3.74670253                2.60149980              -10.51982185               -3.14664630               36.37864599              -24.10940351
              23.45184694               -2.90230006               59.50179582                0.15339916                2.68342453                5.56151959              -11.48587132               -0.67715368               19.96521535              -26.32978592
              24.47154724               -4.14324872               58.96419893                0.63029858                1.97002992                7.71235882              -12.60802756                0.84900787                3.43936864              -36.77161004
              15.51630461                9.47234641               61.94414794                0.69856689               -0.47304746               -0.95318233                2.79674754               -0.09691731                0.10160180                6.02576774
              16.51157413                8.26403447               61.31398217                0.14757598               -0.49017534                0.00902118                0.35267870                0.07633506                5.36191429               -5.56389633
              17.50650110                7.05586194               60.78932127                0.00010000               -0.48930420                0.73375602                0.50303749               -3.55856356               28.53218786              -14.22895740
              18.50178805                5.77241131               60.62669610                0.00010000                0.05697614                0.94738519               -1.57873742               -7.43750377               45.52819492              -14.75852200
              19.50764062                4.48634447               60.45085651                0.00010000                1.18028678                0.91449288               -3.80397381               -7.74045787               44.22247029              -14.96514022
              20.52539378                3.19891154               60.26842904                0.00010000                2.32144128                1.07749300               -6.14998466               -7.79134156               43.69710731              -15.45518390
              21.55406945                1.91383577               60.08660122                0.00010000                3.32093261                1.58051706               -8.60490312               -7.23440720               43.77916389              -16.27650925
              22.59181244                0.63787934               59.90865267                0.00010000                4.04247038                2.49666397              -11.10290485               -5.74610803               44.16791129              -17.89171804
              23.63491886               -0.61897398               59.73536516                0.03404285                4.23857033                4.04579320              -13.62172727               -2.73748821               44.06435041              -19.74616571
              24.67658384               -1.83936920               59.55341207                0.16032760                3.98102815                6.44585044              -15.49450168               -0.25707460               23.63876403              -21.97377847
              25.71453942               -3.06185013               58.96308285                0.63481386                3.79555767                8.04679492              -16.93045420                1.10433159                3.94468526              -32.65236077
              16.71885664               10.46352703               61.79221583                0.68978073               -0.30756414               -0.81321163                2.38789951               -0.09465794                0.10503471                6.07920429
              17.71578100                9.26505927               61.10432915                0.13911547               -0.36703343                0.19686547               -0.33728208               -0.07847309                7.32611100               -5.42987520
              18.71151597                8.06362010               60.56106007                0.00010000               -0.43651174                0.85663864                0.49768709               -4.06027733               36.01989342              -12.86965187
              19.70705076                6.78408580               60.45225047                0.00010000                0.04948839                1.34002040               -1.87739777               -8.15582727               56.54321464              -13.09648499
              20.71250574                5.49960973               60.33040972                0.00010000                1.11318268                1.61201304               -4.43053665               -8.39892275               55.09467006              -13.36664950
              21.72931442                4.21478047               60.20033421                0.00010000                2.23266257                1.97556995               -7.13196142               -8.18555858               54.20619919              -13.72552566
              22.75715899                2.93536973               60.06643596                0.00010000                3.27430322                2.61667918               -9.99556053               -7.31393607               53.78280922              -14.29423373
              23.79480048                1.66928988               59.93198654                0.00010000                4.16092661                3.62372150              -13.02546443               -5.40572486               53.70941890              -15.01922379
              24.84037752                0.42819463               59.79871159                0.03853010                4.73905562                5.05394175              -16.18357775               -1.92860718               53.15584655              -15.69154065
              25.88958159               -0.77338305               59.65204691                0.16767832                4.91091084                6.62179645              -18.05455446                0.30829627               28.21872916              -16.70068332
              26.93859574               -1.98231282               59.00939331                0.63936842                4.90141457                7.82292359              -19.63414961                0.85297712                4.37165282              -27.33309141
              17.91134697               11.45608218               61.64083236                0.68231623               -0.14353666               -0.67854181                1.98189269               -0.09441288                0.10984816                6.07615830
              18.90991160               10.26797178               60.89565894                0.13296991               -0.25389668                0.38799713               -1.02216218               -0.27389975                9.83105844               -5.34710616
              19.90626903                9.07299471               60.34500178                0.00056401               -0.36148610                0.99053474                0.67069542               -4.47895578               44.19714590              -11.65560619
              20.90268188                7.79921172               60.29315913                0.00010000                0.13492309                1.59060352               -2.01917066               -8.56206747               67.75985683              -11.45203066
              21.90896749                6.51858473               60.22645753                0.00010000                1.16203648                2.02901473               -4.86523419               -8.67422630               66.07137492              -11.41840619
              22.92592261                5.23842294               60.14967736                0.00010000                2.21569087                2.58361318               -7.87219880               -8.14952562               64.93603934              -11.47142363
              23.95328131                3.96616935               60.06700190                0.00010000                3.24752187                3.37718311              -11.08862321               -6.95234096               64.27357469              -11.54097711
              24.99087304                2.71035377               59.98207850                0.00010000                4.28691678                4.39969316              -14.53419186               -4.78404155               64.07284977              -11.50148304
              26.03901965                1.48210485               59.89834314                0.04339806                5.11920880                5.54467285              -18.12487333               -1.26620845               62.98252123              -11.15454130
              27.09325722                0.29306673               59.79085659                0.17527736                5.52194298                6.56475986              -19.50929796                0.59145933               33.00184476              -11.94182039
              28.14945851               -0.90539166               59.09548324                0.64397036                5.62012867                7.56739049              -21.26095047                0.66401965                4.70810751              -22.58764737
              19.09318918               12.44995620               61.48941350                0.67580469                0.02012907               -0.54888582                1.57680977               -0.09580979                0.11235248                6.01115842
              20.09339047               11.27281922               60.68736812                0.12902409               -0.12461342                0.58410645               -1.70612518               -0.54426078               12.94325978               -5.30857380
              21.09069691               10.08343080               60.14193007                0.00165238               -0.15855391                1.00007975                1.03861883               -4.88322128               53.15364083              -10.27916331
              22.09021939                8.81589787               60.15056700                0.00010000                0.45565417                1.55891296               -1.98315843               -8.64650345               79.27080425               -9.58965574
              23.09981000                7.54019002               60.14154021                0.00010000                1.42599439                2.07773494               -5.07690561               -8.39814581               77.28715192               -9.17201797
              24.11873928                6.26645273               60.12035474                0.00010000                2.31856703                2.83956545               -8.31650222               -7.49890960               75.94627523               -8.87107775
              25.14618134                5.00291340               60.09223141                0.00010000                3.22224362                3.82332694              -11.79515875               -6.10546415               75.21087363               -8.48856794
              26.18318415                3.75728375               60.06224112                0.00010000                4.30795289                4.87588051              -15.55302545               -4.01599489               75.08145216               -7.78269427
              27.23234039                2.53908809               60.03497566                0.04867259                5.28615687                5.77331256              -19.47426312               -0.86931066               73.11059639               -6.57546637
              28.28890729                1.35791215               59.96512747                0.18285763                5.82262614                6.34154766              -20.05982020                0.63358776               37.68418599               -7.53146725
              29.34879292                0.16903499               59.21667477                0.64823218                5.98856259                7.30706890              -22.01332735                0.46672997                4.93059878              -18.10532503
              20.26370473               13.44510446               61.33722662                0.67057028                0.18470515               -0.42208294                1.16794052               -0.09774685                0.14052154                5.95532312
              21.26555178               12.27965391               60.47904109                0.12761951                0.09106137                0.78576862               -2.39171051               -0.99334695               16.80961405               -5.38317717
              22.26552596               11.09299630               59.95412205                0.00324819                0.37204005                0.65867119                1.57637344               -5.36999448               63.09442042               -8.46547495
              23.27299258                9.83038998               60.02755720                0.00010000                1.24618766                0.97244891               -1.77416742               -8.09705904               91.12054543               -7.26673979
              24.29044971                8.56013943               60.07866090                0.00010000                2.01142294                1.70610378               -5.05222901               -7.19795016               88.68244234               -6.56899271
              25.31322104                7.29521425               60.11457782                0.00010000                2.49456511                2.78410211               -8.42040172               -5.97907108               87.07846739               -6.06574410
              26.34034101                6.04263589               60.14294540                0.00010000                3.05787075                4.01451886              -12.04648571               -4.63888155               86.37833724               -5.46480925
              27.37437846                4.80787138               60.17161896                0.00010000                4.03320107                5.21989545              -16.02626843               -3.00810979               86.56336760               -4.38791836
              28.42100503                3.59757110               60.20709412                0.05445034                5.08018090                5.97961770              -20.25910041               -0.74713768               83.36569431               -2.38403940
              29.47598207                2.41989769               60.17156405                0.19010278                5.77711958                6.01933866              -19.82879940                0.39437194               42.16054364               -3.29006058
              30.53654743                1.24074972               59.37075031                0.65182311                6.05653514                6.97145176              -22.00134358                0.26260772                5.09049551              -13.79760581
              21.42213535               14.44151454               61.18511731                0.66456384                0.34963376               -0.29169481                0.76000019               -0.09887012               -0.09347190                5.18130784
              22.42563169               13.28853459               60.26869043                0.12748932                0.52127988                0.98684401               -3.09169795               -1.87345543               21.69962639               -4.84358310
              23.43256095               12.09660422               59.78790310                0.00562956                1.77516992               -0.77397673                2.21095274               -4.79543375               74.46665662               -5.45379372
              24.46113509               10.83534684               59.93032769                0.00010000                2.92328882               -0.19258954               -1.46590725               -5.73876507              103.21425547               -4.13636046
              25.49102673                9.57431210               60.04161287                0.00010000                2.77631540                1.15564440               -4.80684057               -4.41532105               99.93867555               -3.49804914
              26.51666140                8.32213477               60.13377078                0.00010000                2.48599218                2.60842656               -8.15374357               -3.38471092               97.96529220               -3.11080153
              27.54074657                7.08320377               60.21754659                0.00010000                2.57126761                4.07027064              -11.77175930               -2.48492218               97.27989438               -2.66334285
              28.56808675                5.86168166               60.30429677                0.00010000                3.23123843                5.45419647              -15.83892544               -1.62700670               98.09366036               -1.82789439
              29.60537134                4.65868044               60.40772966                0.06100995                4.27646828                6.42330828              -20.43400999               -0.63246996               93.94254779                0.11304358
              30.65361611                3.47829892               60.40923683                0.19743042                5.34848342                5.64541821              -18.87235385               -0.15894944               46.57389368                0.15666385
              31.71234101                2.30846402               59.55465798                0.65429890                5.87248927                6.50322170              -21.26058500                0.00495862                4.91285988               -8.83055006
              22.56768723               15.43927056               61.01781288                0.83094781                0.53057631               -0.22439734                0.27390061                0.56720957                2.34576281                4.40689191
              23.57299299               14.29939079               60.07043932                0.56495216                2.75589013                1.08561979               -3.73314796               -3.35155988               29.27162101               -4.19551269
              24.62280503               13.07751677               59.66124586                0.46897528                5.37582077               -1.90874531                2.55152683               -4.61822205               87.25001497               -3.65019323
              25.68050940               11.82653819               59.86858290                0.44363383                4.62751654               -0.88086543               -1.21368495               -2.77579106              114.60226158               -2.07882428
              26.71535536               10.58325232               60.03479530                0.43711000                2.80628722                0.89402168               -4.37361791               -1.52490729              110.48436062               -1.65650117
              27.73663515                9.34738278               60.17920031                0.44205008                1.78701641                2.52480036               -7.50156092               -0.96317535              108.15890741               -1.38083493
              28.75109569                8.12404130               60.31380479                0.45828811                1.48632540                4.08375306              -10.91114399               -0.48646157              107.24420806               -1.08589384
              29.76636166                6.91695531               60.45131522                0.48684638                2.03213422                5.52736554              -14.82755447               -0.07271107              108.17600844               -0.54796223
              30.79173837                5.72603727               60.61091526                0.53289594                2.83289237                6.73568269              -19.51329867               -0.57075982              103.98452418                0.88135323
              31.82301950                4.53280605               60.66252436                0.60102579                4.22890116                5.45071291              -17.32125225               -0.82081679               53.01813673                2.04783684
              32.87631639                3.37081415               59.78401544                0.82776631                5.32968907                6.23501294              -19.75585278                0.19834901                7.56580365               -5.44921760
              11.01782856                5.73932671               63.62140518                0.94160481               -1.24360087               -1.39540411                4.73947916               -0.34237345               -3.55191222                4.03490337
              12.00539255                4.43762584               63.17670192                0.70721119               -1.17009995               -0.83077517                3.23359749               -0.32721778               -5.00925729               -2.81659962
              12.99442656                3.13103525               62.70361646                0.54107849               -1.08331075               -0.44524394                1.58961466               -0.45127539               -5.10058414               -0.72826918
              13.98372633                1.81082404               62.25779230                0.47574325               -0.90951044               -0.02183034                0.03729504               -0.43173753               -2.90453621               -0.47941791
              14.97623635                0.47294546               61.82863092                0.45024760               -0.43417879                0.41346967               -1.57032136               -0.34958563               -1.34896254               -0.29904802
              15.97504276               -0.88110899               61.41315055                0.45407814                0.31435674                0.85650718               -3.21914867               -0.24433883               -0.40370164               -0.07139771
              16.98252348               -2.24450597               61.00159062                0.48745323                1.17728816                1.29551599               -4.86668791               -0.19471587               -0.56602184                0.15924809
              17.99858852               -3.60844807               60.58143471                0.55670688                1.94288209                1.71829647               -6.46322068               -0.20452509               -1.70959612                0.36786562
              19.02138112               -4.96642235               60.14556933                0.68008141                2.52750446                2.13078019               -8.02440158               -0.22082305               -3.44392037                0.44090716
              20.04913861               -6.31557119               59.68912584                0.89564511                2.97544462                2.53991664               -9.60844363               -0.23056002               -4.04096744                1.09830490
              21.08089002               -7.65620672               59.23939439                1.00000000                3.17514081                3.02097658              -11.15615830               -0.62214756               -3.59095802               -2.83485743
              12.31610569                6.72537267               63.43991450                0.80246434               -0.98395944               -1.38747613                4.15967608               -0.16214650                2.08654256                5.48452570
              13.30626610                5.42931808               62.98921207                0.29941205               -0.63954971               -0.66231941                2.65297469               -0.29588586                5.12124073               -5.06553033
              14.30331470                4.12658281               62.59978647                0.02563314                0.10938765                0.19424323                1.48397269               -1.25269335                8.63687452               -8.83347202
              15.30845385                2.81060574               62.21938186                0.01310120                0.76961541               -0.58497851                0.21068941               -2.43707517                9.86813365               -8.87475018
              16.31870701                1.47708016               61.85462851                0.01579497                1.14356148               -0.64635634               -1.06618014               -3.29118149               11.31364932               -9.13456007
              17.33132508                0.12745609               61.50336807                0.02110140                1.27694291               -0.36194472               -2.38149955               -3.64626477               12.14271391               -9.81905461
              18.34424586               -1.23155081               61.15537756                0.02891951                1.30881897                0.14716324               -3.68955266               -3.36042895               11.85547033              -10.35863402
              19.35750146               -2.59126510               60.79812840                0.04391707                1.42442964                0.77941070               -4.94653995               -2.48088080               10.56806502               -9.70456459
              20.37273446               -3.94511455               60.42358988                0.19042868                1.71118680                1.63975699               -6.17294893               -1.17731714                9.02155675               -3.26094123
              21.39172520               -5.29017203               60.03416126                0.44595622                2.12848070                2.19468292               -7.41307209               -0.38770060                6.38335906                3.14600881
              22.41530407               -6.62599696               59.60532854                0.83170824                2.35788752                3.05683053               -8.78128660               -0.66715187                4.50103286               -5.77248573
              13.60669479                7.71157718               63.28830100                0.71862832               -0.84301036               -1.30309986                3.77098457               -0.12437246                0.24724055                6.58830249
              14.59826469                6.42437945               62.75719752                0.17242008               -0.93048785               -0.37763951                1.80480236               -0.07555627                5.62307833               -6.76321005
              15.58808503                5.13492011               62.33412982                0.00415357               -0.68886023                0.87134468                0.77261429               -2.77568844               16.04004933              -18.23685149
              16.58448748                3.79912447               62.01299561                0.00010000                0.27386701               -0.56763519               -0.50595457               -5.91836578               21.53078392              -17.30648403
              17.59356237                2.46001833               61.70357169                0.00010000                1.31304709               -1.11251577               -2.15076478               -6.80450625               22.16496368              -18.00112275
              18.61074842                1.11165212               61.39798690                0.00010000                2.02368598               -1.02971197               -3.87890890               -7.28474443               22.53197878              -19.42950830
              19.63403609               -0.24156270               61.09785014                0.00010000                2.58931108               -0.51116567               -5.65340406               -6.71720915               23.47488482              -20.76139029
              20.66253465               -1.59285985               60.81210712                0.00010000                3.13528073                0.34588294               -7.42425124               -4.94557451               29.19743848              -20.69582726
              21.69674171               -2.93362721               60.62598990                0.02146766                2.98661818                1.59751659               -9.55787363               -2.90563358               33.32707864              -18.85658692
              22.72226701               -4.27167754               60.41826664                0.14035530                2.12275671                3.65789442               -5.71598139               -1.11275969               17.46545319              -16.03544985
              23.73919684               -5.59507011               59.91034603                0.62093487                1.69298326                5.58908240               -7.31302248               -0.36256934                2.57197740              -27.93677459
              14.88801372                8.69931067               63.12993169                0.69856930               -0.66016736               -1.14513182                3.32167655               -0.10302278                0.09556551                6.25635982
              15.88141204                7.42176529               62.53579786                0.14757505               -0.74789072               -0.17088200                1.07713159                0.06395660                5.07304915               -6.07547495
              16.87305590                6.14400970               62.04161969                0.00010000               -0.82118639                0.75015097                1.00286713               -3.15839191               22.86408810              -17.32987054
              17.86498832                4.79925304               61.80732368                0.00010000               -0.14833335                0.37147250               -1.04126880               -6.77616377               34.57033425              -16.77593666
              18.87008924                3.45482984               61.55341657                0.00010000                1.11114552                0.03221974               -3.10179670               -7.25695356               33.24568224              -17.49966661
              19.88721123                2.10686185               61.29734669                0.00010000                2.21622096                0.12125640               -5.27152615               -7.55848224               33.16169192              -18.73734380
              20.91441366                0.75822588               61.04527108                0.00010000                3.17216262                0.61345498               -7.53280763               -7.10138745               34.12951151              -20.22004937
              21.95065448               -0.58434744               60.81079438                0.00010000                3.95129067                1.52267717               -9.86575091               -5.67936391               35.74875904              -22.17874179
              22.99343947               -1.91316421               60.59118693                0.02230148                4.01292146                2.94882859              -11.67754687               -3.25095955               36.95238390              -28.79191830
              24.03091291               -3.21701414               60.37741035                0.14270349                3.06991863                6.28771234              -13.47592221               -0.62794527               20.92621388              -34.32438967
              25.05483784               -4.51421531               59.82956171                0.62365430                2.39249333                8.56925866              -14.40462371                1.15643600                4.71684990              -44.88168880
              16.15972508                9.68867455               62.97260415                0.68843870               -0.48803002               -0.98882625                2.89524396               -0.10000284                0.10543848                6.33194471
              17.15484478                8.42096181               62.31750975                0.13622825               -0.61478165                0.01491336                0.35356240               -0.09491212                6.81775918               -5.83450085
              18.14742945                7.14992313               61.79696438                0.00010000               -0.83503579                0.65003478                1.05579016               -3.82164375               30.03915975              -14.20651586
              19.13814407                5.80655392               61.61182387                0.00010000               -0.33074793                0.95837557               -1.39434202               -7.66055898               45.65837766              -15.37095002
              20.14081449                4.46066273               61.41227830                0.00010000                0.90193355                1.01809759               -3.90623382               -7.99664565               44.24620819              -16.26466933
              21.15618274                3.11407725               61.20504094                0.00010000                2.12015710                1.27476900               -6.51547514               -8.03618371               43.58472715              -17.47988531
              22.18321763                1.77070640               60.99715103                0.00010000                3.20773622                1.88703753               -9.27093106               -7.44657328               43.52626333              -19.10427784
              23.22033746                0.43759369               60.79240043                0.00010000                4.05857887                2.93128160              -12.14680003               -5.88798029               43.78691682              -21.64320951
              24.26438921               -0.87465064               60.59144686                0.02644525                4.52108679                4.64524022              -15.21102953               -2.63308796               43.78640935              -24.80693871
              25.31075920               -2.14592329               60.38497238                0.14881084                4.61693462                7.30451406              -18.27165248               -0.03804891               24.11899708              -28.06686165
              26.35672790               -3.42368494               59.78079102                0.62767916                4.59687052                8.97784961              -19.64341094                1.41145029                5.09480523              -39.20381761
              17.42143914               10.67953414               62.81654142                0.67992083               -0.31739249               -0.84382140                2.47453786               -0.10003600                0.10757762                6.38971279
              18.41826522                9.42206356               62.10083827                0.12821566               -0.52041150                0.20818523               -0.35937014               -0.30924891                9.31030092               -5.69305076
              19.41103091                8.15701040               61.56938634                0.00010000               -0.86138377                0.79533506                1.18019467               -4.34312290               38.03005227              -12.74576025
              20.40103754                6.81842055               61.43465387                0.00010000               -0.41989560                1.37096501               -1.65123071               -8.28415164               56.62009344              -13.60338561
              21.40263300                5.47519179               61.28553154                0.00010000                0.77031701                1.75771786               -4.54550157               -8.53648012               55.04915592              -14.51163171
              22.41644388                4.13235723               61.12681684                0.00010000                1.96663743                2.25136616               -7.55962381               -8.29209670               53.98313418              -15.55234692
              23.44196575                2.79596663               60.96250313                0.00010000                3.09040139                3.04282637              -10.77517271               -7.36295927               53.31585028              -16.88510576
              24.47825191                1.47427819               60.79554566                0.00010000                4.11644703                4.22416446              -14.26340565               -5.34048304               52.97714422              -18.50944837
              25.52429469                0.17974059               60.62775467                0.03063925                5.04671623                5.85008886              -18.07145498               -1.57579312               52.72066674              -20.17675582
              26.57918623               -1.07092386               60.45500378                0.15573632                5.71477310                7.57081763              -21.48102533                0.67814326               28.80538145              -21.51408253
              27.63859015               -2.33465832               59.79719273                0.63201210                5.94039170                8.80620429              -22.98185213                1.13250399                5.64755425              -32.50784151
              18.67266553               11.67179812               62.66104131                0.67245520               -0.14819790               -0.70607464                2.05884234               -0.09925037                0.11359685                6.38758451
              19.67118355               10.42512551               61.88519706                0.12263415               -0.42277620                0.40649795               -1.06872760               -0.56140568               12.42417176               -5.60713160
              20.66421000                9.16582983               61.35566123                0.00092835               -0.84519549                0.94287413                1.44627391               -4.76480068               46.78664682              -11.36350062
              21.65427964                7.83397322               61.27437063                0.00010000               -0.40308967                1.64111000               -1.76768179               -8.57975377               67.81761702              -11.81156117
              22.65614821                6.49581709               61.17720984                0.00010000                0.76431630                2.20820983               -4.99210512               -8.67010087               66.02479891              -12.36781007
              23.66956597                5.15910457               61.06854891                0.00010000                1.89446379                2.91745923               -8.34333180               -8.08733101               64.67758344              -13.03455467
              24.69403749                3.83156293               60.95172387                0.00010000                3.00939393                3.89091603              -11.95118732               -6.79757106               63.70110736              -13.79155271
              25.72975384                2.52207698               60.82989352                0.00010000                4.20189541                5.11790796              -15.90602670               -4.48134602               63.17872426              -14.53277257
              26.77807540                1.24235114               60.70714088                0.03501852                5.44835636                6.46536269              -20.20573087               -0.69693645               62.76248576              -15.01307907
              27.83872097                0.00549306               60.57713184                0.16325965                6.43857546                7.60007530              -23.41871602                1.05627230               33.94572768              -15.66374271
              28.90684690               -1.24756085               59.86498988                0.63675289                6.81259327                8.64025762              -25.05800842                0.90660095                6.09982177              -26.70339057
              19.91279935               12.66541265               62.50551459                0.66607275                0.02060393               -0.57252022                1.64330861               -0.09873538                0.11753165                6.32141311
              20.91300539               11.43019352               61.66994930                0.11910187               -0.29560821                0.60927591               -1.77676963               -0.88473179               16.24123274               -5.56948372
              21.90688718               10.17586788               61.15685130                0.00221000               -0.67750871                0.97289441                1.86346258               -5.15200052               56.43488346               -9.81280935
              22.89945521                8.85124275               61.13228650                0.00010000               -0.13937751                1.62279958               -1.72167025               -8.54378897               79.34929450               -9.77335730
              23.90409963                7.51935599               61.09019836                0.00010000                0.97481027                2.28393261               -5.20813273               -8.24923955               77.32354573               -9.88501892
              24.91895142                6.19070641               61.03470298                0.00010000                1.94711419                3.21158217               -8.80619006               -7.27956953               75.75430098              -10.10524867
              25.94304192                4.87378495               60.96969933                0.00010000                2.94426775                4.37983224              -12.69582151               -5.76477127               74.65084703              -10.30008472
              26.97783677                3.57663635               60.89959871                0.00010000                4.19489780                5.65090204              -16.98550652               -3.49560293               74.14986755              -10.25997647
              28.02693987                2.30904784               60.82998546                0.03986916                5.61934499                6.77189745              -21.62863264               -0.13347896               73.35015716               -9.78531098
              29.09022367                1.08107765               60.74472091                0.17052435                6.79450660                7.44435939              -24.29137114                1.13786272               39.16210370              -10.26699697
              30.16283001               -0.16185317               59.97760187                0.64122665                7.26063321                8.49011443              -26.10474295                0.65952307                6.42869252              -21.26712390
              21.14112908               13.66034772               62.34919035                0.66109349                0.19046004               -0.44176162                1.22466388               -0.10076546                0.14784864                6.26476639
              22.14303368               12.43731103               61.45464111                0.11835977               -0.05041587                0.81779838               -2.48773872               -1.38008315               20.88393592               -5.65331324
              23.14012077               11.18528772               60.97470087                0.00396966               -0.15589656                0.64826838                2.39576242               -5.60624965               67.15751733               -7.85548622
              24.13991575                9.86642922               61.01149011                0.00010000                0.57894961                1.05561030               -1.51389842               -7.86544918               91.28044951               -7.28471898
              25.15169976                8.54149574               61.02764969                0.00010000                1.48149303                1.95658467               -5.17481982               -6.94570173               88.90306082               -7.02622050
              26.16954561                7.22333621               61.02797161                0.00010000                2.05561841                3.18138327               -8.89521866               -5.68204457               87.08219395               -6.91640166
              27.19281213                5.91915957               61.01798858                0.00010000                2.75166413                4.56768611              -12.92929128               -4.21272479               85.95371679               -6.74566382
              28.22457890                4.63509502               61.00439274                0.00010000                3.90761949                5.96543138              -17.43137885               -2.36137886               85.67533519               -6.19782131
              29.27096452                3.37778909               60.99466821                0.04514773                5.39001701                6.98745384              -22.34027071                0.10633695               84.19401560               -4.88292445
              30.33237924                2.15438025               60.95292139                0.17760012                6.74672391                7.17506691              -24.20603531                0.89295992               44.26496019               -5.08172634
              31.40589899                0.92224143               60.13122870                0.64484706                7.35197584                8.23635864              -26.23525031                0.38393382                6.65217542              -16.01741653
              22.35685741               14.65657742               62.19295866                0.65538687                0.36063084               -0.30809167                0.80715846               -0.10206521               -0.10047311                5.45041181
              23.36046372               13.44654949               61.23715470                0.11825265                0.43932980                1.02619634               -3.21357543               -2.30821198               26.58608996               -5.09075598
              24.36564401               12.18883325               60.81486296                0.00638868                1.27372484               -0.82568303                2.98170042               -4.90278688               79.36333351               -4.88078008
              25.38593822               10.87235495               60.91740732                0.00010000                2.13172976                0.00513024               -1.21547066               -5.47099983              103.52012438               -4.07905462
              26.40827860                9.55848768               60.99321406                0.00010000                2.08542395                1.47061151               -4.90311594               -4.17909048              100.49694632               -3.71432901
              27.42764669                8.25433408               61.05009650                0.00010000                1.93750080                3.02938688               -8.57534771               -3.16272045               98.33885692               -3.54273520
              28.44702862                6.96513867               61.09573251                0.00010000                2.21664924                4.59854209              -12.57244558               -2.17142307               97.15926972               -3.32958964
              29.47197968                5.69594498               61.13953113                0.00010000                3.13763825                6.10475587              -17.11878290               -1.09624229               97.31740771               -2.80439385
              30.50978138                4.44879692               61.19473769                0.05105715                4.58254246                7.26445476              -22.27602955                0.10485990               95.39743281               -1.39164243
              31.56363053                3.22457899               61.20060784                0.18416704                6.25024680                6.83622051              -23.16652372                0.34534287               49.33701147               -0.71287875
              32.63478632                2.00287401               60.32296648                0.64736249                7.11557897                7.75253847              -25.40680478                0.03331224                6.48998132              -10.00598056
              23.55914364               15.65418588               62.02071487                0.82644574                0.54699729               -0.23915361                0.30627792                0.59353053                2.46725171                4.63495061
              24.56461361               14.45783496               61.03238278                0.56049809                2.85579600                1.12854698               -3.87671276               -3.85560155               34.85662364               -4.41222405
              25.61625956               13.16877406               60.69150552                0.46814501                4.81138538               -2.00591870                3.26780155               -4.50360138               92.86168210               -3.07098423
              26.66084132               11.86653182               60.85812076                0.44345750                3.49396328               -0.58231338               -0.98071062               -2.40299414              115.31489717               -2.00945373
              27.68613883               10.57090797               60.99092621                0.43706546                1.93994458                1.24202843               -4.43189515               -1.34437096              111.62435279               -1.74087545
              28.69964021                9.28392395               61.10247448                0.44188513                1.08169702                2.95898755               -7.83380515               -0.78952592              109.12455995               -1.58245101
              29.70777277                8.01113041               61.20128715                0.45744818                0.96777958                4.59917383              -11.56333250               -0.26227584              107.67475456               -1.40521921
              30.71899580                6.75719014               61.29768514                0.48461264                1.83274682                6.12451624              -15.88450423                0.29900108              107.78534932               -1.02129702
              31.74442770                5.52307818               61.40868791                0.52753981                3.31066011                7.42812646              -21.00741086                0.16035826              105.98459637                0.06025130
              32.78520901                4.29110466               61.47113499                0.59402166                5.27737475                6.65256756              -21.26237448               -0.13145129               56.26418868                1.71652783
              33.84997520                3.07729220               60.56921003                0.82414700                6.47661914                7.44181964              -23.52549804                0.13764209                9.27836348               -5.98150695
              11.43377402                5.96486075               64.66954288                0.93604040               -1.28163467               -1.43941044                4.88627374               -0.35550408               -3.70821541                4.19602415
              12.42095767                4.59914335               64.20951404                0.69912327               -1.20792956               -0.85301680                3.32822010               -0.34543619               -5.23628997               -2.96139512
              13.40961543                3.22824968               63.71969267                0.53737683               -1.10359578               -0.45962952                1.62813952               -0.45467301               -5.35527927               -0.70035601
              14.39888576                1.84353079               63.25808175                0.47453731               -0.89351370               -0.01831585                0.02200218               -0.42950148               -3.14433155               -0.48724119
              15.39174515                0.44141680               62.81257737                0.45028323               -0.38556248                0.43063926               -1.63759003               -0.34638190               -1.64365403               -0.30077575
              16.39117451               -0.97626191               62.38034095                0.45442814                0.38049861                0.88883728               -3.33824814               -0.24884329               -0.72392527               -0.07488325
              17.39935513               -2.40262733               61.95204791                0.48711988                1.24849550                1.34363490               -5.03969084               -0.20391506               -0.86282522                0.15492010
              18.41614442               -3.82907192               61.51565338                0.55500353                2.01957592                1.78125312               -6.69286238               -0.21228409               -1.96534725                0.36547868
              19.43974664               -5.24930706               61.06385445                0.67599068                2.61598697                2.21013563               -8.31259015               -0.22523721               -3.69313337                0.44302856
              20.46846416               -6.66055773               60.59128328                0.88706310                3.07972296                2.63421290               -9.95133112               -0.23577818               -4.28236325                1.11429950
              21.50134110               -8.06310533               60.12580883                1.00000000                3.28769467                3.12896131              -11.55209198               -0.64066718               -3.81736432               -2.97794831
              12.79593638                6.95046665               64.48215006                0.79117625               -1.01275370               -1.43609283                4.28728170               -0.17254941                2.23596229                5.74456847
              13.78580884                5.59061318               64.01612022                0.28589311               -0.65307027               -0.67400257                2.72935447               -0.32155161                5.44276303               -5.34590933
              14.78287498                4.22365339               63.61480035                0.02586069                0.10991698                0.18971078                1.51859101               -1.32258927                9.08056332               -9.09354323
              15.78800718                2.84334763               63.22144045                0.01393523                0.76513539               -0.62537501                0.20075127               -2.60074822               10.25978083               -9.31384147
              16.79817768                1.44572319               62.84370056                0.01668795                1.13504776               -0.67507330               -1.12114877               -3.50135795               11.68756756               -9.93834519
              17.81070814                0.03262646               62.47905892                0.02225736                1.27716485               -0.38684363               -2.48057164               -3.87380522               12.50307053              -11.01940603
              18.82372098               -1.38919099               62.11776925                0.03067338                1.33266499                0.12004746               -3.83674963               -3.59521023               12.24366933              -11.99051200
              19.83736144               -2.81125939               61.74772550                0.04657729                1.47580975                0.75108351               -5.14100054               -2.70659560               10.99434342              -11.80541415
              20.85323718               -4.22720571               61.36068451                0.18311663                1.78220346                1.67871461               -6.41250433               -1.30628395                9.45666710               -6.12396890
              21.87300551               -5.63421560               60.95864843                0.43005019                2.21224275                2.30000244               -7.69489599               -0.42608994                6.74898814                2.84109101
              22.89748203               -7.03181572               60.51590803                0.82026541                2.44765223                3.20196817               -9.10859833               -0.67993145                4.80524261               -6.41743725
              14.15002996                7.93613890               64.32660281                0.70813312               -0.86900654               -1.35259579                3.89091993               -0.12687526                0.23324888                6.91535499
              15.14133990                6.58566330               63.77548492                0.16017600               -0.98003874               -0.37780274                1.85421737               -0.11805170                6.10452320               -7.11596109
              16.13042919                5.23204390               63.34232480                0.00327184               -0.82694550                0.79298100                0.87452871               -3.03474755               16.86251167              -18.27172149
              17.12480099                3.83102329               63.00819597                0.00010000                0.10049860               -0.62782668               -0.45098582               -6.31212855               22.01968945              -18.12641867
              18.13243916                2.42791533               62.68172438                0.00010000                1.19057938               -1.15516280               -2.21500462               -7.22470000               22.41604250              -19.57059900
              19.14861258                1.01600122               62.35824890                0.00010000                1.94488061               -1.05983889               -4.06112436               -7.74189913               22.70609002              -21.80004652
              20.17133677               -0.40022639               62.03963026                0.00010000                2.57073236               -0.53757460               -5.97822342               -7.19074864               23.59095905              -24.00579356
              21.20002722               -1.81405025               61.73511261                0.00010000                3.26202005                0.33739253               -7.96052356               -5.34478032               29.00899137              -24.91331739
              22.23657718               -3.21573277               61.52459860                0.01444989                3.22625723                1.65945746              -10.65007653               -3.17170761               36.15647329              -23.83536208
              23.26455237               -4.61455768               61.35867529                0.12836203                2.31827649                3.93610033               -6.31759073               -1.21711338               20.77172099              -21.72569843
              24.28294271               -5.99906597               60.83506803                0.61307553                1.83903363                6.02441131               -7.82215389               -0.24585405                3.07551474              -33.69085428
              15.49435007                8.92341473               64.16369549                0.68824179               -0.68072660               -1.18816576                3.43011058               -0.10715020                0.10005329                6.56402832
              16.48754281                7.58305713               63.54670416                0.13565999               -0.87650210               -0.16796282                1.10417162               -0.08362701                6.28406034               -6.36464142
              17.47682003                6.23951301               63.05380201                0.00010000               -1.08248136                0.59605342                1.44437153               -3.48625233               24.07837590              -17.06259604
              18.46589318                4.83079110               62.79750842                0.00010000               -0.40571381                0.33194150               -0.92725667               -7.10261909               34.68427284              -17.45230372
              19.46870576                3.42261993               62.52198895                0.00010000                0.90593463                0.05103881               -3.18048180               -7.62264289               33.34178294              -18.96324167
              20.48401187                2.01142969               62.24324529                0.00010000                2.06258608                0.19212308               -5.53616390               -7.94796937               33.14434177              -21.00983483
              21.50995748                0.60005752               61.96739742                0.00010000                3.09801717                0.73722724               -8.02116703               -7.50213865               33.97221747              -23.38070547
              22.54597222               -0.80451154               61.70791446                0.00010000                4.01764883                1.71570614              -10.68292247               -6.04231818               35.75022685              -26.32723230
              23.59031045               -2.19401656               61.46843212                0.01509220                4.30121108                3.20261378              -12.87177557               -3.47420679               37.04761480              -33.80844586
              24.63199644               -3.55549359               61.23227738                0.13175115                3.56355332                6.81289104              -15.57180204               -0.61218408               21.65218528              -43.67325712
              25.66158152               -4.91132749               60.67610645                0.61658865                2.95850820                9.27542302              -16.35869639                1.50938722                6.29852876              -54.41745942
              16.82860217                9.91237558               64.00205282                0.67843335               -0.50330903               -1.02652994                2.99170264               -0.10393379                0.10696982                6.65197223
              17.82356908                8.58230404               63.32105341                0.12497216               -0.78160018                0.02269124                0.35719414               -0.34056658                8.61091486               -6.11563258
              18.81297017                7.24396497               62.81043707                0.00010000               -1.19637012                0.52475216                1.61549380               -4.15802667               31.76580547              -14.09626378
              19.79964168                5.83766212               62.59880926                0.00010000               -0.68112270                0.93401157               -1.22663769               -7.88073033               45.61313495              -15.95790813
              20.79934772                4.42893611               62.37273184                0.00010000                0.62869596                1.09128133               -4.00535264               -8.25991553               44.18743702              -17.60605149
              21.81221560                3.01984368               62.13811954                0.00010000                1.89437551                1.43979382               -6.85435794               -8.32121562               43.39740241              -19.60757696
              22.83723523                1.61451816               61.90118260                0.00010000                3.05196690                2.15186284               -9.89554723               -7.73950541               43.14420809              -22.11020101
              23.87325494                0.22026387               61.66571667                0.00010000                4.04199338                3.30596848              -13.16068618               -6.15395184               43.13676257              -25.67230686
              24.91807509               -1.15168049               61.43114457                0.01893337                4.81823416                5.14910228              -16.83366091               -2.67707248               42.82137870              -30.37892519
              25.96961962               -2.47829986               61.18797902                0.13705325                5.33615737                7.98347160              -21.10504536                0.11888539               24.18591930              -35.15466255
              27.02479824               -3.81355751               60.57021463                0.61994108                5.51786198                9.73294902              -22.52797262                1.75360580                6.40034224              -46.88498632
              18.15241448               10.90288413               63.84170659                0.66984779               -0.32723882               -0.87574434                2.55960142               -0.10205725                0.11354901                6.71479173
              19.14914209                9.58351095               63.09714175                0.11737143               -0.70565296                0.22070387               -0.37919503               -0.63350281               11.70773775               -5.96605306
              20.13830142                8.25000805               62.58466396                0.00022038               -1.29173282                0.71473884                1.81344425               -4.70906956               40.30177674              -12.55841328
              21.12330743                6.84947133               62.41922586                0.00010000               -0.84877667                1.38428725               -1.47533584               -8.38592804               56.49534273              -14.11088702
              22.12132589                5.44444556               62.23949968                0.00010000                0.43490376                1.88128023               -4.67055129               -8.66541482               54.91653304              -15.70292115
              23.13200551                4.04022556               62.04914173                0.00010000                1.67106459                2.50010126               -7.96120990               -8.43030685               53.68396371              -17.47771213
              24.15474718                2.64309478               61.85093251                0.00010000                2.85431622                3.43119722              -11.50839395               -7.49470538               52.70496198              -19.64694247
              25.18909183                1.26160783               61.64671842                0.00010000                4.02927797                4.76906989              -15.46730320               -5.41768576               51.93621964              -22.28415167
              26.23533274               -0.09103451               61.43728249                0.02279718                5.35796627                6.56464825              -20.01516462               -1.42380238               51.41404320              -25.12487743
              27.29625116               -1.39582416               61.22242641                0.14361504                6.59180953                8.41873057              -25.00616485                0.95345778               28.84207639              -27.28702349
              28.36716893               -2.71666851               60.54975627                0.62429370                7.09177688                9.68444493              -26.55692240                1.46259659                7.11984064              -38.66545128
              19.46530739               11.89486069               63.68200921                0.66282270               -0.15322848               -0.73243588                2.13455182               -0.10146187                0.11803866                6.71684091
              20.46377511               10.58671812               62.87428438                0.11216652               -0.62394975                0.42372715               -1.11235510               -0.94323095               15.48129327               -5.87880393
              21.45282840                9.25825974               62.37392726                0.00124160               -1.31447495                0.90634621                2.09370019               -5.13071458               49.68431041              -11.04647878
              22.43748561                7.86534786               62.25780550                0.00010000               -0.87716062                1.69199542               -1.61020208               -8.55736220               67.66788072              -12.18221137
              23.43528519                6.46656171               62.12661543                0.00010000                0.37373167                2.38021172               -5.14577132               -8.64818068               65.90378629              -13.36179887
              24.44496024                5.06984570               61.98281072                0.00010000                1.53368320                3.23497509               -8.79202219               -8.05503931               64.35143766              -14.68891075
              25.46595885                3.68314210               61.82797815                0.00010000                2.70351343                4.37761026              -12.76567470               -6.73225331               62.98249822              -16.20489378
              26.49903051                2.31564527               61.66395796                0.00010000                4.05360938                5.79885857              -17.24998158               -4.33630479               61.95428024              -17.83289902
              27.54703104                0.97961247               61.49422852                0.02690328                5.76461322                7.34445270              -22.38411063               -0.33409567               61.51969568              -19.28608353
              28.61432278               -0.30992525               61.32248227                0.15080831                7.43539150                8.63034087              -27.57682249                1.44003628               34.25077117              -20.30413212
              29.69573887               -1.61986861               60.59432307                0.62917503                8.14160916                9.70610994              -29.24316575                1.22746042                7.78114654              -31.74788343
              20.76667039               12.88823542               63.52227967                0.65650801                0.02080287               -0.59524872                1.70852354               -0.10235277                0.12248140                6.64932551
              21.76687842               11.59198549               62.65183273                0.10926929               -0.48065060                0.63320616               -1.84450023               -1.30777842               20.01321251               -5.84316240
              22.75705738               10.26813497               62.17919932                0.00261467               -1.15100997                0.98075863                2.43421129               -5.48376759               60.05047262               -9.35943442
              23.74385822                8.88331124               62.11613359                0.00010000               -0.65964740                1.71134582               -1.59768891               -8.39590192               79.24942544               -9.97266886
              24.74386443                7.49204979               62.03737755                0.00010000                0.52330546                2.50188031               -5.38509587               -8.08209661               77.31248441              -10.63301633
              25.75432433                6.10492506               61.94423094                0.00010000                1.52190573                3.58234943               -9.27878942               -7.09185159               75.51648024              -11.41531972
              26.77430255                4.73064698               61.83831497                0.00010000                2.57855198                4.92736675              -13.55024025               -5.51523470               73.95629823              -12.25363029
              27.80589537                3.37758500               61.72253099                0.00010000                3.99593976                6.41686373              -18.40364362               -3.13087072               72.89554224              -12.97351810
              28.85422134                2.05585454               61.60240301                0.03133276                5.93187965                7.77739559              -23.93212953                0.42616511               72.42664230              -13.33138029
              29.92453296                0.77678265               61.47930005                0.15813371                7.86917553                8.61507361              -28.91978284                1.59985762               39.89260295              -13.81915613
              31.01160485               -0.52254631               60.69457991                0.63380404                8.70718896                9.74526928              -30.71294634                0.92897623                8.28228765              -25.26385130
              22.05576018               13.88295572               63.36171990                0.65177705                0.19597982               -0.46185808                1.27943272               -0.10417715                0.15402683                6.59152683
              23.05771998               12.59938224               62.42928632                0.10859706               -0.19664405                0.84961548               -2.58027940               -1.82550170               25.41864652               -5.93660225
              24.05182730               11.27787492               62.00203730                0.00437028               -0.60336148                0.70244988                2.83549787               -5.86449196               71.57760257               -7.28438639
              25.04565275                9.89957478               61.99727923                0.00010000                0.01010630                1.19119322               -1.44103846               -7.59736712               91.32306506               -7.31993555
              26.05202943                8.51659932               61.97516450                0.00010000                0.94366350                2.23496008               -5.35956598               -6.68350232               89.12540608               -7.50161064
              27.06452602                7.14149269               61.93667345                0.00010000                1.54823954                3.59260674               -9.35829674               -5.41570607               87.08141807               -7.81847723
              28.08299422                5.78168944               61.88435957                0.00010000                2.33397584                5.13332171              -13.76841901               -3.86576776               85.43355105               -8.13256868
              29.11120554                4.44398254               61.82299139                0.00010000                3.66812339                6.73581885              -18.83217240               -1.84973551               84.51452970               -8.18386094
              30.15635669                3.13516038               61.76028871                0.03585116                5.67576228                8.04866718              -24.62097844                0.82078068               83.78152430               -7.60713631
              31.22472079                1.86237622               61.68744335                0.16495277                7.83098193                8.45225493              -29.07625076                1.37354970               45.53687547               -7.48746506
              32.31297633                0.57503678               60.84604530                0.63770015                8.82555412                9.64546934              -31.04753586                0.55698141                8.62061250              -18.87649262
              23.33173380               14.87899825               63.20126048                0.64614113                0.37153844               -0.32492804                0.85158809               -0.10523192               -0.10726065                5.73531263
              24.33544919               13.60897780               62.20441892                0.10873359                0.39205976                1.06539599               -3.33138546               -2.75997243               31.90154374               -5.35033499
              25.33957500               12.28218397               61.84753711                0.00658922                0.88686436               -0.75314710                3.23414408               -4.96846581               84.66091132               -4.34455078
              26.35318648               10.90713510               61.90601828                0.00010000                1.43507364                0.26737314               -1.18627503               -5.18505379              103.80247799               -4.02574500
              27.36827647                9.53674900               61.94355055                0.00010000                1.38668057                1.82055941               -5.07241384               -3.94493195              101.13216797               -3.93309730
              28.38092009                8.17677720               61.96226383                0.00010000                1.31104339                3.47425559               -8.98719785               -2.95980949               98.78017732               -3.99777587
              29.39449734                6.83331342               61.96609767                0.00010000                1.72548136                5.15691002              -13.32776925               -1.90449600               97.02705698               -4.05115258
              30.41542971                5.51230138               61.96192112                0.00010000                2.88729676                6.81194033              -18.39157914               -0.65115951               96.38940956               -3.87388442
              31.45224328                4.21682789               61.96220906                0.04125631                4.83489232                8.20907398              -24.33363653                0.75750685               95.62293398               -2.99565346
              32.51212756                2.94582775               61.94590635                0.17094885                7.25900472                8.18530505              -28.02236949                0.82977781               51.23441351               -1.95056237
              33.59742337                1.67036308               61.04652188                0.64020213                8.52958090                9.18300597              -30.18845490                0.09139430                8.54738496              -11.56946793
              24.59369645               15.87645716               63.02393844                0.82193872                0.56383674               -0.25410959                0.33658870                0.61956462                2.59858410                4.87842008
              25.59933482               14.62069016               61.99290507                0.55584486                3.03021196                1.17123579               -4.01782881               -4.29369655               40.85176672               -4.64155787
              26.65430069               13.26281197               61.72660189                0.46694702                4.40259187               -1.93719983                3.38108315               -4.31582707               98.88361556               -2.50335790
              27.68738665               11.90492224               61.84896869                0.44318941                2.45940033               -0.22128583               -0.96869919               -2.07005572              116.10710952               -1.93394010
              28.70348869               10.55301051               61.94615740                0.43721115                1.06893788                1.62615100               -4.56469633               -1.17599981              112.94968278               -1.82687826
              29.70876541                9.21097781               62.02252421                0.44163852                0.29457132                3.42006066               -8.15123048               -0.62461106              110.28009258               -1.80007649
              30.70938012                7.88482764               62.08253814                0.45646702                0.29512351                5.15142206              -12.15682303               -0.04954476              108.24004524               -1.75810968
              31.71466788                6.58022135               62.13362514                0.48231761                1.43001647                6.79199722              -16.90702040                0.64952776              107.43977165               -1.54799791
              32.73798045                5.29934186               62.19076704                0.52248144                3.65566362                8.25139753              -22.66987529                0.86676606              106.90640365               -0.78739921
              33.78778115                4.02608232               62.23727687                0.58713573                6.38765593                8.02545705              -25.72994257                0.53311095               58.67841775                1.13746215
              34.86573357                2.75869690               61.31350548                0.82040230                7.79524152                8.83338222              -27.88099315                0.09247717               11.54033807               -6.76554819
              11.86372193                6.19803283               65.71913065                0.93035196               -1.32049792               -1.48287320                5.03288304               -0.36845708               -3.86830516                4.36429295
              12.85051695                4.76518557               65.24326632                0.69142941               -1.24843389               -0.87565550                3.42241471               -0.36559158               -5.46819576               -3.10937881
              13.83875326                3.32681277               64.73617925                0.53387835               -1.12809750               -0.47329588                1.66877578               -0.45593924               -5.61452439               -0.67367622
              14.82795500                1.87436183               64.25823234                0.47332325               -0.88245930               -0.01471411                0.01007769               -0.42703488               -3.38724398               -0.49304708
              15.82110407                0.40468357               63.79587912                0.45027611               -0.34306480                0.44826769               -1.69972401               -0.34663949               -1.93906034               -0.30298006
              16.82109371               -1.08004259               63.34638559                0.45484437                0.44252405                0.92026011               -3.44981023               -0.25428032               -1.04739395               -0.07765942
              17.82995455               -2.57285023               62.90079680                0.48695168                1.31906636                1.39068340               -5.20414948               -0.21219617               -1.16736878                0.15004012
              18.84747504               -4.06528275               62.44757746                0.55341013                2.09670026                1.84501301               -6.91449736               -0.21878001               -2.22848126                0.36307446
              19.87188856               -5.55122189               61.97931753                0.67184889                2.70309651                2.28838187               -8.58684658               -0.23100624               -3.94746261                0.44545702
              20.90153697               -7.02801551               61.49009922                0.87800229                3.18015360                2.72732835              -10.27782383               -0.24266315               -4.53005522                1.12982905
              21.93549163               -8.49596410               61.00835255                1.00000000                3.39546621                3.23591858              -11.93122960               -0.65504973               -4.05179222               -3.12452486
              13.29288462                7.18320410               65.52566014                0.78018936               -1.04135546               -1.48469914                4.41495718               -0.18382666                2.39291797                6.01735870
              14.28247107                5.75642902               65.04379916                0.27233158               -0.66394438               -0.68546472                2.80594095               -0.35040381                5.77566534               -5.63428155
              15.27960573                4.32207982               64.63015829                0.02646310                0.11390959                0.18356244                1.55037824               -1.41716881                9.53736818               -9.31270801
              16.28474926                2.87421469               64.22339689                0.01482005                0.76170755               -0.69168521                0.18998412               -2.76934409               10.66278456               -9.71881209
              17.29483989                1.40916624               63.83220553                0.01763644                1.12842725               -0.71828032               -1.17827017               -3.71642281               12.07278003              -10.74853521
              18.30731780               -0.07083999               63.45375664                0.02347366                1.28063910               -0.42462957               -2.58292050               -4.11195053               12.87101819              -12.26352216
              19.32045267               -1.55894340               63.07864257                0.03248980                1.35776310                0.07717448               -3.98788246               -3.84778043               12.63805687              -13.71334847
              20.33447307               -3.04683262               62.69530839                0.04930237                1.52461031                0.69837921               -5.34364819               -2.95617881               11.43245853              -14.08103417
              21.35094487               -4.52833807               62.29533980                0.17595589                1.85041850                1.65699157               -6.65969888               -1.47448378                9.90517014               -9.39529032
              22.37148144               -6.00074222               61.88026334                0.41461175                2.29724228                2.40975255               -7.98658206               -0.47859045                7.12610802                2.29628329
              23.39688972               -7.46360491               61.42315658                0.80903756                2.54082831                3.34392372               -9.44695295               -0.66476738                5.11867634               -7.22192692
              14.71359556                8.16833885               65.36611940                0.69772002               -0.89624023               -1.40314348                4.01028169               -0.13061608                0.21703572                7.25836122
              15.70463316                6.75147628               64.79428187                0.14799992               -1.04856785               -0.37625250                1.90549576               -0.16695801                6.64958394               -7.48069391
              16.69262421                5.33048402               64.35162039                0.00243071               -0.95757342                0.62828484                0.99874437               -3.33673615               17.75506265              -18.10491605
              17.68548169                3.86052813               64.00397590                0.00010000               -0.03969577               -0.73105067               -0.39880825               -6.72142448               22.51698078              -18.89436864
              18.69183029                2.39031796               63.65927160                0.00010000                1.07413223               -1.23043474               -2.27456777               -7.63575841               22.65693334              -21.15374176
              19.70696434                0.91146482               63.31676441                0.00010000                1.85806387               -1.11827485               -4.22812498               -8.21264542               22.86679092              -24.25251274
              20.72899157               -0.57130674               62.97828567                0.00010000                2.53908986               -0.59985827               -6.27673218               -7.70219092               23.64785201              -27.41667487
              21.75774614               -2.05131516               62.65289665                0.00010000                3.36584586                0.26682335               -8.45475465               -5.83120367               28.57178116              -29.43783058
              22.79630849               -3.51808206               62.41298837                0.00749226                3.47429286                1.62294870              -11.57869155               -3.47106590               38.95310888              -29.33613246
              23.82723199               -4.97982046               62.29191482                0.11648118                2.58065829                4.04796096               -7.16917126               -1.31013590               24.35126064              -28.37635267
              24.84792165               -6.42908562               61.75390295                0.60501970                2.06896597                6.29469074               -8.49008319               -0.11348892                3.78756193              -40.34730831
              16.12399744                9.15514123               65.19853390                0.67815670               -0.70107088               -1.23179777                3.53567643               -0.11033992                0.10340107                6.88338675
              17.11698673                7.74890397               64.55788129                0.12438593               -1.00891393               -0.16323525                1.13250819               -0.32250263                7.74721281               -6.66191996
              18.10381916                6.33464551               64.07050712                0.00010000               -1.32499506                0.33259407                1.85031167               -3.84723934               25.44812984              -16.60893762
              19.09048683                4.85959368               63.78877854                0.00010000               -0.63155689                0.25750987               -0.83539324               -7.37288279               34.67333084              -18.08660388
              20.09118803                3.38455755               63.48980693                0.00010000                0.71013828                0.03565022               -3.25966620               -7.96882513               33.41141362              -20.44873412
              21.10468960                1.90679451               63.18662341                0.00010000                1.90004022                0.22822239               -5.77636419               -8.33912115               33.09771937              -23.35786063
              22.12918883                0.42905944               62.88484774                0.00010000                2.99673574                0.81370141               -8.46195448               -7.93887823               33.72352817              -26.68560828
              23.16462431               -1.04149615               62.59713593                0.00010000                4.04200094                1.83293783              -11.42599717               -6.47869644               35.57119792              -30.71567391
              24.21002885               -2.49587910               62.33375142                0.00787206                4.58289832                3.35012729              -14.02244745               -3.80204520               36.64736660              -39.15280035
              25.25628228               -3.91978300               62.06597431                0.12029313                4.15607113                7.03274453              -17.60142333               -0.68282338               22.09004038              -54.18107024
              26.29315027               -5.33771109               61.50238778                0.60910842                3.68679926                9.70255705              -18.39101455                1.82428425                8.09421728              -65.34123181
              17.52386329               10.14370289               65.03243820                0.66835722               -0.51844638               -1.06338194                3.08466042               -0.10701348                0.11077411                6.98705059
              18.51867883                8.74821157               64.32465363                0.11411848               -0.94367895                0.03037805                0.36406919               -0.70455613               10.71574292               -6.40554786
              19.50498971                7.33713590               63.82927426                0.00010000               -1.52834133                0.38532172                2.05680010               -4.56850400               33.69001083              -13.92327117
              20.48811200                5.86567832               63.58729112                0.00010000               -0.98683802                0.88064468               -1.12041865               -8.02415485               45.42801730              -16.52859225
              21.48525295                4.39103096               63.33217125                0.00010000                0.37840128                1.13461163               -4.11800379               -8.48946486               44.09314100              -18.97428456
              22.49568003                2.91602927               63.06795378                0.00010000                1.66258582                1.56586453               -7.16550885               -8.60314716               43.18352894              -21.80355850
              23.51850467                1.44496729               62.79924008                0.00010000                2.87153588                2.35863958              -10.45784247               -8.06931030               42.67785397              -25.24084319
              24.55311074               -0.01465641               62.52918671                0.00010000                4.00248845                3.59250045              -14.08930875               -6.50223990               42.25231284              -29.91361845
              25.59855444               -1.45107951               62.25477364                0.01156142                5.11483882                5.50190918              -18.35871937               -2.88352188               41.22254569              -36.38287982
              26.65540752               -2.83916557               61.96287147                0.12457263                6.08545407                8.43077121              -23.74360519                0.16583714               23.83144303              -43.15266776
              27.72026352               -4.23503448               61.33023157                0.61156832                6.48559981               10.28176542              -25.40347314                2.07195706                7.75237331              -55.72067164
              18.91283981               11.13387359               64.86773344                0.66019838               -0.33772131               -0.90705184                2.64458516               -0.10557360                0.11752898                7.05794381
              19.90946260                9.74951153               64.09325437                0.10650859               -0.89287401                0.23234399               -0.39636519               -1.06545548               14.45113888               -6.25029575
              20.89498233                8.34235195               63.60565523                0.00032029               -1.66769628                0.66144989                2.22555036               -5.14597869               42.82319058              -12.34732759
              21.87610867                6.87720657               63.40514715                0.00010000               -1.19672734                1.38714700               -1.40604978               -8.41325396               56.23900380              -14.63172621
              22.87104779                5.40724978               63.19212052                0.00010000                0.12908290                1.98361364               -4.82581077               -8.75645012               54.76706004              -16.92366523
              23.87869033                3.93811180               62.96759264                0.00010000                1.37202552                2.71039430               -8.33590752               -8.57327922               53.37370453              -19.46605579
              24.89848830                2.47623223               62.73233526                0.00010000                2.59679919                3.75576480              -12.17051035               -7.68612024               52.01434932              -22.52670971
              25.93062632                1.03035386               62.48619960                0.00010000                3.91896370                5.21314188              -16.56940078               -5.62974070               50.63299435              -26.27982178
              26.97686757               -0.38584092               62.22745137                0.01512789                5.64638355                7.12942337              -21.84718537               -1.50654362               49.32222253              -30.48375891
              28.04355399               -1.75116758               61.95488049                0.13079319                7.47298361                9.08511736              -28.34189042                1.09997269               28.37057901              -34.05733916
              29.12632724               -3.13207579               61.26605428                0.61563650                8.27732554               10.38461567              -30.16179369                1.83541469                8.69668326              -45.93194078
              20.29047595               12.12556186               64.70373234                0.65332668               -0.15845823               -0.75925619                2.20677219               -0.10518751                0.12114098                7.06180852
              21.28889136               10.75285845               63.86294996                0.10184088               -0.80504236                0.44084035               -1.15104827               -1.41547811               18.88429658               -6.16074926
              22.27437510                9.35036490               63.39753523                0.00136880               -1.69711379                0.91086026                2.40685532               -5.54118754               52.86124026              -10.76955289
              23.25494909                7.89342126               63.24216659                0.00010000               -1.25781913                1.75545354               -1.60499112               -8.47524252               67.41934676              -12.57177876
              24.24921872                6.43070324               63.07429441                0.00010000                0.01414539                2.54484018               -5.34882174               -8.59899598               65.79817963              -14.38441231
              25.25523199                4.97023715               62.89270847                0.00010000                1.16607467                3.52127427               -9.21781829               -8.04836919               64.03764488              -16.40090537
              26.27254021                3.52008258               62.69641037                0.00010000                2.36785406                4.80493482              -13.50540444               -6.76255940               62.19322945              -18.73355028
              27.30258908                2.08960643               62.48489389                0.00010000                3.87023977                6.38893519              -18.49107603               -4.37701808               60.45187648              -21.35245131
              28.34994500                0.69150895               62.25945867                0.01907057                6.05263847                8.11004841              -24.48829650               -0.26167765               59.27821025              -23.96298424
              29.42364185               -0.65746322               62.02559539                0.13800765                8.44216105                9.54505144              -31.60369478                1.67468632               33.87596101              -25.93558939
              30.51878823               -2.02734217               61.28012656                0.62065242                9.51463800               10.66116825              -33.52039213                1.59154457                9.60421824              -37.83125829
              21.65614287               13.11868847               64.53968506                0.64730352                0.02071220               -0.61822048                1.77065401               -0.10597161                0.12701484                6.99179262
              22.65634999               11.75832834               63.63305930                0.09918190               -0.62735494                0.65671688               -1.90693733               -1.79607324               24.08186134               -6.12679811
              23.64359577               10.36056915               63.20553552                0.00269241               -1.50422520                1.04486502                2.58137611               -5.83539432               63.92595782               -9.00380408
              24.62626549                8.91231564               63.10033273                0.00010000               -1.06718967                1.83622767               -1.67780167               -8.20609022               79.11737004              -10.19677109
              25.62225198                7.45814659               62.98249644                0.00010000                0.10390577                2.72936457               -5.63085605               -7.90917025               77.35884882              -11.40157405
              26.62834360                6.00853729               62.84912719                0.00010000                1.08079255                3.93483132               -9.73540362               -6.95343739               75.32349322              -12.77357186
              27.64386783                4.57233093               62.69869452                0.00010000                2.16579907                5.43214574              -14.33306204               -5.38898634               73.21081675              -14.31282286
              28.67165958                3.15813256               62.53152584                0.00010000                3.74179188                7.12106223              -19.73265555               -2.98097991               71.35738740              -15.88888303
              29.71870367                1.77636005               62.35134287                0.02294083                6.21196241                8.71656779              -26.22918331                0.68994623               70.33658011              -17.24525251
              30.79589883                0.43973345               62.16632525                0.14497124                8.96061823                9.77439317              -33.55912532                1.92529160               39.84113613              -18.25496730
              31.89791603               -0.91885242               61.36334294                0.62548209               10.20171982               11.00558871              -35.54672135                1.25736819               10.39204891              -30.15705853
              23.00907678               14.11319745               64.37477900                0.64261757                0.20124367               -0.48116692                1.32997280               -0.10784364                0.16027902                6.93416216
              24.01108921               12.76599279               63.40303552                0.09879289               -0.26984350                0.87978526               -2.66598263               -2.30336383               30.17121884               -6.23197911
              25.00367991               11.37126220               63.03141082                0.00426012               -0.89196823                0.84042443                2.73878024               -6.10899358               76.24442048               -6.86432410
              25.99324985                9.93014582               62.98266934                0.00010000               -0.44331229                1.39174761               -1.61175936               -7.31314123               91.42765955               -7.37578370
              26.99481366                8.48529053               62.92045837                0.00010000                0.43645288                2.53431272               -5.63132027               -6.43938024               89.46518602               -7.98473086
              28.00197891                7.04893378               62.84080567                0.00010000                1.01757739                3.99952550               -9.81432928               -5.21027597               87.17300630               -8.75301152
              29.01516521                5.62872550               62.74262020                0.00010000                1.84807224                5.68030616              -14.54430703               -3.64307309               84.90706514               -9.60217650
              30.03894035                4.23202768               62.62774929                0.00010000                3.34889171                7.48504855              -20.16615295               -1.54441466               83.10358472              -10.33047018
              31.08214304                2.86584031               62.50224864                0.02713313                5.92098998                9.10227329              -26.97026515                1.27740654               82.09627987              -10.59522110
              32.15736015                1.53802465               62.37139638                0.15173977                8.94821430                9.80003846              -34.14362476                1.75182224               45.96518404              -10.62828405
              33.26110733                0.19276961               61.51027798                0.62950622               10.37471780               11.14384484              -36.23754886                0.80384219               10.98632745              -22.51121000
              24.34839531               15.10906513               64.20999042                0.63719201                0.38226495               -0.33995444                0.89149796               -0.10884423               -0.11526667                6.03513668
              25.35221796               13.77592404               63.17052699                0.09879950                0.44337813                1.10193588               -3.44231982               -3.18956028               37.31929934               -5.62323953
              26.35726287               12.37737764               62.87954584                0.00609505                0.68781884               -0.53424298                2.84008618               -5.07925544               90.15843075               -3.95838220
              27.36597434               10.94015059               62.89368182                0.00010000                0.87067693                0.59031891               -1.42508944               -4.91833238              104.28444740               -3.97080339
              28.37467641                9.50883284               62.89176578                0.00010000                0.73643894                2.19330852               -5.34090334               -3.74297443              101.95984279               -4.14977857
              29.38070312                8.08852780               62.87035255                0.00010000                0.66180289                3.92339431               -9.40063026               -2.80066885               99.38999059               -4.46589083
              30.38791247                6.68593705               62.82917712                0.00010000                1.14766828                5.71808908              -14.02960175               -1.71933672               96.97815228               -4.81725880
              31.40365648                5.30783353               62.77169954                0.00010000                2.51711793                7.53972292              -19.61918299               -0.34547712               95.33334229               -5.03370111
              32.43825483                3.95840552               62.70806496                0.03192056                5.01747489                9.21869686              -26.51868784                1.23308448               94.55860538               -4.72799990
              33.50400598                2.63573422               62.64016046                0.15722992                8.31240615                9.65441143              -33.21495831                1.21488668               52.25964903               -3.63169243
              34.60450295                1.30402448               61.71919738                0.63222222               10.04969722               10.76222244              -35.47370386                0.18989632               11.12092560              -13.62966577
              25.67318207               16.10639836               64.02744664                0.81752385                0.58034272               -0.26667709                0.36170247                0.64199088                2.73462150                5.13509033
              26.67898550               14.78803151               62.95202620                0.55071932                3.23430883                1.21074673               -4.15137927               -4.61429709               46.87701182               -4.88428346
              27.73786825               13.36057734               62.75912718                0.46539433                4.22212527               -1.68002976                2.81972766               -4.24342835              105.07987360               -2.08205857
              28.76342800               11.94195220               62.83874678                0.44291066                1.68543597                0.18016026               -1.22648547               -1.82566563              117.22974616               -1.86452778
              29.77157697               10.52915670               62.89963228                0.43719315                0.27166590                2.03238599               -4.79601501               -1.03747116              114.56445586               -1.92134013
              30.76886132                9.12740166               62.93944987                0.44138115               -0.50521126                3.88738649               -8.47512656               -0.48765055              111.72937894               -2.03568403
              31.76147274                7.74308728               62.95815069                0.45559969               -0.46494900                5.71502302              -12.70301455                0.12705058              109.05289634               -2.15003755
              32.75956234                6.38282213               62.95954473                0.48010418                0.87156543                7.49886006              -17.88929541                0.94693423              107.19211221               -2.14254019
              33.77890405                5.05021425               62.95529040                0.51756516                3.82382936                9.18087275              -24.46263014                1.47945904              106.74486931               -1.72061343
              34.83603893                3.73111287               62.95653613                0.58007881                7.47103458                9.53786560              -30.54965985                1.09328538               60.35620619                0.27875812
              35.92832474                2.40801406               62.01159017                0.81644172                9.22858129               10.39895807              -32.74425269                0.07229715               14.47876474               -7.86507369
              12.30813658                6.43908763               66.77020054                0.92481729               -1.35914178               -1.52625653                5.17900488               -0.38174132               -4.03336171                4.53480275
              13.29454516                4.93589009               66.27796233                0.68394130               -1.28888307               -0.89780984                3.51571030               -0.38559414               -5.70429046               -3.25962746
              14.28235892                3.42681807               65.75306819                0.53024009               -1.15520778               -0.48599876                1.70904359               -0.46089820               -5.87539861               -0.64737065
              15.27144101                1.90334075               65.25828331                0.47214516               -0.87741083               -0.01129180                0.00173035               -0.42822287               -3.63025724               -0.49689310
              16.26481070                0.36270436               64.77858289                0.45029259               -0.30660321                0.46556386               -1.75666711               -0.34861386               -2.23272992               -0.30397553
              17.26530894               -1.19255720               64.31134474                0.45505141                0.50025860                0.95343963               -3.55656573               -0.26286902               -1.36771732               -0.08134292
              18.27481587               -2.75531807               63.84796492                0.48671411                1.38725628                1.43712429               -5.36051790               -0.22430431               -1.47293969                0.14456871
              19.29305407               -4.31727228               63.37736343                0.55173442                2.17298823                1.90730163               -7.12459760               -0.23028737               -2.49636681                0.35882804
              20.31827564               -5.87244245               62.89211752                0.66757050                2.78869836                2.36600982               -8.84869927               -0.23985638               -4.20752461                0.44634470
              21.34882803               -7.41828939               62.38572680                0.86857264                3.27614819                2.81838470              -10.58741207               -0.24978642               -4.78340770                1.14416202
              22.38379860               -8.95520389               61.88718424                1.00000000                3.49705668                3.33992303              -12.29014324               -0.66440246               -4.29078042               -3.27180933
              13.80751670                7.42382507               66.57044920                0.76957721               -1.06927036               -1.53276393                4.54004802               -0.19584893                2.55369921                6.29764436
              14.79682400                5.92691200               66.07223904                0.25885474               -0.67460485               -0.69614067                2.88048923               -0.37907766                6.11518883               -5.92733513
              15.79402461                4.42195808               65.64580791                0.02710140                0.11958152                0.13893372                1.58015487               -1.51033319               10.00485686               -9.47274730
              16.79921563                2.90322783               65.22524013                0.01575325                0.76244649               -0.77932448                0.17806870               -2.92748473               11.07740246              -10.09228378
              17.80927354                1.36736000               64.82013515                0.01863613                1.12379174               -0.77326318               -1.23561620               -3.91360095               12.46692448              -11.55979682
              18.82169147               -0.18302280               64.42740051                0.02474885                1.28284160               -0.46793066               -2.69081809               -4.33407213               13.24947681              -13.53737582
              19.83493037               -1.74094682               64.03801160                0.03435675                1.38109603                0.02765079               -4.14146816               -4.09153793               13.03933097              -15.50679307
              20.84931339               -3.29819926               63.64085254                0.05206136                1.57276296                0.63189345               -5.55021523               -3.20647249               11.87537325              -16.49542900
              21.86638563               -4.84878236               63.22749053                0.16875177                1.91987503                1.57877048               -6.91421995               -1.67803672               10.36144625              -12.96849864
              22.88771089               -6.39010554               62.79891679                0.39915960                2.38417245                2.52468387               -8.28511755               -0.55936653                7.50874554                1.39445764
              23.91406908               -7.92180466               62.32696897                0.79807820                2.63581901                3.49802751               -9.79054034               -0.62395724                5.43578425               -8.24234930
              15.29804574                8.40843236               66.40680845                0.68769568               -0.92151516               -1.45307005                4.12304126               -0.13617688                0.19893914                7.61173465
              16.28883059                6.92196728               65.81359483                0.13632579               -1.11046636               -0.37325164                1.95583722               -0.25728818                7.26958997               -7.85107905
              17.27583642                5.42959675               65.36229969                0.00164103               -1.06705996                0.38611517                1.14968494               -3.66761247               18.73406342              -17.80841304
              18.26748939                3.88775426               65.00021981                0.00010000               -0.15235498               -0.87420180               -0.36378921               -7.07566450               23.00632933              -19.60479937
              19.27278932                2.34723910               64.63623302                0.00010000                0.97224653               -1.33071981               -2.33715983               -7.99272247               22.89642988              -22.74105364
              20.28693432                0.79808419               64.27368640                0.00010000                1.76861278               -1.19470501               -4.38171935               -8.63850824               23.02168124              -26.75578661
              21.30816157               -0.75476505               63.91409562                0.00010000                2.49129121               -0.68311135               -6.54537594               -8.18667223               23.65989177              -30.94611250
              22.33676015               -2.30463441               63.56601751                0.00010000                3.42298044                0.15420932               -8.89246089               -6.34614423               27.95937154              -34.19150244
              23.37662118               -3.84086704               63.29302477                0.00028336                3.69514286                1.49622623              -12.29482144               -3.75637618               41.55866549              -35.26153675
              24.41066301               -5.36779571               63.21529187                0.10409009                2.90482547                4.00169454               -8.37901894               -1.34631481               28.01547313              -35.87850173
              25.43471769               -6.88524334               62.66526637                0.59670974                2.40546856                6.36619558               -9.39908558                0.08372956                4.82668437              -47.89017978
              16.77772331                9.39476367               66.23440902                0.66810863               -0.72094676               -1.27576522                3.63707913               -0.11461784                0.10649969                7.21428907
              17.77051385                7.91944696               65.56935433                0.11316192               -1.14189682               -0.15736388                1.16270683               -0.64329924                9.41199423               -6.96566293
              18.75488538                6.42968039               65.09080824                0.00010000               -1.52269294                0.03773450                2.12192615               -4.27033417               26.93123112              -16.01390567
              19.74005999                4.88574380               64.78080056                0.00010000               -0.78981083                0.14837019               -0.79834234               -7.55595693               34.56886021              -18.69579602
              20.73908916                3.34074560               64.45679563                0.00010000                0.54327317               -0.00511345               -3.35307758               -8.24510724               33.47505350              -21.94519560
              21.75092545                1.79308310               64.12771801                0.00010000                1.74131800                0.23595441               -5.99609136               -8.67358169               33.04362790              -25.75104704
              22.77391552                0.24539095               63.79815833                0.00010000                2.87835216                0.84894157               -8.84808742               -8.34001808               33.41145829              -30.08090274
              23.80849249               -1.29511507               63.47939452                0.00010000                4.02519425                1.87811223              -12.06544789               -6.91206456               35.22350770              -35.26803556
              24.85441941               -2.81885783               63.18798317                0.00097498                4.83341951                3.39144998              -15.06591959               -4.13682561               35.80371951              -44.76252976
              25.90516088               -4.31007165               62.88024891                0.10794415                4.81097594                6.87681597              -19.35725897               -0.77476826               22.21787480              -65.47234077
              26.95063892               -5.79448075               62.30828616                0.60047888                4.54780402                9.68029487              -20.36524750                2.07948164                9.90613959              -77.49693673
              18.24638679               10.38291705               66.06374603                0.65853242               -0.53389072               -1.10073991                3.17619713               -0.10971033                0.11517507                7.33726047
              19.24104789                8.91882000               65.32833480                0.10324140               -1.11269476                0.03808734                0.37350693               -1.14181889               13.03236772               -6.70417153
              20.22413290                7.43035144               64.85157307                0.00010000               -1.78714254                0.25600672                2.25962198               -5.00556337               35.77282030              -13.72974284
              21.20530504                5.89072167               64.57640089                0.00010000               -1.17925137                0.81087709               -1.12526271               -8.08261861               45.17575282              -17.09694319
              22.20054787                4.34713683               64.29037176                0.00010000                0.17561546                1.15517443               -4.26205279               -8.63929774               44.00523616              -20.35631139
              23.20881735                2.80280328               63.99480936                0.00010000                1.45057554                1.65333326               -7.45412223               -8.82918204               42.97751061              -24.03413004
              24.22955938                1.26221378               63.69202575                0.00010000                2.69751452                2.49996725              -10.94758720               -8.36818752               42.16378196              -28.43915412
              25.26276764               -0.26707216               63.38393049                0.00010000                3.96409304                3.77096448              -14.88930250               -6.85543591               41.18425676              -34.28295732
              26.30884124               -1.77303804               63.06397018                0.00434002                5.40114594                5.67315566              -19.66128204               -3.22551667               39.12562721              -42.67229735
              27.37079056               -3.23025939               62.71310691                0.11132498                6.81421365                8.51883921              -25.89365385                0.06497746               23.06071841              -51.84025333
              28.44512552               -4.69163744               62.06214517                0.60223256                7.43349616               10.46392126              -27.99762082                2.26799861                8.93545523              -65.57385765
              19.70372320               11.37274887               65.89459829                0.65082278               -0.34801173               -0.93859022                2.72419199               -0.10860645                0.11860051                7.41357621
              20.70024308                9.92020871               65.08921444                0.09614025               -1.04253761                0.24391017               -0.40821893               -1.56690424               17.37556649               -6.54137029
              21.68287245                8.43480052               64.62917497                0.00025628               -1.93104313                0.63184775                2.28065084               -5.57718472               45.50009156              -12.16764556
              22.66162222                6.90196134               64.39110486                0.00010000               -1.43254267                1.40025262               -1.49195867               -8.35715472               55.96072674              -15.16747836
              23.65422160                5.36384909               64.14298347                0.00010000               -0.11786805                2.06803549               -5.03168620               -8.78262753               54.65693293              -18.15863200
              24.65926486                3.82614976               63.88242358                0.00010000                1.11028077                2.87448857               -8.68974739               -8.68394833               53.09821918              -21.48137307
              25.67642721                2.29539029               63.60752230                0.00010000                2.36853702                3.99490242              -12.74874107               -7.88834546               51.29483562              -25.46485786
              26.70663560                0.78030421               63.31533041                0.00010000                3.83345441                5.51710816              -17.51119739               -5.92664509               49.14337195              -30.40493015
              27.75309630               -0.70539472               63.00033878                0.00775073                5.92121146                7.47496656              -23.39980059               -1.84732919               46.57365618              -36.14679195
              28.82505983               -2.13969487               62.65558860                0.11703828                8.28293491                9.50887931              -31.11406980                1.02879732               27.35570457              -41.66227229
              29.91875500               -3.58520232               61.94652039                0.60609544                9.36951673               10.89275049              -33.47370011                2.13102319               10.12137270              -54.23176764
              21.14929498               12.36414525               65.72614465                0.64391745               -0.16368332               -0.78621319                2.27413432               -0.10775310                0.12677405                7.41957713
              22.14765815               10.92369821               64.85126342                0.09129976               -0.92292036                0.45776285               -1.18391471               -1.93673765               22.40550460               -6.45003088
              23.13083658                9.44298839               64.42206436                0.00121075               -1.92723899                0.96913901                2.25970919               -5.97704152               56.16832645              -10.56590535
              24.10911337                7.91872672               64.22570568                0.00010000               -1.50648391                1.84558612               -1.79588320               -8.34341847               67.21827381              -12.99642257
              25.10070690                6.38849754               64.01963899                0.00010000               -0.27580957                2.70026308               -5.62060531               -8.52041630               65.77509233              -15.42036263
              26.10359718                4.86029305               63.79845436                0.00010000                0.84655617                3.76033299               -9.62802104               -8.05272300               63.79151459              -18.13548360
              27.11763802                3.34211183               63.55787006                0.00010000                2.07112833                5.13952006              -14.15614742               -6.86650122               61.39657337              -21.31960685
              28.14501975                1.84327000               63.29413644                0.00010000                3.71278591                6.83238625              -19.56056704               -4.59456870               58.73842832              -25.00959712
              29.19189374                0.37646129               63.00446259                0.01141660                6.30771795                8.67771218              -26.31408750               -0.51472851               56.21893455              -28.97723742
              30.27117410               -1.04008180               62.69040837                0.12389738                9.34335760               10.27885931              -35.06396570                1.70260357               32.88727354              -32.48445437
              31.37876089               -2.47378243               61.92391523                0.61094847               10.75867871               11.46817100              -37.52722289                1.96271024               11.38003634              -44.95795007
              22.58246222               13.35702461               65.55769275                0.63827966                0.02029693               -0.64058230                1.82780919               -0.10817643                0.13057105                7.34936999
              23.58266519               11.92936397               64.61369398                0.08861691               -0.70795546                0.67883769               -1.96212286               -2.29934575               28.18668276               -6.42004862
              24.56830311               10.45418330               64.23082684                0.00232718               -1.67102418                1.17948615                2.19899289               -6.21227944               67.93375091               -8.79250387
              25.54924470                8.93887306               64.08257756                0.00010000               -1.30280842                1.99916460               -1.99151531               -8.01419582               79.11923067              -10.46449161
              26.54224694                7.41785436               63.92476043                0.00010000               -0.23242955                2.95689095               -5.96358023               -7.75133598               77.54465515              -12.18122604
              27.54459611                5.90135642               63.74952287                0.00010000                0.69366476                4.24570318              -10.18590466               -6.87232637               75.23740442              -14.15051350
              28.55612023                4.39818070               63.55165373                0.00010000                1.78993283                5.85257413              -15.03162427               -5.39252983               72.48324820              -16.42739289
              29.58039477                2.91695194               63.32787788                0.00010000                3.50166489                7.69647192              -20.89915537               -3.06960563               69.59504626              -18.94315687
              30.62615353                1.46815953               63.07781934                0.01489406                6.44804253                9.50362922              -28.29598886                0.58359178               67.21717249              -21.47729420
              31.70935562                0.06588232               62.80811754                0.13075325                9.96284613               10.80285719              -37.72876086                2.04112950               39.03924044              -23.65162524
              32.82541045               -1.35583890               61.98364548                0.61566835               11.60548363               12.13702853              -40.21935974                1.63681680               12.57088226              -36.10251742
              24.00245273               14.35133360               65.38831935                0.63376813                0.20598077               -0.49956292                1.37525431               -0.11120832                0.16700464                7.29045928
              25.00451254               12.93727496               64.37596667                0.08835494               -0.26854190                0.90791828               -2.74296933               -2.75704581               34.83152252               -6.53705036
              25.99708189               11.46657811               64.05681290                0.00356750               -0.96770690                1.05583357                2.07311150               -6.36396361               80.97901951               -6.66020093
              26.98515840                9.95871001               63.96504404                0.00010000               -0.69425377                1.63842692               -2.04500477               -7.07659870               91.78752174               -7.47082652
              27.98319682                8.44763536               63.86253810                0.00010000                0.03329555                2.83625762               -6.00883212               -6.24736164               90.00899199               -8.47385528
              28.98582431                6.94520711               63.74038686                0.00010000                0.54975449                4.37293813              -10.27870870               -5.08797990               87.42275470               -9.69962809
              29.99419191                5.45916331               63.59347343                0.00010000                1.39122451                6.16285324              -15.25078259               -3.57072595               84.44322345              -11.11783464
              31.01364880                3.99719944               63.41966833                0.00010000                3.02216433                8.14399874              -21.36688019               -1.49077446               81.49449544              -12.59602773
              32.05463519                2.56653387               63.22088341                0.01892038                6.11731597               10.05332977              -29.16059226                1.37884209               79.20219844              -13.82986149
              33.13599512                1.17597534               63.00457085                0.13712849               10.01522387               11.10859139              -38.95343414                1.96283887               45.55105057              -14.61904213
              34.25493967               -0.23104186               62.12129433                0.62001774               11.89445500               12.61482351              -41.50242327                1.11615909               13.60137365              -27.09657371
              25.40835533               15.34703335               65.21909044                0.62823652                0.39244279               -0.35435397                0.92548639               -0.11224961               -0.12318702                6.34776299
              26.41227976               13.94752233               64.13557252                0.08817608                0.56167290                1.13655593               -3.54376201               -3.55256978               42.50097521               -5.90571710
              27.41958879               12.47529997               63.90433883                0.00492318                0.71878636               -0.22849927                1.88019306               -5.18925210               95.67691106               -3.75135975
              28.42665548               10.97164160               63.87751649                0.00010000                0.56069094                0.93958867               -1.94505342               -4.72011976              105.17600129               -3.95187668
              29.43080261                9.47457951               63.83673248                0.00010000                0.23265387                2.56076713               -5.73144975               -3.59742582              103.06591286               -4.36362807
              30.43130856                7.98881518               63.77425122                0.00010000                0.09553918                4.34311830               -9.84096515               -2.70657366              100.22973077               -4.93734790
              31.43271339                6.52143776               63.68550564                0.00010000                0.59500790                6.23582232              -14.68720733               -1.64159949               97.07697063               -5.60763365
              32.44320872                5.07983191               63.56953746                0.00010000                2.11205417                8.22403688              -20.75496058               -0.22450160               94.18544136               -6.26468759
              33.47495447                3.66922612               63.43183531                0.02306862                5.14897042               10.19724212              -28.64500706                1.47367355               92.23328280               -6.59421726
              34.54618813                2.28805415               63.28160718                0.14279580                9.34067819               11.14653938              -38.31098567                1.49209183               52.41805761               -5.87232911
              35.66176804                0.89645757               62.33704781                0.62293209               11.55799086               12.38258492              -40.94558021                0.35339803               14.10689364              -16.36026224
              26.79922977               16.34424652               65.03117249                0.81316737                0.59647501               -0.27868261                0.38051590                0.66339977                2.87937999                5.40318165
              27.80519452               14.96000608               63.90987748                0.54530887                3.49739085                1.24837468               -4.27555854               -4.82044352               52.61612544               -5.13556910
              28.86917758               13.46200813               63.78299644                0.46337103                4.31409770               -1.32918448                1.72738140               -4.16633503              111.36684550               -1.84137514
              29.89147647               11.97750178               63.82443898                0.44269053                1.24485661                0.58601836               -1.76018463               -1.67577258              118.86596330               -1.84003830
              30.89407472               10.49885070               63.85023710                0.43716587               -0.33209423                2.42711937               -5.15499688               -0.94440418              116.54039312               -2.02993165
              31.88483459                9.03206948               63.85302168                0.44123420               -1.18657643                4.32542924               -8.84586309               -0.39594461              113.51507193               -2.29069805
              32.87034319                7.58387976               63.82847785                0.45461527               -1.17320893                6.24419980              -13.24020384                0.24351483              110.16773036               -2.57829040
              33.86137041                6.16168018               63.77583923                0.47797742                0.27716214                8.18482608              -18.82907905                1.14611673              107.08577752               -2.81177759
              34.87588643                4.77047871               63.70151444                0.51303589                3.86175510               10.12525920              -26.28125142                1.95449346              105.52059071               -2.77344861
              35.93860551                3.39890613               63.62628367                0.57264938                8.46571800               11.08519783              -35.31220635                1.54829453               61.30123401               -1.00008617
              37.04520079                2.01660984               62.65862042                0.81180733               10.65952807               12.01522689              -37.75198113                0.11364661               18.01861757               -9.47494408
              12.76753112                6.68823156               67.82271075                0.91928892               -1.39676214               -1.56824846                5.32063912               -0.39441293               -4.20103932                4.70564521
              13.75356350                5.11143961               67.31358052                0.67629791               -1.33034051               -0.91897991                3.60737790               -0.40701934               -5.94294586               -3.41203109
              14.74092431                3.52838591               66.77036012                0.52672149               -1.18641694               -0.49925401                1.75032688               -0.46871765               -6.13771877               -0.62051312
              15.72983516                1.93051032               66.25826695                0.47082040               -0.87681379               -0.00778110               -0.00332689               -0.43082823               -3.87041131               -0.50008819
              16.72338803                0.31549952               65.76074578                0.45040844               -0.27389149                0.48206490               -1.80860573               -0.35156873               -2.52379712               -0.30342769
              17.72435733               -1.31378098               65.27525427                0.45534809                0.55445199                0.98518120               -3.65615136               -0.27022947               -1.68656711               -0.08497326
              18.73447707               -2.95005220               64.79358645                0.48661646                1.45188868                1.48422493               -5.50895401               -0.23415299               -1.77860445                0.14118233
              19.75339510               -4.58508441               64.30508551                0.55024677                2.24488098                1.96891237               -7.32052605               -0.23879131               -2.76597431                0.35459438
              20.77937469               -6.21304102               63.80234354                0.66320558                2.87034961                2.44257249               -9.09502467               -0.24790585               -4.46621951                0.44746844
              21.81080209               -7.83151224               63.27835098                0.85846332                3.36932280                2.90941016              -10.88349743               -0.25885553               -5.03512618                1.15668674
              22.84676115               -9.44096975               62.76254968                1.00000000                3.59590536                3.44357228              -12.63676393               -0.67176262               -4.53010300               -3.42200977
              14.34037894                7.67254908               67.61646110                0.75873333               -1.09628079               -1.58089206                4.66139513               -0.20640326                2.71993077                6.58268166
              15.32941613                6.10224981               67.10140894                0.24570980               -0.68385807               -0.70501042                2.95376084               -0.40927435                6.46303835               -6.22544160
              16.32670178                4.52339337               66.66176139                0.02779766                0.12769683                0.04647623                1.61197696               -1.60305570               10.48561092               -9.56135683
              17.33197007                2.93043251               66.22695826                0.01673197                0.76581086               -0.88193050                0.16440422               -3.06167030               11.50393254              -10.44440010
              18.34201800                1.32032017               65.80749321                0.01967743                1.12304154               -0.83315545               -1.29413123               -4.07287074               12.86555377              -12.37225266
              19.35443090               -0.30392917               65.39994028                0.02606543                1.28846308               -0.50937169               -2.79953274               -4.51760457               13.63109185              -14.82872422
              20.36778726               -1.93520996               64.99581321                0.03626485                1.40353492               -0.01617576               -4.29800523               -4.30424471               13.44553284              -17.34650433
              21.38250160               -3.56539528               64.58430408                0.05481981                1.61611468                0.56986063               -5.75653445               -3.43980124               12.32007350              -19.00954473
              22.40010955               -5.18861530               64.15705540                0.16177752                1.98381541                1.46177931               -7.16903220               -1.90950521               10.82363089              -16.71238379
              23.42217791               -6.80241814               63.71456099                0.38415645                2.46957424                2.63948114               -8.58911971               -0.67104877                7.90027818               -0.07666342
              24.44950103               -8.40653403               63.22734577                0.78723312                2.73231297                3.63816732              -10.14075917               -0.52432987                5.76013069               -9.63080260
              15.90400158                8.65661372               67.44858023                0.67731095               -0.94678613               -1.50298231                4.23451423               -0.13453745                0.18350787                7.97684589
              16.89453372                7.09733940               66.83339862                0.12463273               -1.16605419               -0.36995358                2.00712510               -0.39435124                7.97751823               -8.22768952
              17.88068050                5.52931543               66.37461409                0.00091210               -1.14293869                0.08503230                1.31629070               -4.00859574               19.75526129              -17.43237555
              18.87167495                3.91287171               65.99670011                0.00010000               -0.21941020               -1.04679169               -0.36176307               -7.32862160               23.46115137              -20.28789274
              19.87629229                2.29883642               65.61252840                0.00010000                0.89302098               -1.44026375               -2.41059410               -8.25432366               23.13802776              -24.32962464
              20.88953537                0.67603159               65.22913002                0.00010000                1.67830003               -1.27101103               -4.52684438               -8.97217889               23.17464378              -29.28645188
              21.90985829               -0.95037572               64.84737815                0.00010000                2.42345255               -0.76393947               -6.78389402               -8.58822789               23.63207274              -34.54785543
              22.93800442               -2.57368719               64.47504743                0.00010000                3.41745742                0.03127216               -9.27254398               -6.83308446               27.25123918              -39.09475589
              23.97820744               -4.18380543               64.16709194                0.00010000                3.86477179                1.32700951              -12.79883432               -3.99480634               43.69037529              -41.48537208
              25.01529985               -5.77872262               64.12433444                0.09189997                3.31494456                3.76866372              -10.07754901               -1.31210475               31.46851602              -44.00839883
              26.04450633               -7.36820641               63.56592124                0.58831507                2.92064810                6.10027019              -10.65995002                0.33649765                6.29725902              -56.20709639
              17.45623682                9.64248943               67.27127549                0.65825816               -0.74094288               -1.31774462                3.73636413               -0.11448539                0.11072215                7.55954327
              18.44882740                8.09485074               66.58113543                0.10196542               -1.26196339               -0.15356886                1.19526209               -1.02150017               11.18819003               -7.27424442
              19.43099756                6.52509401               66.11294564                0.00010000               -1.64753713               -0.25705560                2.17881008               -4.68272681               28.51815213              -15.41700760
              20.41587665                4.90949668               65.77281170                0.00010000               -0.86129557                0.02817206               -0.84382124               -7.62128460               34.43453139              -19.31327103
              21.41377165                3.29151490               65.42274538                0.00010000                0.41614020               -0.05597602               -3.47285662               -8.40945793               33.55205441              -23.45053418
              22.42419946                1.67065061               65.06670158                0.00010000                1.59849179                0.23047505               -6.20211471               -8.89813789               32.99051139              -28.16765183
              23.44574148                0.04951125               64.70788599                0.00010000                2.75350827                0.85979751               -9.18017248               -8.63097845               33.05193413              -33.52295806
              24.47926962               -1.56476984               64.35582697                0.00010000                3.97536829                1.87178771              -12.58909674               -7.23696651               34.71013308              -39.90309586
              25.52524885               -3.16207511               64.03243303                0.00010000                5.05335800                3.34621787              -15.97225592               -4.42959525               34.61616924              -50.55267829
              26.58033678               -4.72704486               63.67882913                0.09438449                5.49748603                6.37061507              -20.68600891               -0.96532368               22.00540565              -76.85861793
              27.63519857               -6.28452863               63.09508283                0.59070731                5.48617849                9.17302714              -22.12961804                2.07111263               11.45722716              -90.31077534
              18.99698925               10.63025883               67.09596215                0.64897833               -0.54901180               -1.13714695                3.26333397               -0.11194497                0.11740810                7.69849631
              19.99149914                9.09426803               66.33212377                0.09251498               -1.23046127                0.04523792                0.38608351               -1.62573250               15.41137070               -7.00705459
              20.97238003                7.52417432               65.87446670                0.00010000               -1.93353827                0.17068653                2.14322621               -5.43683446               37.95476978              -13.61019981
              21.95282837                5.91343515               65.56478587                0.00010000               -1.27154146                0.75277682               -1.27004424               -8.04096840               44.95157482              -17.68351020
              22.94694920                4.29771690               65.24693019                0.00010000                0.03739411                1.16475067               -4.45158192               -8.68489917               43.95947501              -21.74883465
              23.95357625                2.68064109               64.91887134                0.00010000                1.28549898                1.70943690               -7.72854785               -8.94901188               42.79233746              -26.27600318
              24.97265918                1.06682023               64.58028834                0.00010000                2.56375977                2.57897519              -11.36381161               -8.55779133               41.61743524              -31.65795358
              26.00485145               -0.53625144               64.23140066                0.00010000                3.96156919                3.84095726              -15.53760308               -7.11468296               39.98341088              -38.69431577
              27.05189056               -2.11688108               63.86154800                0.00010000                5.67977264                5.64029683              -20.64514453               -3.61126091               36.71811403              -49.04136343
              28.11844690               -3.65131032               63.44499840                0.09720219                7.45027748                8.26651885              -27.33345703               -0.18575489               21.90559984              -60.81766973
              29.20089611               -5.18474586               62.77027915                0.59197248                8.24492115               10.30237121              -30.03480474                2.24107220                9.71859279              -76.05651185
              20.52597953               11.61974649               66.92221728                0.64137281               -0.35822744               -0.96999443                2.79752533               -0.10986752                0.12189955                7.78066694
              21.52239725               10.09575550               66.08508999                0.08518513               -1.14428931                0.25551351               -0.41416128               -2.08280723               20.27694386               -6.83821345
              22.50309374                8.52850774               65.65126824                0.00010000               -2.04412719                0.66103015                1.94623654               -6.01419736               48.23371342              -12.09880971
              23.48151471                6.92455221               65.37530798                0.00010000               -1.51130087                1.42924819               -1.75951928               -8.23931328               55.78298334              -15.73141912
              24.47286773                5.31480991               65.09148679                0.00010000               -0.26994128                2.14010628               -5.30116881               -8.73450888               54.62710394              -19.40050724
              25.47611588                3.70483935               64.79379770                0.00010000                0.93052289                2.98935542               -9.03244206               -8.72320950               52.87256924              -23.49863875
              26.49147818                2.10109076               64.47736043                0.00010000                2.22806927                4.13693909              -13.24110251               -8.03298181               50.56986632              -28.40976900
              27.52067727                0.51204931               64.13597565                0.00010000                3.83021607                5.65592281              -18.25508566               -6.22231327               47.53134386              -34.56216505
              28.56808250               -1.04926917               63.75945536                0.00059316                6.19046004                7.56823615              -24.54322941               -2.38012947               43.40826591              -41.93291795
              29.64448647               -2.56171449               63.33259909                0.10243104                8.94043014                9.58145343              -32.93842898                0.71378726               25.83536101              -49.80688692
              30.74689111               -4.07848120               62.59658028                0.59548197               10.24046361               11.05598026              -36.04031602                2.24728465               11.07158900              -63.36764034
              22.04277389               12.61085894               66.74921503                0.63483051               -0.16921481               -0.81226657                2.33755693               -0.10944886                0.13157102                7.79098011
              23.04108174               11.09937830               65.83927166                0.08071764               -0.97372595                0.47343065               -1.21123479               -2.44558564               25.79607883               -6.74632567
              24.02329937                9.53739492               65.44272942                0.00073294               -1.96709013                1.07313953                1.66758600               -6.35323569               59.48260915              -10.50758847
              25.00173994                7.94202012               65.20624892                0.00010000               -1.56637427                1.95676143               -2.19612662               -8.18370516               67.19938133              -13.46190760
              25.99197188                6.34051902               64.96188230                0.00010000               -0.44543605                2.84065227               -5.97171260               -8.41299346               65.87678948              -16.46321013
              26.99283122                4.74042820               64.70014805                0.00010000                0.64088523                3.93775802              -10.03408126               -8.04387515               63.62897784              -19.86758295
              28.00478959                3.14955901               64.41328742                0.00010000                1.89669471                5.35444703              -14.71568192               -6.99307932               60.61760198              -23.90876116
              29.03076511                1.57686702               64.09368255                0.00010000                3.66310887                7.08441177              -20.40958775               -4.91788674               56.89172771              -28.70928968
              30.07805177                0.03448365               63.73317692                0.00391262                6.55847844                8.98312626              -27.68238678               -1.09116551               52.54796822              -34.17114355
              31.16193468               -1.45968125               63.32431608                0.10879659               10.06617353               10.71264766              -37.49143339                1.41305633               31.23866155              -39.74032219
              32.27937524               -2.96362626               62.52958210                0.59978970               11.74405571               12.00996688              -40.76394069                2.17483295               12.70502357              -53.02164686
              23.54675184               13.60350116               66.57624125                0.62930197                0.01977209               -0.66249961                1.87864641               -0.11028695                0.13413771                7.71960882
              24.54694956               12.10522411               65.59381684                0.07788567               -0.66823139                0.69974702               -2.00911323               -2.76931257               32.03962185               -6.71998408
              25.53338721               10.54997054               65.24951538                0.00155238               -1.61165243                1.35756335                1.32559755               -6.53265598               71.88457436               -8.75660076
              26.51471651                8.96368744               65.06050242                0.00010000               -1.35937176                2.18851187               -2.52381057               -7.84062125               79.39879872              -10.79244707
              27.50619977                7.37162296               64.86322484                0.00010000               -0.42590596                3.16611766               -6.39203557               -7.62070663               77.90739604              -12.97140882
              28.50619839                5.78359451               64.64540910                0.00010000                0.44890013                4.48923299              -10.64467511               -6.83879032               75.27358823              -15.52466665
              29.51517778                4.20817970               64.39806204                0.00010000                1.55982552                6.14789436              -15.64585875               -5.49491726               71.80039132              -18.54616609
              30.53739490                2.65373754               64.11354273                0.00010000                3.38148402                8.07902641              -21.84696027               -3.35655841               67.67893347              -22.04679806
              31.58280746                1.13039336               63.78542310                0.00729742                6.67313005               10.03717342              -29.90436425                0.10168245               63.28234801              -25.91263691
              32.67085750               -0.34746153               63.41175004                0.11514710               10.77351657               11.59177021              -40.88197013                1.86801715               37.47054908              -29.86202047
              33.79827779               -1.83828186               62.55895575                0.60453171               12.74202871               13.05310339              -44.21509900                1.93359766               14.41475652              -43.04655224
              25.03712224               14.59760895               66.40228409                0.62496466                0.21038707               -0.51669539                1.41462058               -0.11279322                0.17500666                7.65997388
              26.03922611               13.11337324               65.34817613                0.07740329               -0.14696613                0.93373853               -2.81124579               -3.15116251               39.11959078               -6.85084206
              27.03418292               11.56454619               65.07287305                0.00238990               -0.79755127                1.30981847                0.94506841               -6.60564835               85.61893716               -6.66382300
              28.02327509                9.98579035               64.94176925                0.00010000               -0.72661203                1.90153387               -2.70681752               -6.91603061               92.53300230               -7.63497535
              29.01965068                8.40384137               64.80028173                0.00010000               -0.18882107                3.11191590               -6.49997360               -6.12586677               90.79395855               -8.97679112
              30.01949867                6.83021286               64.63523150                0.00010000                0.25487662                4.67757578              -10.77157701               -5.04991461               87.84193049              -10.64407351
              31.02474821                5.27251690               64.43760455                0.00010000                1.09608084                6.53001268              -15.89476248               -3.63887203               84.06419463              -12.63771478
              32.04142028                3.73844754               64.20041168                0.00010000                2.82681379                8.63156685              -22.37620663               -1.68245226               79.74271663              -14.90656653
              33.08128449                2.23522711               63.91903679                0.01089328                6.32749789               10.77483918              -30.96234847                1.08749556               75.27388099              -17.24141159
              34.16797024                0.77215416               63.59232770                0.12148425               10.92016811               12.20181748              -42.77936546                1.92529123               44.20948871              -19.39117848
              35.29968785               -0.70256419               62.68022952                0.60882164               13.17176085               13.88874993              -46.14497085                1.40225473               15.96412242              -32.60957209
              26.51296739               15.59316725               66.22850015                0.61961094                0.40216719               -0.36555317                0.95330038               -0.11496487               -0.13149008                6.67234017
              27.51698907               14.12389888               65.09965175                0.07743471                0.79448665                1.16684870               -3.63515998               -3.83712069               47.19522242               -6.19885975
              28.52885713               12.57616690               64.91714970                0.00327459                1.00558241                0.09442147                0.54158129               -5.28600162              101.05958633               -3.72872849
              29.53710071               11.00171812               64.85478075                0.00010000                0.52014044                1.27580462               -2.69995483               -4.60370532              106.57688742               -3.97967478
              30.53925994                9.43386128               64.77713679                0.00010000               -0.02880705                2.88537284               -6.25588360               -3.52103197              104.47763512               -4.58750051
              31.53652457                7.87714603               64.67353324                0.00010000               -0.25471435                4.69169701              -10.33898803               -2.68289930              101.29626271               -5.40564804
              32.53416565                6.33877995               64.53543298                0.00010000                0.22555336                6.65300722              -15.32266782               -1.67577844               97.32882432               -6.39855650
              33.54103564                4.82636888               64.35660033                0.00010000                1.83425537                8.77677448              -21.75874701               -0.30343959               92.96598786               -7.51941939
              34.57085076                3.34589014               64.13516482                0.01479173                5.30594955               11.00799481              -30.49143992                1.38964368               88.78899289               -8.57096829
              35.64715463                1.89657482               63.87394074                0.12665292               10.24544116               12.48020119              -42.62583818                1.52951881               51.66983181               -8.56222366
              36.77575958                0.43949313               62.90028577                0.61184472               12.86049480               13.89670674              -45.98083889                0.50861858               17.13285371              -19.63092873
              27.97335969               16.59029789               66.03505696                0.80887241                0.61243648               -0.28693687                0.39197812                0.68046182                3.02656531                5.68216016
              28.97948405               15.13671021               64.86651503                0.53967359                3.86419845                1.28113277               -4.38832459               -4.94366484               57.82683411               -5.39877320
              30.05064365               13.56643462               64.79367481                0.46123199                4.70112809               -0.97322845                0.30533686               -4.09153556              117.51843468               -1.79570529
              31.07350661               12.01130645               64.80354308                0.44245067                1.15792394                0.95883272               -2.51757549               -1.60369969              121.08657925               -1.86397762
              32.07380213               10.46154883               64.79653235                0.43724184               -0.62923034                2.76875552               -5.66331677               -0.90876272              118.86456470               -2.16463286
              33.06092201                8.92404680               64.76253261                0.44091608               -1.58961700                4.69007702               -9.31121705               -0.35884620              115.59418141               -2.56392368
              34.04200979                7.40557704               64.69334661                0.45367733               -1.63403498                6.67970908              -13.82030636                0.28122629              111.54832179               -3.03438271
              35.02824131                5.91398303               64.58296315                0.47580222               -0.15691843                8.76141563              -19.74049526                1.21106485              107.08165176               -3.53459845
              36.03887142                4.45538701               64.42966538                0.50871947                3.83581594               10.94968705              -27.96132731                2.19082415              103.41816917               -3.96923171
              37.10495762                3.02175818               64.25029201                0.56474160                9.25760810               12.51833649              -39.57681014                1.77944595               61.73269651               -2.58388922
              38.22402359                1.57536994               63.25655055                0.80637631               11.90659621               13.58768097              -42.58783302                0.18757698               22.10837909              -11.43317890
              13.24237624                6.94569984               68.87661332                0.91366252               -1.43393650               -1.60906145                5.45872744               -0.40638010               -4.37145928                4.87993125
              14.22803687                5.29199264               68.35010989                0.66861120               -1.37290601               -0.94075655                3.69799199               -0.42996762               -6.18463773               -3.56747578
              15.21491812                3.63160527               67.78807473                0.52348708               -1.21948760               -0.51282942                1.79399952               -0.47487561               -6.39973251               -0.59250881
              16.20364712                1.95595636               67.25821677                0.46970347               -0.87853421               -0.00496903               -0.00519109               -0.43168289               -4.10634417               -0.50295156
              17.19734743                0.26314094               66.74241077                0.45044424               -0.24550969                0.49913789               -1.85474417               -0.35373469               -2.81043450               -0.30078618
              18.19873693               -1.44362867               66.23822172                0.45574794                0.60325548                1.01556333               -3.74663058               -0.27880658               -2.00388651               -0.08893978
              19.20941254               -3.15694794               65.73778584                0.48666071                1.51202776                1.52793257               -5.64215352               -0.24297546               -2.08359759                0.13777199
              20.22897748               -4.86861753               65.23095291                0.54861195                2.31366190                2.02654527               -7.50149914               -0.24892373               -3.03581516                0.34726993
              21.25568578               -6.57291679               64.71021703                0.65881873                2.94709445                2.51383585               -9.32277875               -0.25635105               -4.72883161                0.44633989
              22.28791937               -8.26757567               64.16805685                0.84816343                3.45566740                2.99533950              -11.15926749               -0.26530305               -5.29152934                1.16835738
              23.32479913               -9.95323626               63.63444896                1.00000000                3.68797579                3.54439948              -12.96308491               -0.67575971               -4.77519343               -3.56494769
              14.89201963                7.92960922               68.66367710                0.74796370               -1.12351544               -1.62724748                4.78123611               -0.21727033                2.89208234                6.87779778
              15.88078448                6.28258507               68.13131425                0.23266462               -0.69160653               -0.71528184                3.02707349               -0.44110105                6.82062639               -6.52793898
              16.87818750                4.62647698               67.67804745                0.02854976                0.13889894               -0.09201466                1.64238614               -1.69781906               10.97462074               -9.57490333
              17.88356246                2.95590667               67.22852821                0.01774936                0.77075484               -0.99066921                0.15061837               -3.15968382               11.93299828              -10.79330027
              18.89360260                1.26813232               66.79425253                0.02075183                1.12154228               -0.88732511               -1.35456918               -4.18035869               13.26806852              -13.18816310
              19.90599330               -0.43347304               66.37140985                0.02740217                1.29373092               -0.53887444               -2.90521599               -4.64802077               14.01155540              -16.13119144
              20.91947722               -2.14166862               65.95205149                0.03818106                1.42396821               -0.04234991               -4.45282723               -4.47029839               13.84458616              -19.21267628
              21.93447267               -3.84835208               65.52572185                0.05752727                1.65620613                0.52825558               -5.95786721               -3.65080765               12.76129285              -21.59172402
              22.95260134               -5.54777843               65.08410989                0.15448136                2.04767040                1.34823359               -7.41975922               -2.19071517               11.28148623              -20.53044013
              23.97542608               -7.23762228               64.62713439                0.36912079                2.55503901                2.76719191               -8.88598661               -0.83645867                8.28727958               -2.37126657
              25.00370212               -8.91779226               64.12415379                0.77650938                2.82760455                3.80569662              -10.48586660               -0.38249123                6.08054559              -11.55808573
              16.53207913                8.91315489               68.49149873                0.66732496               -0.97320300               -1.55183024                4.34477808               -0.13687670                0.16482081                8.35478722
              17.52234710                7.27768700               67.85373733                0.11320643               -1.22194912               -0.36740773                2.06092228               -0.57834496                8.77211716               -8.60971067
              18.50764014                5.62976498               67.38862550                0.00024638               -1.17744967               -0.24946749                1.47149625               -4.30796906               20.81096469              -17.10819315
              19.49879810                3.93614297               66.99298455                0.00010000               -0.22600907               -1.22570212               -0.40503638               -7.44910594               23.85974616              -20.97043222
              20.50311996                2.24539444               66.58802114                0.00010000                0.83896731               -1.53995919               -2.49956930               -8.39556848               23.38385541              -25.92563963
              21.51557745                0.54559384               66.18314952                0.00010000                1.58828265               -1.32691102               -4.66760782               -9.17938091               23.32335074              -31.83236924
              22.53488562               -1.15779494               65.77841774                0.00010000                2.32468462               -0.81548880               -6.99540962               -8.86473322               23.56937699              -38.18778909
              23.56207114               -2.85805242               65.38056664                0.00010000                3.31280302               -0.05890697               -9.59302353               -7.22408627               26.50666345              -44.08257452
              24.60114168               -4.54595212               65.03704808                0.00010000                3.95664449                1.17054895              -13.16781775               -4.15200618               45.04560971              -47.91163598
              25.64120403               -6.21223183               65.01374089                0.07916444                3.81738036                3.48571580              -12.40203076               -1.19885456               34.41055628              -52.50657796
              26.67748928               -7.87712233               64.45206737                0.57977543                3.62852517                5.63690492              -12.43742315                0.68964781                8.33955567              -65.11678868
              18.16021787                9.89857262               68.30913630                0.64845449               -0.76103787               -1.36048538                3.83166635               -0.11694091                0.11308926                7.91246496
              19.15260749                8.27523692               67.59325957                0.09076866               -1.33228576               -0.14813269                1.23038656               -1.43306681               12.94376159               -7.58663375
              20.13357215                6.62148763               67.13438445                0.00010000               -1.68283044               -0.49700697                1.97614089               -5.04591197               30.14242242              -14.96612984
              21.11895088                4.93139262               66.76392413                0.00010000               -0.86658951               -0.07938968               -0.97629692               -7.55397791               34.34406252              -19.97249719
              22.11624036                3.23733313               66.38733849                0.00010000                0.33220929               -0.09878568               -3.62576439               -8.44359728               33.65117893              -24.97251740
              23.12559507                1.53998874               66.00367571                0.00010000                1.47942259                0.22966295               -6.40059420               -8.97915149               32.93679734              -30.59838812
              24.14582881               -0.15797840               65.61455488                0.00010000                2.62765260                0.86876045               -9.46097504               -8.75129027               32.65148134              -36.98414214
              25.17814812               -1.84953022               65.22761259                0.00010000                3.89559091                1.84726315              -13.00011813               -7.36420040               34.02475988              -44.56149967
              26.22374063               -3.52436745               64.86853805                0.00010000                5.22355381                3.25322358              -16.73112128               -4.49568165               33.21518931              -56.40990813
              27.28261919               -5.16790796               64.46652874                0.08018079                6.17677178                5.59245449              -21.59740898               -1.08596731               21.48709807              -87.56367705
              28.34727607               -6.80505417               63.86569380                0.58003921                6.46568735                8.14286004              -23.65187782                1.85770813               12.50109662             -103.02013613
              19.77641170               10.88594518               68.12901271                0.63955141               -0.56409534               -1.17316461                3.34489287               -0.11218779                0.11969093                8.06898785
              20.77077075                9.27472435               67.33605647                0.08134005               -1.29227515                0.05298152                0.40268187               -2.09984146               17.67187465               -7.31312864
              21.75056620                7.61982484               66.89443760                0.00010000               -1.94488561                0.15369898                1.70132619               -5.82062961               40.12499825              -13.60518334
              22.73187304                5.93455518               66.55100000                0.00010000               -1.24571511                0.72386384               -1.55080148               -7.91468273               44.85235478              -18.32656574
              23.72565190                4.24341872               66.20134012                0.00010000               -0.02835441                1.17768514               -4.69017621               -8.61672418               43.97189509              -23.15983111
              24.73130595                2.55018710               65.84023841                0.00010000                1.18634359                1.74557686               -7.99553400               -8.92954603               42.62258759              -28.52312829
              25.74937877                0.85958027               65.46474952                0.00010000                2.49351209                2.60871110              -11.70989661               -8.57382427               41.03487167              -34.87113194
              26.78117619               -0.82110716               65.07317843                0.00010000                4.01135083                3.81546209              -16.02412436               -7.17242411               38.69368482              -43.08312492
              27.82960579               -2.48088765               64.65106729                0.00010000                5.94976042                5.43427281              -21.27772945               -3.91890212               34.19412037              -55.27931743
              28.90017140               -4.10038274               64.16643777                0.08283053                7.96650368                7.63788369              -27.94546205               -0.56772713               20.40660253              -69.56169316
              29.98893586               -5.71426513               63.46144907                0.58107706                8.87644604                9.65980428              -31.19964336                1.85917795                9.89829976              -86.45475933
              21.38041577               11.87510932               67.95054880                0.63208918               -0.36847719               -1.00021456                2.86622799               -0.11120595                0.12609414                8.15976434
              22.37673100               10.27629655               67.08093122                0.07426708               -1.15435209                0.26602497               -0.41527241               -2.56265650               22.95528308               -7.13906107
              23.35732873                8.62456161               66.66809970                0.00010000               -1.98338298                0.73823237                1.25790634               -6.37406746               50.91253997              -12.17510482
              24.33706334                6.94586990               66.35591448                0.00010000               -1.45273865                1.48694742               -2.18359876               -8.07998478               55.79894628              -16.34859349
              25.32827396                5.26088684               66.03696009                0.00010000               -0.31103687                2.20382843               -5.63489995               -8.61389781               54.69303797              -20.65760669
              26.33084260                3.57490028               65.70177474                0.00010000                0.86863134                3.05714423               -9.37115639               -8.66126726               52.68362210              -25.51214186
              27.34564658                1.89419583               65.34270025                0.00010000                2.21624728                4.18273669              -13.64983358               -8.05222312               49.83253631              -31.33249711
              28.37516755                0.22677903               64.95022870                0.00010000                3.94957966                5.63121387              -18.78255926               -6.40446051               45.84670922              -38.66985714
              29.42463818               -1.41568200               64.50947420                0.00010000                6.47372914                7.39791642              -25.20384341               -2.96577624               40.08036651              -47.66725949
              30.50464213               -3.01515029               63.99682002                0.08749408                9.37931085                9.31717745              -33.61344481                0.15973327               23.85964866              -57.94151808
              31.61222439               -4.61185808               63.22571407                0.58412050               10.75822629               10.88371471              -37.43033212                1.99889288               11.28571802              -72.67994725
              22.97181313               12.86594089               67.77289579                0.62579299               -0.17477962               -0.83808022                2.39519095               -0.11070347                0.13477729                8.17360025
              23.97006534               11.28004485               66.82703872                0.06980435               -0.91508169                0.48816325               -1.23145470               -2.89494568               28.84090452               -7.04719200
              24.95351150                9.63458949               66.45541608                0.00010000               -1.80586132                1.21730214                0.73143365               -6.68852179               62.66912183              -10.63383016
              25.93394811                7.96429413               66.18178314                0.00010000               -1.45839688                2.08169484               -2.76263080               -8.03231569               67.44887577              -13.97805758
              26.92434356                6.28749529               65.90020474                0.00010000               -0.45882483                2.95699596               -6.39987200               -8.28749609               66.10922107              -17.52250068
              27.92477162                4.61132998               65.59777273                0.00010000                0.60559999                4.04396790              -10.44392919               -7.99361108               63.52816332              -21.59094373
              28.93645556                2.94323500               65.26355642                0.00010000                1.90965948                5.43722088              -15.18644703               -7.07325093               59.84417263              -26.46713446
              29.96296480                1.29151712               64.88594469                0.00010000                3.78820052                7.12539078              -21.00892319               -5.23597436               54.95451345              -32.36592639
              31.01221957               -0.33292932               64.45081486                0.00010000                6.82886727                8.98644562              -28.47892794               -1.83006512               48.58550902              -39.36447594
              32.09954215               -1.91403919               63.94057971                0.09287230               10.50548678               10.78902894              -38.52253589                0.84651529               29.01860118              -47.25074559
              33.22232931               -3.49659083               63.10863642                0.58795887               12.27871585               12.22203624              -42.65819637                2.09832466               13.25324686              -61.56002396
              24.54999378               13.85834772               67.59526568                0.62046140                0.01897066               -0.68333575                1.92417978               -0.11100842                0.13911529                8.10136051
              25.55018349               12.28605981               66.57351172                0.06731375               -0.53423830                0.71891790               -2.04872971               -3.15950091               35.41726192               -7.02569141
              26.53930902               10.64890765               66.25733879                0.00053925               -1.33361339                1.55389223                0.15605646               -6.80999961               75.59438169               -8.91076595
              27.52351122                8.98750380               66.03210135                0.00010000               -1.19104185                2.37190204               -3.22675453               -7.72096140               80.02589276              -11.18567909
              28.51548818                7.32002676               65.79691972                0.00010000               -0.41402731                3.33461465               -6.91008692               -7.52269931               78.43701525              -13.78481001
              29.51523067                5.65577964               65.53662936                0.00010000                0.42531250                4.64357573              -11.12158510               -6.82590163               75.40063898              -16.89025682
              30.52399443                4.00294024               65.23873656                0.00010000                1.56908529                6.29015398              -16.17967394               -5.63263725               71.13965109              -20.63224328
              31.54661238                2.36928684               64.89093868                0.00010000                3.47993812                8.22466935              -22.53791264               -3.73936186               65.65285818              -25.11323575
              32.59359319                0.76404692               64.47973206                0.00010000                6.93107858               10.24466160              -30.89460723               -0.63396595               58.84052517              -30.38971708
              33.68523395               -0.79936971               63.99047814                0.09874551               11.28504872               12.00001288              -42.48148872                1.39928746               35.13171535              -36.49322296
              34.81929416               -2.36741736               63.09934350                0.59216253               13.40602136               13.60137511              -46.82272335                1.99969371               15.42258517              -50.62166015
              26.11416878               14.85227417               67.41661177                0.61624683                0.21466140               -0.53202208                1.44753247               -0.11366971                0.18304593                8.04261848
              27.11631539               13.29442321               66.31974175                0.06651757                0.08493746                0.95732143               -2.87115048               -3.46278392               42.82918611               -7.17291259
              28.11586753               11.66566733               66.07571427                0.00101216               -0.39528070                1.55080007               -0.42495422               -6.81742702               89.94939044               -6.83407748
              29.10840978               10.01173217               65.91090769                0.00010000               -0.51268950                2.13852349               -3.52933878               -6.83924089               93.70262267               -7.88563273
              30.10561374                8.35418759               65.73253863                0.00010000               -0.15348410                3.32760596               -7.09711731               -6.07080140               91.79118656               -9.50963457
              31.10534009                6.70420150               65.52495532                0.00010000                0.23409396                4.88107382              -11.30647176               -5.07212757               88.38518723              -11.58312084
              32.11029561                5.06903808               65.27557818                0.00010000                1.08654007                6.73921636              -16.48467356               -3.79813161               83.73266137              -14.12733057
              33.12707090                3.45601051               64.97214419                0.00010000                2.89505934                8.88026108              -23.15378811               -2.04449583               77.86059318              -17.18166877
              34.16819680                1.87196391               64.60163644                0.00308127                6.59606377               11.15656277              -32.16576431                0.48756422               70.66211000              -20.69888473
              35.25899217                0.32596106               64.14898354                0.10446412               11.51108397               12.91075355              -44.96549432                1.63513082               42.00495061              -24.66484198
              36.39841848               -1.22456333               63.19839491                0.59615681               13.94263098               14.74676590              -49.36079355                1.56960459               17.59337232              -38.77173581
              27.66342232               15.84770728               67.23815644                0.61121356                0.41123316               -0.37490360                0.97365991               -0.11629534               -0.14113880                7.00510126
              28.66753465               14.30520624               66.06286933                0.06628692                1.11145964                1.19404297               -3.71516424               -4.04928317               51.24728685               -6.49714600
              29.68565151               12.67992365               65.91517046                0.00148682                1.53357479                0.36882425               -0.95087693               -5.41406387              106.12195572               -3.83151614
              30.69820615               11.03027427               65.82351739                0.00010000                0.79756531                1.54827033               -3.61060659               -4.57020173              108.47357744               -4.08003952
              31.70160282                9.38657888               65.71161481                0.00010000                0.03657404                3.12896710               -6.90755270               -3.50552015              106.14514588               -4.83517306
              32.69893763                7.75340111               65.56747146                0.00010000               -0.26900164                4.92953871              -10.91544048               -2.71452235              102.51726716               -5.87132385
              33.69622279                6.13772457               65.37905228                0.00010000                0.19295003                6.91633769              -15.95525943               -1.79627917               97.66063582               -7.16790194
              34.70279663                4.54689206               65.13436252                0.00010000                1.85855671                9.11260324              -22.59971821               -0.54663091               91.64645532               -8.74828587
              35.73339392                2.98717817               64.82200651                0.00678912                5.58335915               11.50645299              -31.84016029                1.03387273               84.48620062              -10.53445738
              36.81446381                1.45884536               64.42909042                0.10974939               10.91705624               13.42823734              -45.40428990                1.38609433               49.96427443              -11.73345910
              37.95173505               -0.07248204               63.41743103                0.59923484               13.72712333               14.99900211              -49.71823991                0.68890029               19.61052861              -23.53334665
              29.19684494               16.84477610               67.03901205                0.80477283                0.62684147               -0.29311780                0.39603465                0.69505850                3.17813695                5.96465582
              30.20311335               15.31830407               65.82211099                0.53425637                4.28366423                1.30978222               -4.48589664               -5.02874394               62.38729402               -5.66350630
              31.28251822               13.67304382               65.78910318                0.45907971                5.36185810               -0.68798354               -1.20709871               -4.09365335              123.39130489               -1.88548154
              32.31035052               12.04269757               65.77408747                0.44221627                1.49291303                1.24233077               -3.43652140               -1.59940746              123.83046214               -1.95387170
              33.31237649               10.41676693               65.73697077                0.43723206               -0.52232827                3.01880515               -6.32193928               -0.91789844              121.44703675               -2.33133029
              34.29990395                8.80279227               65.66679734                0.44082920               -1.57487008                4.93911590               -9.90471811               -0.37347238              117.83613881               -2.85342568
              35.28087908                7.20736483               65.55207173                0.45280493               -1.66096366                6.96402614              -14.48354987                0.23914477              113.03711220               -3.50061441
              36.26668468                5.63826257               65.38102933                0.47381054               -0.19790644                9.13705115              -20.62712100                1.12521195              107.07018406               -4.28250000
              37.27692095                4.10209297               65.14228789                0.50473941                3.98447947               11.49148021              -29.36034001                2.16586529              100.45209022               -5.18738416
              38.34637427                2.59452581               64.83474747                0.55611513                9.89651683               13.56804466              -42.63259207                1.85723249               61.31395056               -4.69348450
              39.47485129                1.07541671               63.80686376                0.80014052               12.84770238               14.78987500              -46.45039136                0.40071474               25.94349534              -14.07812469
              13.73310880                7.21170262               69.93188530                0.90817774               -1.46994616               -1.64830004                5.59192119               -0.41837637               -4.54233154                5.05408268
              14.71840934                5.47768137               69.38754036                0.66136531               -1.41430111               -0.96177806                3.78449538               -0.45072041               -6.42443230               -3.72339734
              15.70482278                3.73659028               68.80624011                0.52006604               -1.25185568               -0.52457519                1.83777423               -0.47690335               -6.65755809               -0.56493055
              16.69337223                1.97982840               68.25816313                0.46874316               -0.88241929               -0.00296738               -0.00357472               -0.43422624               -4.33914542               -0.50234918
              17.68717439                0.20580029               67.72365089                0.45068044               -0.22338476                0.51462561               -1.89343121               -0.35588917               -3.09307929               -0.29857142
              18.68890453               -1.58193605               67.20032166                0.45622570                0.64497683                1.04552529               -3.82606902               -0.28556627               -2.31450267               -0.08919182
              19.70007393               -3.37582806               66.68074338                0.48619647                1.56715422                1.57326861               -5.76906542               -0.25773683               -2.38613172                0.12958421
              20.72024762               -5.16767689               66.15505553                0.54708571                2.38100929                2.08334020               -7.67525829               -0.26144958               -3.30715722                0.34041416
              21.74769412               -6.95189994               65.61588797                0.65389559                3.02459801                2.58447895               -9.54290720               -0.26790250               -4.98834248                0.43872804
              22.78073958               -8.72630017               65.05516563                0.83721934                3.53894761                3.07726689              -11.42001376               -0.27491925               -5.54463858                1.17600710
              23.81847307              -10.49167837               64.50328798                0.99578248                3.77334924                3.63642106              -13.26361855               -0.67781056               -5.01750286               -3.70873026
              15.46294629                8.19521962               69.71208582                0.73764624               -1.14879812               -1.67261789                4.89489254               -0.23000354                3.06550821                7.17592932
              16.45145831                6.46806359               69.16195041                0.21995258               -0.69830299               -0.72407482                3.09650985               -0.47175730                7.18098356               -6.83030888
              17.44898023                4.73134452               68.69460911                0.02934895                0.14833234               -0.28878488                1.66765960               -1.77175330               11.46718747               -9.52276597
              18.45442496                2.97979873               68.22997063                0.01879757                0.77587467               -1.08806251                0.13873504               -3.21479859               12.36410147              -11.15898708
              19.46449772                1.21094655               67.78040183                0.02185509                1.12190442               -0.92813152               -1.41316744               -4.23247399               13.66773548              -14.01403227
              20.47686305               -0.57148079               67.34183596                0.02876137                1.29346296               -0.54728038               -3.00634018               -4.71703361               14.38961592              -17.43929210
              21.49036698               -2.36009538               66.90675666                0.04010302                1.44030071               -0.04034107               -4.60677083               -4.58039545               14.24586882              -21.09214593
              22.50566906               -4.14684349               66.46514674                0.06020317                1.69798739                0.52237357               -6.15892595               -3.83500240               13.20343542              -24.20526927
              23.52432673               -5.92605516               66.00866021                0.14707879                2.11052677                1.27168129               -7.67069784               -2.52163732               11.74309379              -24.37611380
              24.54787959               -7.69552751               65.53684125                0.35411589                2.63732122                2.90258279               -9.17557140               -1.07534436                8.67839474               -5.85331073
              25.57707316               -9.45531416               65.01762844                0.76588856                2.91935614                3.97980878              -10.81411873               -0.17009448                6.39855860              -14.35672164
              17.18282080                9.17825027               69.53547579                0.65737157               -0.99715044               -1.59974331                4.44546868               -0.13974977                0.14434023                8.73752649
              18.17284929                7.46319987               68.87461706                0.10197431               -1.25841101               -0.36323283                2.11315287               -0.82197560                9.63565936               -8.99096563
              19.15765258                5.73081458               68.40404401                0.00010000               -1.16875305               -0.56926007                1.57164245               -4.54657571               21.86392001              -16.92961498
              20.14947423                3.95806715               67.98859939                0.00010000               -0.19240723               -1.38837238               -0.49308960               -7.40990108               24.18705205              -21.68824299
              21.15380443                2.18723766               67.56253702                0.00010000                0.80657751               -1.61004884               -2.60696484               -8.42014428               23.63640899              -27.54137918
              22.16560578                0.40711834               67.13577787                0.00010000                1.50121416               -1.34626223               -4.80630487               -9.25082838               23.46760408              -34.39135994
              23.18382872               -1.37663489               66.70746996                0.00010000                2.19507805               -0.82039927               -7.18021481               -8.99402581               23.48180777              -41.84416358
              24.20950734               -3.15722942               66.28318696                0.00010000                3.10583341               -0.08840695               -9.85871857               -7.48594235               25.75342853              -49.10651702
              25.24594538               -4.92646632               65.90373559                0.00010000                3.94921735                1.08813401              -13.46530989               -4.23546729               45.27585259              -54.47803013
              26.28849169               -6.66824852               65.87629383                0.06710955                4.43495490                3.22561085              -15.43270810               -1.02862375               36.52261497              -61.20762875
              27.33464448               -8.41208219               65.31717277                0.57135798                4.61527918                5.05005531              -14.96456574                1.10749323               11.04131743              -74.56640474
              18.89025208               10.16322476               69.34790881                0.63900714               -0.77975936               -1.40120886                3.91945439               -0.11884476                0.11491843                8.27223801
              19.88245449                8.46079893               68.60574316                0.07963705               -1.35353186               -0.14330334                1.26703097               -1.83014959               14.54121301               -7.89857059
              20.86318144                6.71995932               68.15246846                0.00010000               -1.63253160               -0.62295898                1.55321694               -5.32418880               31.71496321              -14.77664342
              21.84980385                4.95203128               67.75328576                0.00010000               -0.80688999               -0.15768287               -1.18733854               -7.38575226               34.36554714              -20.70718884
              22.84704364                3.17874557               67.35023009                0.00010000                0.29575840               -0.11694919               -3.81171517               -8.35465265               33.77353643              -26.52604665
              23.85571902                1.40159396               66.93868970                0.00010000                1.38952953                0.24805746               -6.59462796               -8.91180518               32.88076608              -33.04707947
              24.87483423               -0.37650336               66.51866649                0.00010000                2.50313113                0.89435518               -9.69330483               -8.68088594               32.21673768              -40.45399767
              25.90578164               -2.14861163               66.09582461                0.00010000                3.79011251                1.83496871              -13.30501241               -7.24445418               33.17386352              -49.21238304
              26.95063648               -3.90429247               65.69781060                0.00010000                5.35706743                3.15313736              -17.36279102               -4.29177071               31.67772235              -62.23011754
              28.01292299               -5.63101529               65.24688095                0.06555869                6.81269425                4.77065286              -22.18669441               -1.11575500               20.64486478              -96.81273932
              29.08689037               -7.35431305               64.62204528                0.56896478                7.39673752                6.91104357              -24.89799335                1.37997482               12.82451843             -114.65658146
              20.58529555               11.15022609               69.16286000                0.63033406               -0.57838139               -1.20830294                3.41981919               -0.11500307                0.12037573                8.44735570
              21.57951174                9.46033381               68.34017741                0.07066859               -1.26795467                0.05965452                0.42303367               -2.51865803               19.65627449               -7.61971393
              22.55993646                7.71835540               67.90849322                0.00010000               -1.82693981                0.20339198                1.02507772               -6.11202390               42.17014588              -13.75478974
              23.54297294                5.95491349               67.53376984                0.00010000               -1.13938805                0.73829620               -1.93524935               -7.73136666               44.93463000              -19.05022176
              24.53714870                4.18489867               67.15312667                0.00010000               -0.01771647                1.20237969               -4.97210127               -8.45047096               44.04379010              -24.60922149
              25.54261861                2.41207949               66.75896066                0.00010000                1.16339453                1.77341149               -8.25686720               -8.76586551               42.45660544              -30.78577993
              26.56041659                0.64125222               66.34609040                0.00010000                2.48943795                2.60686365              -11.98763356               -8.38844093               40.41384583              -38.07635307
              27.59240737               -1.12053005               65.91091817                0.00010000                4.10485211                3.72487676              -16.34855870               -6.97999631               37.35078416              -47.41029728
              28.64251363               -2.86340357               65.43599341                0.00010000                6.18948982                5.09652734              -21.56923801               -3.99216933               31.76892663              -61.22451837
              29.71619717               -4.57283546               64.88608915                0.06816892                8.31629375                6.81642534              -27.85707987               -0.89705871               18.78461853              -77.60684133
              30.80883950               -6.27386132               64.14628628                0.56996707                9.26423375                8.75227800              -31.47783599                1.29376356                9.61347010              -95.98354855
              22.26773658               12.13905870               68.97954184                0.62291972               -0.37845654               -1.03060114                2.93002264               -0.11226685                0.13010163                8.54731700
              23.26395202               10.46199202               68.07678455                0.06379696               -1.06876507                0.27600758               -0.41172297               -2.95818704               25.24017039               -7.44166198
              24.24636128                8.72402716               67.67642637                0.00010000               -1.76593859                0.85619154                0.35917721               -6.65969480               53.36317846              -12.40166253
              25.22863324                6.96679720               67.33163601                0.00010000               -1.27465298                1.56793017               -2.71371483               -7.91390711               56.05426414              -17.03840096
              26.22086822                5.20279316               66.97878879                0.00010000               -0.22925373                2.26053516               -6.02038472               -8.43584942               54.84013287              -21.95437504
              27.22404817                3.43706219               66.60637457                0.00010000                0.94033673                3.08376037               -9.70551928               -8.48675335               52.50803625              -27.53575857
              28.23967496                1.67563391               66.20436376                0.00010000                2.33946689                4.14638979              -13.97490766               -7.90458948               49.07087057              -34.23001204
              29.27083751               -0.07411409               65.76032446                0.00010000                4.17117782                5.46842776              -19.08765173               -6.39031319               44.13418508              -42.68399336
              30.32309851               -1.80236193               65.25537849                0.00010000                6.73010307                7.01699186              -25.37269759               -3.39796940               36.86998341              -53.18761090
              31.40543957               -3.49468678               64.66033019                0.07245010                9.58594239                8.72405920              -33.23803316               -0.43087933               21.67657843              -65.67997755
              32.51481736               -5.17926749               63.84797364                0.57264456               10.93777907               10.27025763              -37.52915859                1.51629126               10.86416477              -81.68937010
              23.93718356               13.12961407               68.79711885                0.61692431               -0.18040304               -0.86231526                2.44702155               -0.11073599                0.13837489                8.56723116
              24.93537953               11.46585396               67.81464257                0.05924571               -0.76230899                0.50076166               -1.24507216               -3.24325837               31.39247596               -7.35197392
              25.92193738                9.73547923               67.45735809                0.00010000               -1.47253677                1.37149335               -0.35661544               -6.96289666               65.55152174              -10.89947486
              26.90592880                7.98627209               67.15099631                0.00010000               -1.18853324                2.20260549               -3.42949694               -7.91748297               67.98690203              -14.58335421
              27.89816672                6.23010938               66.83388486                0.00010000               -0.29430000                3.03998539               -6.88674806               -8.14867748               66.44482122              -18.62213423
              28.90004280                4.47375470               66.49126946                0.00010000                0.76671816                4.07722959              -10.85524023               -7.87916009               63.45125301              -23.31948329
              29.91350108                2.72418001               66.10955848                0.00010000                2.12770729                5.39395835              -15.56627480               -7.04648308               59.04815735              -28.98816531
              30.94259694                0.98883851               65.67350408                0.00010000                4.08129234                6.96937067              -21.34652576               -5.43123446               52.97466821              -35.93003986
              31.99512693               -0.72306373               65.16359836                0.00010000                7.09440999                8.70696822              -28.65882644               -2.51063990               44.65399902              -44.39706220
              33.08448514               -2.39835428               64.55386536                0.07697735               10.65999100               10.44784766              -38.17508060                0.15241808               26.41538529              -54.58448845
              34.20832675               -4.06845617               63.67641818                0.57584168               12.38416055               11.93969661              -42.97688688                1.69888093               12.94568129              -70.08938317
              25.59304208               14.12181239               68.61472484                0.61204004                0.01796097               -0.70217555                1.96195077               -0.11353223                0.14147804                8.49167549
              26.59322169               12.47200726               67.55284225                0.05637868               -0.31784324                0.73517086               -2.07881148               -3.45137833               38.22437248               -7.33477271
              27.58668521               10.75145703               67.25263651                0.00010000               -0.87841250                1.72768720               -1.07755052               -7.05452701               78.97099470               -9.21326322
              28.57565344                9.01084931               66.99596733                0.00010000               -0.81365734                2.51947785               -4.02294353               -7.66448838               80.98054053              -11.67345954
              29.57041206                7.26359287               66.72502310                0.00010000               -0.16295514                3.44221078               -7.49496728               -7.44912330               79.09583679              -14.64354669
              30.57239433                5.51860678               66.42297740                0.00010000                0.66247111                4.69768190              -11.61264592               -6.79798672               75.56200232              -18.25892520
              31.58366149                3.78351308               66.07446856                0.00010000                1.85311164                6.27372751              -16.62940281               -5.73109883               70.45410393              -22.67423718
              32.60945657                2.06527332               65.66278448                0.00010000                3.82085066                8.12759094              -22.94935169               -4.08793453               63.54832721              -28.08529073
              33.66007850                0.37177744               65.16753095                0.00010000                7.22118994               10.10193516              -31.19071576               -1.42213668               54.29366582              -34.74368321
              34.75388036               -1.28572983               64.56212026                0.08211801               11.44601303               11.92996552              -42.34714845                0.72873220               32.21908834              -43.10729491
              35.88899876               -2.94047356               63.62250128                0.57940563               13.51183958               13.61848677              -47.51719815                1.74591758               15.37349091              -58.34259923
              27.23452319               15.11557055               68.43123474                0.60780905                0.21841394               -0.54717000                1.47364018               -0.11747882                0.18944211                8.43199185
              28.23670733               13.48055738               67.29075312                0.05589524                0.37407986                0.97897349               -2.92032522               -3.69192401               45.89810612               -7.49747004
              29.24200479               11.77003297               67.06437397                0.00010000                0.18979287                1.73453217               -1.78128582               -6.99663818               93.88887962               -7.13883851
              30.24050319               10.03666165               66.87118247                0.00010000               -0.02890037                2.30441185               -4.43259440               -6.83024510               95.23751705               -8.22840075
              31.24142678                8.29895359               66.65833938                0.00010000                0.18298345                3.45664026               -7.77290603               -6.05782960               92.93838990              -10.09094045
              32.24416286                6.56770834               66.40910206                0.00010000                0.53928933                4.96353772              -11.87853048               -5.11304599               88.97183989              -12.52579179
              33.25221257                4.84965456               66.10791108                0.00010000                1.42055173                6.77076460              -17.01624608               -3.97460931               83.37187890              -15.57254670
              34.27257389                3.15139033               65.73733592                0.00010000                3.27373873                8.86223552              -23.66859042               -2.45628193               75.86133132              -19.36115259
              35.31768734                1.47897497               65.27572150                0.00010000                6.93684451               11.13860499              -32.63606422               -0.26884649               65.76044743              -24.04965583
              36.41131078               -0.15975497               64.69301781                0.08712091               11.75226094               13.09357683              -45.24572602                1.10369172               39.05247178              -30.05610007
              37.55273256               -1.79608643               63.69301364                0.58288996               14.14217791               15.04154537              -50.60038039                1.48136223               18.10968767              -45.14958612
              28.86071886               16.11086899               68.24797335                0.60264683                0.42019303               -0.38453844                0.98587128               -0.11815881               -0.15016164                7.34666502
              29.86492079               14.49158673               67.02534847                0.05549201                1.49646575                1.21996904               -3.78407107               -4.21449259               54.62888603               -6.79997477
              30.89064817               12.78614767               66.89813217                0.00010000                2.26035628                0.54132868               -2.37413287               -5.50803493              110.77413274               -4.01657872
              31.91012791               11.05693755               66.78256862                0.00010000                1.37803065                1.72136020               -4.59013292               -4.58384570              110.75641669               -4.25639429
              32.91820878                9.33272568               66.63898573                0.00010000                0.46522653                3.26283611               -7.65726887               -3.52268941              107.97160341               -5.11894550
              33.91943244                7.61787754               66.45522443                0.00010000                0.11392637                5.03090996              -11.56574908               -2.77081729              103.77406793               -6.34091882
              34.92048731                5.91892837               66.21632779                0.00010000                0.57890390                6.99356525              -16.58163928               -1.95260140               97.94699786               -7.90777298
              35.93101052                4.24251803               65.90460597                0.00010000                2.26797762                9.18045444              -23.24342102               -0.87619517               90.17042383               -9.90270083
              36.96584686                2.59454954               65.49836162                0.00010000                6.00025395               11.60507956              -32.52483688                0.50657119               79.70949691              -12.41520530
              38.05101560                0.97614171               64.96585494                0.09185832               11.27210361               13.81646836              -46.22584588                1.05788982               47.40194853              -15.01254846
              39.19128894               -0.63964265               63.90592098                0.58556746               14.02733363               15.55142089              -51.51725610                0.71798110               21.06546745              -27.53970787
              30.47072455               17.10787979               68.04297766                0.80052340                0.64142515               -0.29892073                0.39382904                0.70826637                3.33793427                6.25619300
              31.47713880               15.50495676               66.77679710                0.52855526                4.78843597                1.33700305               -4.57508017               -5.12921058               66.29835908               -5.93281280
              32.56649327               13.78085955               66.76953283                0.45706942                6.25547352               -0.52881253               -2.63241382               -4.10888535              128.89955869               -2.04503707
              33.60224827               12.07108886               66.73481265                0.44200961                2.17698681                1.41513076               -4.43358433               -1.62042568              126.94508183               -2.10623247
              34.61003301               10.36421032               66.67009356                0.43726896                0.01477741                3.14846408               -7.10828081               -0.95569383              124.15164760               -2.53003544
              35.60254382                8.66832654               66.56443825                0.44067735               -1.07564788                5.04490018              -10.62413973               -0.42308478              120.05806573               -3.15485165
              36.58852005                6.98952587               66.40367561                0.45202035               -1.15574993                7.05975006              -15.22729187                0.13691744              114.41479116               -3.96239882
              37.57942882                5.33499942               66.17042073                0.47173156                0.28375204                9.24813868              -21.45573414                0.91936453              106.82198970               -5.00076648
              38.59419509                3.71107656               65.84245858                0.50074722                4.36159729               11.65270240              -30.32611171                1.91357157               96.93008450               -6.38555517
              39.66666077                2.11657440               65.39764017                0.54737802               10.22329076               14.04326919              -43.97885790                1.75778786               60.18007976               -6.92013094
              40.79866090                0.51494198               64.32754272                0.79347464               13.20001368               15.45846364              -48.68393479                0.57395513               29.06848382              -16.78429696
              14.24021947                7.48638044               70.98845175                0.90278880               -1.50260562               -1.68431263                5.71507485               -0.42946967               -4.71208010                5.22225319
              15.22519342                5.66870460               70.42579980                0.65394394               -1.45376388               -0.98023986                3.86451134               -0.47184453               -6.66006409               -3.87717722
              16.21114419                3.84356866               69.82483021                0.51669688               -1.28699932               -0.53509048                1.87974632               -0.48382782               -6.90900580               -0.53742019
              17.19945343                2.00229436               69.25814527                0.46774382               -0.89084402               -0.00036985                0.00136274               -0.43521657               -4.56471216               -0.49799369
              18.19332731                0.14366764               68.70454215                0.45079890               -0.20495197                0.52979036               -1.92641867               -0.36030588               -3.36671813               -0.29681289
              19.19535439               -1.72844110               68.16170034                0.45660991                0.68143632                1.07260122               -3.89795765               -0.29488446               -2.62399916               -0.09084942
              20.20695604               -3.60638284               67.62240453                0.48628603                1.61676778                1.61447125               -5.88548230               -0.26475114               -2.68984359                0.12497400
              21.22768975               -5.48199166               67.07744774                0.54527123                2.44263967                2.14027676               -7.83870803               -0.27038565               -3.57816510                0.33288362
              22.25580883               -7.34968672               66.51935888                0.64916137                3.09684196                2.65383879               -9.75423694               -0.27476922               -5.25062366                0.43091841
              23.28962659               -9.20740678               65.93965658                0.82584333                3.61977621                3.15900906              -11.67084771               -0.28033694               -5.79617661                1.18327254
              24.32820436              -11.05609177               65.36917659                0.98718932                3.85777734                3.72802855              -13.55462090               -0.67904247               -5.25431090               -3.85411652
              16.05360062                8.46953731               70.76157495                0.72707331               -1.17197554               -1.71490081                4.99893202               -0.24031557                3.24128564                7.47297033
              17.04188086                6.65890220               70.19324445                0.20727705               -0.70447920               -0.73148293                3.16068590               -0.50104584                7.54261127               -7.13025955
              18.03951103                4.83821775               69.71140065                0.03020591                0.15854546               -0.51276654                1.69298942               -1.84097544               11.96556381               -9.44351605
              19.04505177                3.00229067               69.23130291                0.01987226                0.77904759               -1.16156899                0.12642219               -3.23297487               12.80034181              -11.56215248
              20.05509199                1.14896555               68.76598918                0.02298592                1.11895067               -0.94645267               -1.46770577               -4.23317006               14.06718046              -14.85954600
              21.06743079               -0.71771508               68.31128305                0.03012539                1.29959138               -0.53230033               -3.10386449               -4.72807358               14.76333301              -18.75577101
              22.08108381               -2.59023812               67.85991608                0.04198903                1.46035219               -0.01026025               -4.75024547               -4.63585890               14.64030389              -22.96631768
              23.09663783               -4.46058890               67.40254333                0.06279727                1.73424440                0.55655158               -6.35641941               -3.98629317               13.64208505              -26.82543036
              24.11576870               -6.32314833               66.93069593                0.14010177                2.16939580                1.25118016               -7.91481436               -2.87423836               12.20363051              -28.21678904
              25.14002574               -8.17581669               66.44362297                0.33989920                2.71651117                3.04913381               -9.46023144               -1.35352998                9.07616891              -10.86314643
              26.17009892              -10.01881149               65.90787141                0.75569637                3.00731799                4.16122570              -11.13316184                0.11818951                6.72832326              -18.45463579
              17.85668339                9.45208242               70.58040811                0.64763404               -1.01913289               -1.64520750                4.53999977               -0.13840242                0.12430543                9.12578751
              18.84649206                7.65407494               69.89600039                0.09079285               -1.28735848               -0.35985202                2.16208630               -1.08889299               10.52568029               -9.36947478
              19.83093622                5.83331333               69.42005835                0.00010000               -1.12229611               -0.83561003                1.57530962               -4.70970854               22.87381601              -16.94109845
              20.82404614                3.97906298               68.98312276                0.00010000               -0.11332789               -1.51061347               -0.62078945               -7.25631578               24.45757333              -22.48371090
              21.82866966                2.12473859               68.53588184                0.00010000                0.79752247               -1.63714965               -2.73192029               -8.34674615               23.90067173              -29.19640451
              22.83999659                0.26091290               68.08702342                0.00010000                1.42215061               -1.32102784               -4.94338648               -9.19917138               23.61605793              -36.96812717
              23.85711268               -1.60658804               67.63481344                0.00010000                2.04387488               -0.77203338               -7.34055128               -8.99143427               23.38613256              -45.49991052
              24.88087409               -3.47086063               67.18339226                0.00010000                2.82195938               -0.04600945              -10.07327225               -7.61158119               25.01663508              -54.12885115
              25.91355186               -5.32466311               66.76774188                0.00010000                3.86725301                1.09603513              -13.73500423               -4.25467185               44.05468504              -61.15715864
              26.95821915               -7.14642411               66.70508673                0.05559578                5.15029392                3.09293102              -18.91387637               -0.84740373               37.39706593              -69.95588815
              28.01655774               -8.97286726               66.15277606                0.56359857                5.83385948                4.57560913              -18.28738986                1.52262797               14.16902551              -84.34443894
              19.64684754               10.43663316               70.38752539                0.62941788               -0.79754380               -1.44115813                4.00114395               -0.11774975                0.11718583                8.63794630
              20.63887210                8.65170516               69.61860019                0.06931637               -1.32593599               -0.13931269                1.30503369               -2.16783257               15.88839370               -8.20918326
              21.62032882                6.82150555               69.16544878                0.00010000               -1.51859536               -0.62710964                1.02649437               -5.50931466               33.16583090              -14.91355960
              22.60850019                4.97207840               68.74017736                0.00010000               -0.70108346               -0.19312431               -1.45828727               -7.16984736               34.54006074              -21.54326795
              23.60630715                3.11622255               68.31110419                0.00010000                0.31368971               -0.10314987               -4.02483747               -8.17734114               33.92584220              -28.13217868
              24.61477399                1.25586436               67.87178315                0.00010000                1.33607538                0.29368679               -6.78387557               -8.72118058               32.83005995              -35.52414961
              25.63302866               -0.60567879               67.42068878                0.00010000                2.38536440                0.94719873               -9.87880102               -8.43939715               31.76966828              -43.93334288
              26.66248128               -2.46150909               66.96151234                0.00010000                3.66050404                1.85238389              -13.51109342               -6.90670251               32.16743761              -53.83718099
              27.70623874               -4.30122762               66.52128223                0.00010000                5.44002708                3.08586035              -17.87486289               -3.80937565               30.08009937              -67.94049509
              28.77128182               -6.11395807               66.02279485                0.05140575                7.35995261                4.02276479              -22.59662103               -0.93599647               19.57429428             -104.05442773
              29.85343779               -7.92729931               65.36773393                0.55797064                8.21559728                5.65013994              -25.89061010                0.87853971               12.49085238             -124.41853029
              21.42418441               11.42325926               70.19740909                0.62112691               -0.59213829               -1.24181726                3.49000307               -0.11281447                0.12351977                8.83323967
              22.41826302                9.65128869               69.34451714                0.05982244               -1.19038572                0.06464950                0.44607947               -2.83551743               21.27549100               -7.92630982
              23.40037669                7.82077113               68.91493915                0.00010000               -1.61654157                0.30789670                0.27650514               -6.33380838               43.98382982              -14.06045381
              24.38593219                5.97520050               68.51229502                0.00010000               -0.95199069                0.78985079               -2.37757499               -7.54047670               45.21913677              -19.88634239
              25.38133688                4.12267559               68.10189810                0.00010000                0.07710652                1.24092941               -5.28390781               -8.21914819               44.17391678              -26.12073287
              26.38747432                2.26678663               67.67510106                0.00010000                1.21806498                1.80059730               -8.50856415               -8.48326436               42.29590952              -33.08314455
              27.40569818                0.41235593               67.22499684                0.00010000                2.54072740                2.59031496              -12.19718501               -8.02570722               39.76969663              -41.28357538
              28.43828887               -1.43381295               66.74620726                0.00010000                4.20575797                3.60111659              -16.51781293               -6.54732983               36.01953463              -51.66345969
              29.48981334               -3.26294591               66.21968253                0.00010000                6.36410140                4.70942304              -21.56769261               -3.81812386               29.56011738              -66.75011102
              30.56557090               -5.06596881               65.60929617                0.05413849                8.54988335                5.87160148              -27.32715062               -1.13109086               17.17214835              -84.75606949
              31.66081100               -6.85986446               64.83189235                0.55925448                9.52401056                7.57609646              -31.10788439                0.64958544                9.01425476             -104.27125360
              23.18853240               12.41179682               70.00914925                0.61412582               -0.38825208               -1.05783741                2.98777005               -0.11242782                0.13292359                8.94345994
              24.18464988               10.65299815               69.07269676                0.05311263               -0.93957807                0.28294917               -0.40345989               -3.23603706               27.07539949               -7.74451085
              25.16974084                8.82766349               68.67528325                0.00010000               -1.44318392                0.98093584               -0.54557100               -6.86556151               55.52223661              -12.76782792
              26.15578620                6.98787541               68.30164018                0.00010000               -0.97013944                1.65476110               -3.29252531               -7.76975778               56.53567633              -17.83114867
              27.15033805                5.14104114               67.91655240                0.00010000               -0.01789213                2.30713552               -6.43452499               -8.21845769               55.05696831              -23.31787455
              28.15542836                3.29187631               67.50766436                0.00010000                1.13880247                3.07754282              -10.02653335               -8.21324498               52.33475557              -29.59350402
              29.17311410                1.44612751               67.06320210                0.00010000                2.57040794                4.05054811              -14.21300306               -7.59385719               48.29374647              -37.11754791
              30.20683652               -0.38948675               66.56847566                0.00010000                4.44590083                5.21346317              -19.17985381               -6.15186248               42.47030832              -46.59081369
              31.26203212               -2.20703916               66.00202024                0.00010000                6.93710189                6.49614427              -25.11373428               -3.59571741               33.98300928              -58.40835229
              32.34557856               -3.99652604               65.33205935                0.05796690                9.60943414                7.92248902              -32.12551393               -0.96395351               19.52649736              -72.72241306
              33.45422080               -5.77577738               64.47513090                0.56170067               10.86422437                9.34791625              -36.57457712                0.84118139               10.02206037              -89.89763776
              24.93953319               13.40210251               69.82183622                0.60838166               -0.18575737               -0.88657408                2.49112588               -0.11267787                0.13887582                8.96488181
              25.93767561               11.65694767               68.80213728                0.04872225               -0.56724949                0.51278278               -1.25151854               -3.48016372               33.42586887               -7.65477018
              26.92818820                9.84038985               68.44828378                0.00010000               -1.02581173                1.49815098               -1.38575219               -7.13944815               68.08317169              -11.29485526
              27.91715938                8.00829572               68.11319321                0.00010000               -0.76106843                2.29865158               -4.12697924               -7.83111543               68.76723700              -15.29134344
              28.91296683                6.16881830               67.76246978                0.00010000                0.04818376                3.08300829               -7.40083693               -7.99507190               66.85564577              -19.79049909
              29.91812305                4.32833749               67.38066793                0.00010000                1.11086307                4.04461148              -11.25311791               -7.69272534               63.37098370              -25.07803369
              30.93518409                2.49336690               66.95223093                0.00010000                2.51476183                5.24876975              -15.84738218               -6.88629278               58.22352911              -31.48722519
              31.96841829                0.67045631               66.45901417                0.00010000                4.48770924                6.66179702              -21.42612066               -5.43549508               51.02752488              -39.38921390
              33.02493828               -1.13302302               65.87763833                0.00010000                7.33058738                8.20446358              -28.28823797               -2.99383643               41.05167841              -49.18104967
              34.11503004               -2.90751903               65.17707809                0.06206930               10.55995115                9.79289936              -36.73932972               -0.54081400               23.73357002              -61.33754400
              35.23613730               -4.67290614               64.24909868                0.56431779               12.11072598               11.24562843              -41.79001453                1.05034686               11.97366053              -77.97141123
              26.67658853               14.39406534               69.63450470                0.60318554                0.01707368               -0.72185061                1.99273932               -0.11177024                0.14878288                8.88913879
              27.67675927               12.66325380               68.53193549                0.04593728               -0.04923528                0.75099563               -2.10070369               -3.64880820               40.46881258               -7.64456203
              28.67560383               10.85762651               68.23578778                0.00010000               -0.30119136                1.85025270               -2.20026910               -7.21888934               81.94745092               -9.62453420
              29.67073544                9.03384844               67.95164248                0.00010000               -0.26044914                2.61335698               -4.82486185               -7.64449347               82.18386814              -12.26513714
              30.67039484                7.20270131               67.64702038                0.00010000                0.31449086                3.47939193               -8.10825197               -7.37923993               79.83231030              -15.57064727
              31.67702526                5.37276853               67.30437644                0.00010000                1.14372907                4.65505702              -12.09674550               -6.72581346               75.70940783              -19.65279784
              32.69326942                3.55110290               66.90614850                0.00010000                2.37456366                6.11805117              -16.98050713               -5.73520521               69.71477142              -24.68485485
              33.72451653                1.74374919               66.43195164                0.00010000                4.34306511                7.82548310              -23.07568073               -4.29919941               61.43014681              -30.94501128
              34.78013073               -0.04294989               65.85591774                0.00010000                7.50644298                9.65815764              -30.82600171               -2.08158277               50.02858108              -38.86671332
              35.87464539               -1.80066805               65.14353517                0.06616698               11.29356105               11.43117051              -40.77670027               -0.00977434               29.10568435              -49.25981717
              37.00600195               -3.55086481               64.14899954                0.56711254               13.13565564               13.09656930              -46.31659713                1.20448803               14.47576049              -65.57472607
              28.39892085               15.38766550               69.44608457                0.59963444                0.22174342               -0.55838373                1.49298214               -0.11577622                0.19642308                8.83032088
              29.40113828               13.67196758               68.26133525                0.04589165                0.71474625                0.99544857               -2.95963738               -3.85381548               48.37488926               -7.82658954
              30.41321577               11.87739490               68.04008856                0.00010000                0.90282131                1.84033541               -2.95943042               -7.15472674               97.40803812               -7.53219752
              31.41919471               10.06056286               67.82225580                0.00010000                0.66230832                2.38338766               -5.32623326               -6.86216467               97.01649142               -8.66258704
              32.42646194                8.23840614               67.57708051                0.00010000                0.80052405                3.48722382               -8.48271974               -6.05699986               94.15749712              -10.73506860
              33.43520519                6.42143863               67.28738471                0.00010000                1.15186974                4.92390106              -12.45974705               -5.13132731               89.52389821              -13.48936929
              34.44949933                4.61572792               66.93525326                0.00010000                2.06409545                6.63508390              -17.46666531               -4.09804374               82.91977709              -16.98226188
              35.47648710                2.82696597               66.49877239                0.00010000                3.91122639                8.60020262              -23.89869740               -2.79665213               73.78532622              -21.42472816
              36.52772386                1.06014013               65.94891515                0.00010000                7.31311843               10.75434438              -32.37852544               -0.98287175               61.01501410              -27.17654585
              37.62274947               -0.67889562               65.24406902                0.07063784               11.64483512               12.73200466              -43.77799197                0.45915745               35.69264819              -35.15501033
              38.76062056               -2.41097475               64.18638730                0.56994682               13.78710975               14.65297677              -49.65858305                1.13760608               17.50288043              -51.22466440
              30.10566885               16.38289766               69.25787387                0.59440079                0.42847095               -0.38870772                0.99077364               -0.12129389               -0.15955393                7.69487580
              31.10995356               14.68316278               67.98718790                0.04547513                1.91225839                1.23914866               -3.84086445               -4.35386867               57.40754362               -7.10893345
              32.14391401               12.89443321               67.86768780                0.00010000                3.12636780                0.59734167               -3.57804227               -5.61842567              114.97239644               -4.26163327
              33.17248091               11.08151620               67.73171474                0.00010000                2.22325310                1.77610009               -5.55438805               -4.62453568              113.26255329               -4.49259329
              34.18837908                9.27244578               67.55846943                0.00010000                1.22980112                3.27722118               -8.45520749               -3.54738671              109.84295512               -5.44651716
              35.19707693                7.47124656               67.33615648                0.00010000                0.87010663                4.99144932              -12.25397046               -2.81815889              104.94928101               -6.82576685
              36.20578121                5.68380458               67.04741950                0.00010000                1.35471706                6.88466429              -17.16693732               -2.09001135               98.07126802               -8.62398249
              37.22417128                3.91575324               66.66949410                0.00010000                3.02768369                8.98258764              -23.64750093               -1.19065874               88.52044445              -10.97577620
              38.26633488                2.17213700               66.17150977                0.00010000                6.53860739               11.30239102              -32.50057710               -0.06009284               74.87626386              -14.11673075
              39.35494342                0.45397204               65.50457350                0.07485775               11.32887234               13.57241834              -45.10421888                0.60999908               44.17196582              -18.17944884
              40.49291233               -1.25780527               64.38708591                0.57234531               13.79689063               15.37310161              -51.01628394                0.61203357               21.19206108              -31.40254249
              31.79596474               17.37989135               69.04688863                0.79638307                0.65606149               -0.30063161                0.38312594                0.71551057                3.49623943                6.55652238
              32.80252536               15.69675056               67.73060939                0.52361726                5.32645481                1.35877786               -4.65225423               -5.27030016               69.61590049               -6.21221912
              33.90249384               13.88934174               67.73645491                0.45526677                7.30830333               -0.50914755               -3.85103331               -4.17530211              133.95127851               -2.24777452
              34.94869143               12.09608486               67.68541579                0.44177115                3.16450030                1.45686648               -5.43061309               -1.64850734              130.24617833               -2.29794105
              35.96578385               10.30395056               67.59480515                0.43731927                0.93958945                3.15047811               -7.97161478               -1.00038529              126.83107601               -2.75520168
              36.96748321                8.52126762               67.45431454                0.44047420               -0.12957109                5.00210599              -11.42394915               -0.48583998              122.09303617               -3.46438335
              37.96319242                6.75342120               67.24752589                0.45106326               -0.15708523                6.96166239              -15.99411113                0.00862693              115.47451255               -4.40704681
              38.96434151                5.00661772               66.95191464                0.46964834                1.25553913                9.08644841              -22.14719685                0.65536085              106.19355036               -5.66626047
              39.98830321                3.28618795               66.53576566                0.49695327                5.02751034               11.40509581              -30.73015083                1.49358359               93.00111222               -7.44042675
              41.06489172                1.59255275               65.95517031                0.53864508               10.40563254               13.85807086              -43.58114364                1.50979578               58.10812498               -9.14129914
              42.19641586               -0.10351272               64.83318507                0.78686465               13.15241410               15.42925546              -49.01105688                0.74380635               30.76223531              -19.50838104
              14.76417110                7.76990127               72.04618679                0.89707645               -1.53415054               -1.71785999                5.83121110               -0.43908328               -4.88136440                5.39241028
              15.74882959                5.86524852               71.46483059                0.64636957               -1.49369569               -0.99907158                3.94074766               -0.49448842               -6.89369170               -4.03110109
              16.73429719                3.95270100               70.84383503                0.51332202               -1.32317758               -0.54549398                1.92158727               -0.49117814               -7.15462620               -0.50866484
              17.72236604                2.02355324               70.25819038                0.46659587               -0.90061093                0.00249499                0.00778177               -0.43883009               -4.78053024               -0.49332168
              18.71628497                0.07696997               69.68512252                0.45082615               -0.19019391                0.54459627               -1.95599715               -0.36596232               -3.63289024               -0.29377813
              19.71856216               -1.88291846               69.12236251                0.45702207                0.71223429                1.09991660               -3.96445546               -0.30201713               -2.92374627               -0.09263438
              20.73052965               -3.84835167               68.56303373                0.48605930                1.65839004                1.65210265               -5.98670132               -0.27628390               -2.99025716                0.11926139
              21.75172996               -5.81121040               67.99828137                0.54356102                2.49715774                2.19137790               -7.98637453               -0.28010609               -3.85463958                0.32241148
              22.78047281               -7.76595567               67.42080323                0.64412879                3.16341865                2.71817333               -9.94713177               -0.28316510               -5.51357275                0.42253963
              23.81499834               -9.71056750               66.82174867                0.81403066                3.69370110                3.23469172              -11.90319551               -0.28681897               -6.05026808                1.18568802
              24.85434683              -11.64615035               66.23219557                0.97838861                3.93484915                3.81440103              -13.83029086               -0.67869580               -5.49904414               -3.99631248
              16.66443302                8.75272267               71.81206446                0.71633991               -1.19481716               -1.75428452                5.09836586               -0.24892459                3.42342231                7.77648591
              17.65248484                6.85525780               71.22516413                0.19439502               -0.70999869               -0.73969407                3.22297007               -0.52967749                7.91213716               -7.43104810
              18.65023304                4.94724606               70.72846890                0.03111854                0.16792062               -0.73782650                1.71894336               -1.89851317               12.47205523               -9.39595482
              19.65584326                3.02357819               70.23249907                0.02097741                0.78140775               -1.20173799                0.11419692               -3.21969819               13.24113238              -12.02215667
              20.66586120                1.08241593               69.75104771                0.02414165                1.11797772               -0.93877050               -1.52011836               -4.19326270               14.47298030              -15.73321263
              21.67820281               -0.87191930               69.27975867                0.03150022                1.30257919               -0.49129190               -3.19740744               -4.69066978               15.14225601              -20.07831442
              22.69191278               -2.83183064               68.81175175                0.04382466                1.47640472                0.04729339               -4.88354398               -4.63622255               15.02680864              -24.83379799
              23.70773091               -4.78929662               68.33801835                0.06521870                1.77034634                0.62174733               -6.53871397               -4.08808290               14.06938924              -29.42996764
              24.72731971               -6.73877394               67.85036392                0.13266578                2.22482913                1.28799398               -8.14554478               -3.20260744               12.66224956              -32.06025583
              25.75222749               -8.67822058               67.34763662                0.32583885                2.79115080                3.20146683               -9.73059167               -1.64159517                9.47316292              -17.51508934
              26.78314272              -10.60800634               66.79496520                0.74557112                3.09152353                4.36584306              -11.43884347                0.43639926                7.05809957              -24.22550314
              18.55412234                9.73481558               71.62627579                0.63794539               -1.04096849               -1.68699853                4.63064162               -0.13543472                0.10183343                9.52042060
              19.54371265                7.85045464               70.91785879                0.07945505               -1.30579029               -0.35796433                2.21037429               -1.35284930               11.38603848               -9.74540954
              20.52800653                5.93794447               70.43555021                0.00010000               -1.04552232               -1.02193654                1.46675857               -4.81241543               23.85107784              -17.17281593
              21.52280221                3.99951848               69.97618360                0.00010000               -0.00446646               -1.57922678               -0.77395402               -7.03217531               24.71644322              -23.38936191
              22.52791720                2.05819456               69.50789861                0.00010000                0.80965674               -1.61650951               -2.86850161               -8.20846442               24.18743722              -30.91142244
              23.53899534                0.10725570               69.03691014                0.00010000                1.36326597               -1.25236888               -5.07786841               -9.05337689               23.77898582              -39.56566330
              24.55518252               -1.84740580               68.56065894                0.00010000                1.89581308               -0.67614905               -7.47851951               -8.87227585               23.30707491              -49.14901484
              25.57691160               -3.79877545               68.08172152                0.00010000                2.50810498                0.05631880              -10.23706057               -7.59919760               24.30502249              -59.12084117
              26.60534462               -5.74019579               67.62903550                0.00010000                3.72436170                1.18654590              -13.98863556               -4.20632290               41.31431864              -67.93220821
              27.65139884               -7.64653816               67.49801630                0.04507306                5.86508550                3.09536459              -22.31620146               -0.64540058               36.72410633              -78.76562657
              28.72264633               -9.55883349               66.95142498                0.55653210                7.12474950                4.31031939              -22.28513431                1.95479322               17.18292296              -94.43159448
              20.43044620               10.71898270               71.42793169                0.62004281               -0.81472351               -1.47742797                4.07775758               -0.11704274                0.12117257                9.00861233
              21.42229897                8.84809852               70.63184384                0.05862185               -1.27626573               -0.13717982                1.34279943               -2.41982641               16.96676649               -8.51587302
              22.40492089                6.92680733               70.17299835                0.00010000               -1.36746530               -0.53163046                0.51565540               -5.61381070               34.46248224              -15.35420013
              23.39494966                4.99199366               69.72412001                0.00010000               -0.54830972               -0.18973305               -1.75898869               -6.95635320               34.87180292              -22.50023240
              24.39395469                3.05008574               69.26973334                0.00010000                0.38929855               -0.05793743               -4.25292821               -7.95282757               34.12284282              -29.80964817
              25.40273563                1.10303333               68.80301219                0.00010000                1.32718598                0.36398509               -6.96519299               -8.44983256               32.80390434              -38.03992409
              26.42049841               -0.84535362               68.32109047                0.00010000                2.29006564                1.02365966              -10.02047794               -8.08408830               31.34344292              -47.41976111
              27.44853695               -2.78817024               67.82560274                0.00010000                3.52287742                1.90064443              -13.62831484               -6.42443114               31.05740300              -58.42657912
              28.49095596               -4.71504302               67.34031335                0.00010000                5.47101149                3.05259931              -18.23854155               -3.14303054               28.43575963              -73.48429084
              29.55795718               -6.61631329               66.79494853                0.03799920                7.79366405                3.46584026              -22.93065393               -0.53627310               18.31216207             -109.18637257
              30.64682924               -8.52179995               66.10423307                0.54772943                8.88720675                4.60750660              -26.67341977                0.51562913               11.60530407             -131.88500143
              22.29354985               11.70526702               71.23266006                0.61219311               -0.60583514               -1.27409654                3.55509860               -0.11290551                0.12316640                9.22503060
              23.28749150                9.84771104               70.34909900                0.04951672               -1.08573339                0.06915748                0.47158339               -3.04640560               22.53463595               -8.23159606
              24.27183518                7.92731186               69.91402332                0.00010000               -1.35473819                0.42593251               -0.39635844               -6.45227597               45.55740456              -14.52251016
              25.26039673                5.99572382               69.48621834                0.00010000               -0.70070967                0.86411901               -2.82649260               -7.35740474               45.68021142              -20.84821179
              26.25782099                4.05703581               69.04744851                0.00010000                0.25206619                1.28891248               -5.60468282               -7.95798522               44.36991390              -27.71337437
              27.26543806                2.11453540               68.58878938                0.00010000                1.34416700                1.82959612               -8.74275124               -8.13052339               42.15844450              -35.43083812
              28.28470433                0.17306739               68.10214670                0.00010000                2.63371618                2.57012454              -12.34077405               -7.55288982               39.14329210              -44.50284399
              29.31811238               -1.76076256               67.58056191                0.00010000                4.29613676                3.47164798              -16.54839336               -5.96613096               34.77060294              -55.83739485
              30.37062706               -3.67914381               67.00463956                0.00010000                6.46589654                4.32791232              -21.35259184               -3.41198776               27.67156403              -71.83649218
              31.44743031               -5.57722136               66.33954614                0.04089380                8.66525907                4.96981648              -26.56181841               -1.13189339               15.75161471              -90.90589511
              32.54393224               -7.46668336               65.52412860                0.54948469                9.65019323                6.36866910              -30.32516337                0.16811159                8.31271221             -111.08261755
              24.14330005               12.69350077               71.03929724                0.60535801               -0.39740330               -1.08553801                3.03793555               -0.11145448                0.13532660                9.34198687
              25.13932602               10.84948167               70.06871535                0.04287482               -0.77187299                0.29043922               -0.39035603               -3.41084648               28.49551822               -8.04405380
              26.12786259                8.93532598               69.66551495                0.00010000               -1.06241986                1.08828630               -1.32436191               -6.97479580               57.38516715              -13.26149704
              27.11807762                7.00927604               69.26578550                0.00010000               -0.59395880                1.73595536               -3.85228263               -7.63855920               57.19273908              -18.73684988
              28.11598341                5.07586399               68.85009829                0.00010000                0.30079826                2.33978040               -6.84763405               -7.98334307               55.33822398              -24.76785739
              29.12409358                3.13962525               68.40584390                0.00010000                1.43775840                3.04732694              -10.31954739               -7.87759279               52.17598608              -31.70542133
              30.14473858                1.20604887               67.92010370                0.00010000                2.86659712                3.92108551              -14.36301728               -7.17207195               47.54177252              -40.01107628
              31.18142553               -0.71873728               67.37672739                0.00010000                4.72182114                4.91704061              -19.08851859               -5.74529910               40.94399271              -50.39540406
              32.23917500               -2.62848477               66.75310381                0.00010000                7.07166677                5.92807902              -24.55036223               -3.53550807               31.56885407              -63.30885821
              33.32285886               -4.51691696               66.01781991                0.04437446                9.49702367                7.03201942              -30.61898905               -1.28379568               17.65420375              -78.93933332
              34.42911548               -6.39442657               65.11648210                0.55159022               10.62566156                8.24651634              -34.94858686                0.24036617                9.07912325              -97.01443812
              25.97935896               13.68355626               70.84694137                0.59982024               -0.19096048               -0.90769753                2.52826359               -0.11083788                0.14262152                9.36834390
              26.97744935               11.85351983               69.78961220                0.03869610               -0.34070335                0.52181905               -1.25151171               -3.62449177               35.00547962               -7.95661786
              27.97254489                9.94907759               69.42964305                0.00010000               -0.51809090                1.59177925               -2.23728625               -7.25061233               70.27012501              -11.80035495
              28.96708754                8.03044293               69.06845672                0.00010000               -0.23699887                2.36039655               -4.78266962               -7.76127909               69.71151632              -16.10437676
              29.96780491                6.10383142               68.68586812                0.00010000                0.53068932                3.08526029               -7.90388447               -7.83100502               67.32037763              -21.04486999
              30.97770132                4.17548194               68.26620711                0.00010000                1.59102512                3.96043950              -11.61470624               -7.44907680               63.28808233              -26.88863041
              31.99962542                2.25148910               67.79261084                0.00010000                3.00193582                5.03723893              -16.02246320               -6.61302758               57.40471904              -33.98491781
              33.03774004                0.33757825               67.24498167                0.00010000                4.92355801                6.26760818              -21.27759276               -5.26032959               49.21366136              -42.75259844
              34.09809658               -1.56058223               66.59783360                0.00010000                7.49780774                7.58255608              -27.50981441               -3.21338138               38.00189678              -53.67544489
              35.18769619               -3.43658097               65.81907877                0.04797782               10.28311049                8.94999313              -34.69813376               -1.05587063               21.34400656              -67.34032403
              36.30375879               -5.30175303               64.84061789                0.55391083               11.60625931               10.25849355              -39.59697616                0.40628125               10.82432799              -84.89281524
              27.80115616               14.67534682               70.65457963                0.59492782                0.01586961               -0.73742302                2.01898974               -0.11330995                0.15301442                9.29460363
              28.80131485               12.85991805               69.51082817                0.03632772                0.23855411                0.76266702               -2.11631069               -3.77167381               42.22945198               -7.95611944
              29.80592724               10.96716156               69.20863113                0.00010000                0.33916762                1.92057073               -3.10370143               -7.33669884               84.52957018              -10.11730558
              30.80809820                9.05648397               68.89947009                0.00010000                0.41985324                2.64473606               -5.56428646               -7.64194184               83.53047904              -12.95317319
              31.81432430                7.13756920               68.56285806                0.00010000                0.96780791                3.44858732               -8.70289040               -7.30035152               80.60278743              -16.57938834
              32.82745436                5.21883404               68.18104249                0.00010000                1.80287076                4.53294884              -12.54143304               -6.60044023               75.82584703              -21.09295371
              33.85038172                3.30679365               67.73485842                0.00010000                3.04179497                5.86246141              -17.21540948               -5.63120684               68.94180617              -26.68680579
              34.88829026                1.40661488               67.20127087                0.00010000                4.93424386                7.38875297              -22.93695771               -4.33744071               59.40795922              -33.70354310
              35.94906660               -0.47683365               66.55101092                0.00010000                7.73109964                9.02171245              -29.94431913               -2.49687826               46.34375665              -42.70758911
              37.04291226               -2.33791710               65.74658626                0.05175154               10.92593154               10.63437302              -38.35463123               -0.62138222               26.21952745              -54.70861802
              38.16758523               -4.18925670               64.69616934                0.55617791               12.46729712               12.15434722              -43.78170196                0.58578090               13.20506612              -71.92182063
              29.60795030               15.66880780               70.46109438                0.59131396                0.22508322               -0.56921857                1.50426432               -0.11628546                0.20130148                9.23475720
              30.61020113               13.86877317               69.23156038                0.03590811                1.06473477                1.01079352               -2.98921952               -3.96879616               50.36224195               -8.15627483
              31.62924499               11.98748900               69.00518536                0.00010000                1.68199680                1.86935460               -3.88355922               -7.28967429              100.50332436               -7.97046061
              32.64384107               10.08333765               68.76465780                0.00010000                1.51014107                2.37208658               -6.14090388               -6.90933462               98.90367023               -9.18147593
              33.65944782                8.17280316               68.48868498                0.00010000                1.63135005                3.42507460               -9.17197234               -6.04474484               95.37967396              -11.44893931
              34.67646807                6.26614092               68.15990712                0.00010000                1.98863108                4.77991669              -13.00611898               -5.10255987               89.99997143              -14.49122544
              35.69922044                4.36873833               67.75857778                0.00010000                2.90752278                6.36912206              -17.80311328               -4.12971334               82.37128511              -18.37915723
              36.73461852                2.48535331               67.25936197                0.00010000                4.67352769                8.16226844              -23.84550225               -2.99237164               71.73351032              -23.38653813
              37.79269099                0.61985202               66.62815100                0.00010000                7.65365370               10.10990338              -31.51815974               -1.50103396               56.80772150              -30.04410830
              38.88769160               -1.22389351               65.81745797                0.05533372               11.27313094               11.96842712              -41.15618819               -0.12757921               32.42278457              -39.61804965
              40.01815361               -3.05866609               64.69984198                0.55829644               13.04620119               13.73827177              -46.99287591                0.64874848               16.27052377              -56.45174320
              31.39889971               16.66396245               70.26778882                0.58649082                0.43580156               -0.39135457                0.98885160               -0.11997613               -0.16827714                8.04451903
              32.40325773               14.88013392               68.94853118                0.03556089                2.33347786                1.25481214               -3.88517820               -4.48621914               59.70373839               -7.41685871
              33.44556927               13.00454866               68.82657132                0.00010000                4.06698111                0.54404250               -4.50632447               -5.73703868              118.74135934               -4.53377588
              34.48459735               11.10392570               68.67148086                0.00010000                3.25284368                1.71951417               -6.43631813               -4.67487203              115.82850797               -4.78312865
              35.51062614                9.20607069               68.46988158                0.00010000                2.24353252                3.18158430               -9.23937275               -3.55926873              111.66734835               -5.81929209
              36.52946800                7.31443237               68.21014502                0.00010000                1.89744582                4.82909184              -12.92152263               -2.83394334              105.97183177               -7.33689995
              37.54857506                5.43417609               67.87298904                0.00010000                2.39305689                6.62169091              -17.65555230               -2.16911812               97.99146451               -9.33431716
              38.57732914                3.56986025               67.43165595                0.00010000                3.98588385                8.57399025              -23.77892056               -1.41850688               86.75190321              -11.98125300
              39.62829274                1.72536441               66.84835007                0.00010000                7.07748225               10.69521141              -31.83773626               -0.50690647               70.44537255              -15.64153795
              40.71887878               -0.09854856               66.06377057                0.05912807               11.09063088               12.82241587              -42.56251914                0.19282903               40.82299580              -20.92092896
              41.85010535               -1.91449127               64.88559530                0.56031504               13.12265705               14.56210673              -48.52906317                0.39185334               20.38303321              -34.61790617
              33.17320783               17.66098071               70.05064017                0.79251666                0.66827068               -0.29817387                0.36424224                0.71968228                3.65306996                6.85369328
              34.17989054               15.89386941               68.68375201                0.51887149                5.87523037                1.37354910               -4.70922974               -5.46726162               72.44744848               -6.48944717
              35.29071244               13.99836985               68.69251217                0.45374924                8.44655281               -0.61788051               -4.80340976               -4.29275666              138.56327239               -2.46169489
              36.34882159               12.11772793               68.62620039                0.44147161                4.35216656                1.38022342               -6.36470079               -1.67432545              133.55889833               -2.50962421
              37.37775577               10.23643485               68.51066127                0.43731125                2.14311040                3.03641622               -8.84217968               -1.03729624              129.38127256               -2.99810875
              38.39168380                8.36272275               68.33595926                0.44018615                1.13272135                4.82903812              -12.22678315               -0.54155475              123.84490340               -3.77827730
              39.40041020                6.50117215               68.08379339                0.45026928                1.16881283                6.69960614              -16.69209939               -0.11096799              116.13116342               -4.83234619
              40.41506006                4.65683311               67.72747679                0.46763372                2.52757351                8.69728651              -22.59733430                0.40229734              105.14927249               -6.26385609
              41.45096167                2.83375625               67.22785556                0.49337465                5.81719001               10.83918365              -30.54328127                1.05297794               89.06065153               -8.33382555
              42.53140386                1.03255481               66.52601729                0.53074717               10.34572141               13.11033644              -41.66253447                1.19349750               55.43346583              -11.01183838
              43.65787610               -0.76742395               65.34732158                0.78090307               12.64722363               14.70673126              -47.33043338                0.77919819               30.98194503              -21.72719476
              15.30530459                8.06247331               73.10507597                0.89158386               -1.56332479               -1.74952699                5.93827575               -0.44926713               -5.05100109                5.55839409
              16.28967134                6.06741550               72.50461475                0.63921032               -1.53063540               -1.01624582                4.01056392               -0.51250102               -7.12223919               -4.18343797
              17.27469188                4.06412763               71.86326196                0.51010538               -1.35579999               -0.55441489                1.95989647               -0.48771664               -7.39038823               -0.47921529
              18.26255534                2.04381054               71.25830091                0.46577241               -0.90972488                0.00437735                0.01619594               -0.43527045               -4.98999834               -0.48512342
              19.25649738                0.00594170               70.66542221                0.45100957               -0.17935439                0.55835037               -1.97912591               -0.36537045               -3.89099836               -0.28890567
              20.25896825               -2.04508610               70.08241123                0.45735144                0.73673266                1.12570993               -4.02094043               -0.30840684               -3.21729818               -0.09246917
              21.27123204               -4.10143366               69.50267051                0.48581755                1.69296003                1.68943675               -6.07973961               -0.28373821               -3.28805779                0.11150666
              22.29282745               -6.15501740               68.91772025                0.54178018                2.54190192                2.23889978               -8.11715192               -0.28758382               -4.13055750                0.31284009
              23.32207008               -8.20035731               68.32041625                0.63894336                3.22007165                2.77715939              -10.11594870               -0.29004236               -5.77733124                0.40973868
              24.35722889              -10.23546893               67.70159267                0.80153084                3.76298069                3.30828197              -12.12014909               -0.29411516               -6.30553412                1.18617791
              25.39732969              -12.26155729               67.09257077                0.96933313                4.01008014                3.90063319              -14.09331077               -0.68142925               -5.74740596               -4.13907505
              17.29586973                9.04497804               72.86354227                0.70580998               -1.21505589               -1.79248523                5.19090694               -0.26002652                3.60648832                8.08003811
              18.28371917                7.05725304               72.25770385                0.18174178               -0.71262673               -0.74642287                3.27921815               -0.55637430                8.28251685               -7.72888684
              19.28161719                5.05858349               71.74577951                0.03206402                0.17882186               -0.94000386                1.74119406               -1.92288196               12.97552188               -9.43276197
              20.28729561                3.04385432               71.23358685                0.02209876                0.78374037               -1.20778684                0.10265088               -3.17935161               13.67931720              -12.54444566
              21.29729200                1.01152520               70.73558681                0.02531071                1.11381275               -0.90585927               -1.56761775               -4.12444170               14.87470259              -16.63861764
              22.30957186               -1.03382900               70.24733490                0.03287017                1.30341508               -0.42838960               -3.28452920               -4.61083804               15.51750164              -21.40834234
              23.32336030               -3.08453929               69.76224520                0.04560960                1.49207909                0.12633017               -5.01202419               -4.57943209               15.41403978              -26.68189771
              24.33941344               -5.13262840               69.27176905                0.06746957                1.80175571                0.70777733               -6.70604729               -4.11379573               14.49211070              -31.99985699
              25.35939542               -7.17258572               68.76778503                0.12534414                2.27371416                1.35503075               -8.35958881               -3.41421660               13.11580027              -35.89330242
              26.38488773               -9.20238611               68.24901113                0.31140418                2.86041733                3.32101911               -9.98905394               -1.84411656                9.87861473              -25.62809324
              27.41660376              -11.22255096               67.67909454                0.73539757                3.17160368                4.53951364              -11.73819157                0.78697247                7.40044953              -31.98595279
              19.27555406               10.02662361               72.67302094                0.62831064               -1.06156452               -1.72784539                4.71280255               -0.13480754                0.07731137                9.91823508
              20.26493841                8.05248704               71.94020788                0.06858587               -1.29605441               -0.35527773                2.25854565               -1.59372224               12.15849959              -10.11802904
              21.24963297                6.04532756               71.44939352                0.00010000               -0.94559074               -1.13175267                1.26727235               -4.85735727               24.77098902              -17.57726132
              22.24602660                4.01965481               70.96764367                0.00010000                0.10294499               -1.59076545               -0.93017907               -6.77986973               25.00597417              -24.42724489
              23.25169187                1.98782451               70.47851181                0.00010000                0.83946929               -1.55227537               -3.00885077               -8.03644344               24.50122347              -32.69764686
              24.26281598               -0.05365389               69.98546605                0.00010000                1.33754621               -1.14921811               -5.20797499               -8.84042398               23.96734645              -42.18865009
              25.27844279               -2.09890705               69.48524305                0.00010000                1.78909931               -0.55112459               -7.59687121               -8.66306487               23.26237220              -52.77525775
              26.29859797               -4.14086185               68.97865105                0.00010000                2.25503300                0.18736682              -10.35758484               -7.46783128               23.63158841              -64.05474591
              27.32354345               -6.17325670               68.48796917                0.00010000                3.58569159                1.30341114              -14.18216198               -4.09869850               37.25261443              -74.75334945
              28.37031180               -8.16904854               68.25876270                0.03495185                6.49276980                3.15853719              -24.91794996               -0.43963599               34.26613653              -87.67261068
              29.45339885              -10.17076702               67.70707337                0.54985444                8.30870481                4.24240045              -26.45262724                2.34670360               19.13536366             -104.83590780
              21.24144670               11.01042113               72.46908054                0.61099913               -0.83059298               -1.51146426                4.14701779               -0.11657411                0.12322568                9.38019897
              22.23314077                9.05014749               71.64545618                0.04857218               -1.20722092               -0.13508954                1.37946927               -2.59093149               17.80497951               -8.81672004
              23.21730229                7.03594843               71.17576189                0.00010000               -1.19697570               -0.37616145                0.08921443               -5.66680022               35.60180538              -16.00830678
              24.20920126                5.01203901               70.70499759                0.00010000               -0.37152270               -0.15420147               -2.05380467               -6.76920528               35.33201807              -23.58083902
              25.20987183                2.98047969               70.22604563                0.00010000                0.51468432                0.01093215               -4.47974692               -7.71900621               34.37395583              -31.56862408
              26.21949495                0.94318664               69.73247929                0.00010000                1.37175655                0.44960248               -7.13433561               -8.14562186               32.82083504              -40.59596800
              27.23730696               -1.09556178               69.22027922                0.00010000                2.24557576                1.10964386              -10.12539819               -7.68595034               30.97164189              -50.90481551
              28.26440646               -3.12888106               68.68894604                0.00010000                3.41505898                1.95881761              -13.66902353               -5.91728036               29.91146600              -62.96187321
              29.30560814               -5.14651750               68.15651140                0.00010000                5.45994349                3.03952424              -18.41740190               -2.48086833               26.77316720              -78.84724922
              30.37360533               -7.13921536               67.56418177                0.02536893                8.06833234                3.10452245              -23.14870059               -0.01915519               16.94876229             -112.48856395
              31.46697479               -9.13770295               66.83426554                0.53876401                9.33694577                3.85005934              -27.12922666                0.37631554               10.37797826             -136.92471849
              23.19376986               11.99639432               72.26851106                0.60347325               -0.61773821               -1.30329390                3.60898088               -0.11310566                0.12221904                9.61636442
              24.18759248               10.04978525               71.35394881                0.03967494               -0.96822103                0.07281926                0.49936158               -3.16941143               23.49215466               -8.52923780
              25.17440544                8.03780433               70.90701198                0.00010000               -1.07406256                0.54326947               -0.92338374               -6.50713647               46.90181966              -15.11292073
              26.16611123                6.01657078               70.45576516                0.00010000               -0.41206644                0.94305108               -3.23441326               -7.19523966               46.26653219              -21.92667435
              27.16616411                3.98804315               69.98980444                0.00010000                0.49168935                1.33923443               -5.91114894               -7.70301617               44.63319833              -29.39284766
              28.17594502                1.95533816               69.50024604                0.00010000                1.53136845                1.85817568               -8.95093209               -7.76548012               42.06920237              -37.83186503
              29.19679148               -0.07671418               68.97818136                0.00010000                2.76315283                2.55018146              -12.42572089               -7.06322760               38.58193159              -47.72956582
              30.23120807               -2.10168550               68.41523939                0.00010000                4.37344515                3.35332351              -16.46974501               -5.37211161               33.66958750              -59.92592180
              31.28426039               -4.11246621               67.79263069                0.00010000                6.49530395                4.00535623              -20.99935309               -2.92820341               26.13161902              -76.51273586
              32.36111415               -6.10695810               67.07805981                0.02848155                8.68199756                4.21850158              -25.72537250               -0.98103049               14.59241664              -96.20876170
              33.45790034               -8.09376583               66.22538909                0.54037913                9.67861844                5.25737620              -29.38442595               -0.10556821                7.65459156             -116.71300816
              25.13240273               12.98435526               72.06990797                0.59677097               -0.40601891               -1.11036558                3.08175221               -0.11143386                0.13807608                9.74384969
              26.12834254               11.05160387               71.06488964                0.03308949               -0.60143479                0.29586178               -0.37388851               -3.50251952               29.57598105               -8.33953948
              27.12037403                9.04681382               70.64879601                0.00010000               -0.66424481                1.17311237               -1.91745233               -7.01815557               58.95920624              -13.85326453
              28.11505764                7.03090003               70.22459453                0.00010000               -0.16649520                1.79764076               -4.34455537               -7.52480219               57.95790973              -19.74919726
              29.11704413                5.00726438               69.77959972                0.00010000                0.69425157                2.35589917               -7.22892180               -7.75449978               55.67748126              -26.30791222
              30.12894267                2.98035015               69.30127341                0.00010000                1.80109685                3.00140685              -10.57020516               -7.53127822               52.05897532              -33.87636467
              31.15306606                0.95544185               68.77594175                0.00010000                3.18867956                3.78139997              -14.43148104               -6.72261586               46.87094520              -42.91271462
              32.19271626               -1.06181459               68.18670529                0.00010000                4.96253038                4.62731798              -18.86251279               -5.27957678               39.63882781              -54.09928244
              33.25231667               -3.06641037               67.51101300                0.00010000                7.12840395                5.40135927              -23.81914456               -3.32060056               29.68531711              -67.89665584
              34.33528434               -5.05484533               66.71967957                0.03189906                9.30811149                6.19331222              -29.03984085               -1.40666635               16.19255278              -84.43820377
              35.43847890               -7.03255543               65.77615916                0.54231739               10.31945585                7.16580771              -33.11375241               -0.18874583                8.26241582             -103.18236287
              27.05704395               13.97418701               71.87240149                0.59154221               -0.19604261               -0.92754312                2.55943764               -0.11100194                0.14459137                9.77675423
              28.05508353               12.05570249               70.77710705                0.02870649               -0.11488878                0.52896823               -1.24575863               -3.69830818               36.22597554               -8.25639630
              29.05474618               10.06126658               70.40353805                0.00010000                0.00405516                1.64621286               -2.87095034               -7.29998087               72.13502612              -12.37982453
              30.05516463                8.05252359               70.01753981                0.00010000                0.34389113                2.38419336               -5.34784844               -7.70224953               70.73729995              -17.01868744
              31.06162400                6.03516114               69.60439209                0.00010000                1.09886789                3.05161502               -8.35887519               -7.66616151               67.82447685              -22.38722195
              32.07714199                4.01536629               69.14837380                0.00010000                2.14399550                3.84296468              -11.91797629               -7.18240728               63.22802507              -28.75847339
              33.10450391                1.99891382               68.63178166                0.00010000                3.51633855                4.79790022              -16.09369859               -6.28471627               56.65553310              -36.48996752
              34.14746876               -0.00913914               68.03346232                0.00010000                5.31876035                5.85563062              -20.95683490               -4.97729487               47.64266566              -46.02553364
              35.21087912               -2.00443903               67.32744204                0.00010000                7.58285636                6.94956508              -26.50294438               -3.22894573               35.59983978              -57.87920368
              36.29912588               -3.98309185               66.48311542                0.03495974                9.93332501                8.08128558              -32.52489579               -1.37087370               19.44158251              -72.63587801
              37.40954562               -5.95044968               65.45715916                0.54438850               11.04197312                9.20150562              -37.07459084               -0.11287249                9.80887365              -90.88316847
              28.96715173               14.96580439               71.67488449                0.58689294                0.01450775               -0.75177792                2.03728465               -0.11356867                0.15518599                9.69934931
              29.96729681               13.06218324               70.48960927                0.02650406                0.52007898                0.77182945               -2.12221573               -3.84288485               43.62279728               -8.26260150
              30.97755331               11.07973808               70.17371375                0.00010000                0.99106412                1.93894623               -3.75957890               -7.40803418               86.76855817              -10.66118886
              31.98711809                9.07858390               69.84035675                0.00010000                1.16624424                2.61994896               -6.19602933               -7.64187678               84.92241625              -13.72875927
              33.00087819                7.06829668               69.47296257                0.00010000                1.72118754                3.36213467               -9.23569320               -7.20961750               81.38293411              -17.66897580
              34.02154184                5.05720944               69.05354778                0.00010000                2.54994880                4.35726458              -12.91470740               -6.43634940               75.93002933              -22.58830961
              35.05187717                3.05139985               68.56184031                0.00010000                3.74906875                5.55501646              -17.32623868               -5.44725729               68.20234066              -28.69553709
              36.09652322                1.05529802               67.97321249                0.00010000                5.49066500                6.89946317              -22.58555924               -4.23517972               57.61605101              -36.37526394
              37.16169047               -0.92741907               67.25703136                0.00010000                7.86771532                8.31789185              -28.75598749               -2.68072301               43.39781875              -46.26499487
              38.25387752               -2.89321962               66.37644254                0.03830825               10.46233194                9.73254641              -35.68285115               -1.03589801               23.86083487              -59.42624875
              39.37093711               -4.84852532               65.27336550                0.54642926               11.70595872               11.05070528              -40.70435383                0.05530027               12.00107439              -77.30465043
              30.86201489               15.95915145               71.47616986                0.58341397                0.22772539               -0.57810705                1.50854809               -0.11789459                0.20707386                9.63887429
              31.86429214               14.07113908               70.20155086                0.02663734                1.40849724                1.02253651               -3.00715538               -4.05784667               51.98362028               -8.48259378
              32.89018483               12.10004550               69.96241737                0.00010000                2.47381743                1.83464059               -4.54936152               -7.39891482              103.23244645               -8.43448626
              33.91376849               10.10492257               69.69943773                0.00010000                2.43106339                2.28635694               -6.83415038               -6.95094772              100.78665035               -9.76662046
              34.93880610                8.10240383               69.39364106                0.00010000                2.57716681                3.28934897               -9.78992358               -6.01136498               96.56658345              -12.22931624
              35.96531183                6.10251159               69.02726233                0.00010000                2.93320423                4.56234865              -13.47274691               -5.02627026               90.40761672              -15.54020111
              36.99747019                4.11001415               68.57919099                0.00010000                3.81361284                6.02513855              -18.00101071               -4.07195286               81.78942840              -19.78324242
              38.04158408                2.12885013               68.02186234                0.00010000                5.41560551                7.63576706              -23.54493769               -3.03851263               69.85694404              -25.27473159
              39.10578230                0.16191881               67.31855196                0.00010000                7.89650437                9.35103717              -30.26626198               -1.79269015               53.38497048              -32.65483444
              40.19951417               -1.78844092               66.42094526                0.04138206               10.77403591               11.01068781              -38.11495700               -0.55368951               29.66705325              -43.38623168
              41.32126301               -3.72943557               65.24652978                0.54829283               12.17488425               12.54411604              -43.53167130                0.19985596               14.97653113              -60.75688460
              32.74081859               16.95424225               71.27765090                0.57840494                0.44272391               -0.39444720                0.97930862               -0.12144942               -0.17963601                8.39673170
              33.74524583               15.08263397               69.90948434                0.02649340                2.74864667                1.26904357               -3.91703336               -4.62505839               61.63886484               -7.72273417
              34.79579152               13.11643089               69.77756131                0.00010000                5.02474906                0.40903229               -5.17920167               -5.85984295              122.11923615               -4.81777168
              35.84574081               11.12431104               69.60298837                0.00010000                4.36351804                1.57653716               -7.19063054               -4.71977142              118.33078426               -5.11134676
              36.88306188                9.13408366               69.37368198                0.00010000                3.38326536                3.00125988               -9.95014992               -3.55051463              113.39322774               -6.23353225
              37.91340611                7.14845642               69.07772603                0.00010000                3.05188467                4.57810033              -13.50684198               -2.81218534              106.83963193               -7.88015419
              38.94409957                5.17190262               68.69430845                0.00010000                3.52210956                6.25757147              -17.99693155               -2.18075381               97.76131663              -10.05453151
              39.98384831                3.20801336               68.19391569                0.00010000                4.95140713                8.04243960              -23.63743136               -1.53101208               85.02681302              -12.94896341
              41.04312772                1.25960167               67.53475505                0.00010000                7.51549059                9.92908324              -30.70517174               -0.79128931               66.72694272              -17.00632634
              42.13415812               -0.67300586               66.65332312                0.04470509               10.68979075               11.81317239              -39.40163509               -0.13319167               37.82866639              -23.17567766
              43.25692353               -2.59764300               65.41650464                0.55006877               12.27654148               13.39631944              -45.00728929                0.14544499               19.20755638              -37.15389138
              34.60280247               17.95126251               71.05417348                0.78856797                0.67998675               -0.29797448                0.34080336                0.72413234                3.81739454                7.15181910
              35.60960234               16.09651995               69.63642479                0.51433732                6.42542193                1.38859808               -4.75502239               -5.71616704               74.91415247               -6.76131622
              36.73131091               14.10822615               69.64038671                0.45246516                9.60589788               -0.82047447               -5.50887460               -4.45139301              142.75293263               -2.66215783
              37.80172029               12.13645331               69.55812177                0.44131067                5.61697602                1.21422791               -7.18392441               -1.69190728              136.75564900               -2.72589203
              38.84365043               10.16242903               69.41796156                0.43737827                3.47644323                2.83453672               -9.64913237               -1.06013144              131.75299031               -3.24951693
              39.87124916                8.19407359               69.20977888                0.44004482                2.53238685                4.56171758              -12.95044902               -0.57886790              125.31694907               -4.09337313
              40.89429816                6.23516558               68.91368390                0.44943661                2.60078167                6.32629585              -17.23288031               -0.19887473              116.44602994               -5.23993929
              41.92326479                4.28969892               68.49996796                0.46571432                3.83387856                8.16855556              -22.74170104                0.20839331              103.86529756               -6.80225457
              42.97097574                2.36050047               67.92490003                0.48972924                6.54151084               10.08988011              -29.80690123                0.69098223               85.48427213               -9.07904651
              44.05409501                0.44782252               67.12191962                0.52357552               10.12352213               12.08283885              -38.91598202                0.89320608               52.66468647              -12.41637347
              45.17344618               -1.46150919               65.88657640                0.77557990               11.93511700               13.61338101              -44.40974478                0.71909359               30.30133765              -23.29571586
              15.86407352                8.36413654               74.16495231                0.88594038               -1.58746924               -1.77580818                6.03091352               -0.45688734               -5.21607968                5.72135555
              16.84819882                6.27540156               73.54504187                0.63122752               -1.56351270               -1.03146179                4.07256881               -0.53283637               -7.34437626               -4.33423574
              17.83280326                4.17808158               72.88303296                0.50673543               -1.38964996               -0.56223266                1.99777687               -0.50041189               -7.61773724               -0.44698646
              18.82040582                2.06327889               72.25851430                0.46465745               -0.92242903                0.00676264                0.02686930               -0.43929930               -5.18765697               -0.47820905
              19.81435468               -0.06913736               71.64554000                0.45124585               -0.17189614                0.56913330               -1.99535687               -0.36945220               -4.14227377               -0.28284210
              20.81696790               -2.21461519               71.04194370                0.45772566                0.75523962                1.14742272               -4.06590452               -0.31402149               -3.50678220               -0.09293867
              21.82945947               -4.36527091               70.44143894                0.48547973                1.72025874                1.72297704               -6.15933150               -0.29180477               -3.58294483                0.10472205
              22.85137308               -6.51305120               69.83593833                0.53988075                2.57971472                2.28266374               -8.22927235               -0.29535748               -4.40296387                0.30315197
              23.88105377               -8.65249847               69.21848426                0.63330221                3.26800281                2.83055598              -10.26426387               -0.29749723               -6.04489588                0.39067349
              24.91673313              -10.78168087               68.57934569                0.78897077                3.81943682                3.37283944              -12.30674485               -0.29833238               -6.57253770                1.18791069
              25.95744250              -12.90197940               67.95032935                0.95980617                4.07093720                3.97514052              -14.31315855               -0.67561456               -6.01089105               -4.27147968
              17.94823963                9.34637846               73.91588260                0.69535993               -1.23416854               -1.82472667                5.27085468               -0.26809325                3.78709866                8.38247212
              18.93589794                7.26508694               73.29074849                0.16965378               -0.71895743               -0.75299137                3.32796439               -0.58039854                8.65448675               -8.01969517
              19.93386048                5.17245925               72.76329278                0.03305076                0.18621793               -1.08323575                1.76384230               -1.92765867               13.48766485               -9.58743414
              20.93962230                3.06334651               72.23455209                0.02324511                0.78733610               -1.18580180                0.08899754               -3.12538499               14.12096586              -13.12587678
              21.94960720                0.93655397               71.71969536                0.02649401                1.11360816               -0.85399160               -1.60942089               -4.03614326               15.27195801              -17.57803625
              22.96189446               -1.20314097               71.21406808                0.03421322                1.30761133               -0.35232501               -3.36170490               -4.49759935               15.88533941              -22.74516077
              23.97575943               -3.34804114               70.71151127                0.04731214                1.50694094                0.21629660               -5.12879989               -4.46490496               15.79553619              -28.50780148
              24.99203328               -5.49022456               70.20389740                0.06955331                1.83171033                0.80019188               -6.86276024               -4.03537981               14.90906798              -34.52056242
              26.01239363               -7.62419291               69.68317215                0.11782808                2.32284954                1.42546635               -8.55913479               -3.42482096               13.56137001              -39.68195157
              27.03849027               -9.74795248               69.14785555                0.29558188                2.92956279                3.32599291              -10.22746454               -1.85754217               10.27159455              -34.58733074
              28.07098489              -11.86222800               68.56020137                0.72414689                3.24946163                4.56283809              -12.01127110                1.13693584                7.72682418              -41.58922696
              20.02129469               10.32764201               73.72053184                0.61895228               -1.07846310               -1.76409531                4.78238500               -0.13403670                0.05239278               10.31581246
              21.01051006                8.26034173               72.96302970                0.05840129               -1.26520887               -0.35318779                2.30213576               -1.77029383               12.80496222              -10.48068328
              21.99599051                6.15641686               72.46089565                0.00010000               -0.83533292               -1.17182595                1.03603207               -4.86118854               25.59484656              -18.11349055
              22.99380340                4.03956285               71.95758002                0.00010000                0.20643913               -1.55455626               -1.07670715               -6.54750330               25.34689856              -25.59365539
              24.00011930                1.91378281               71.44772160                0.00010000                0.89038137               -1.45666718               -3.14450653               -7.84398210               24.83733906              -34.55803217
              25.01161103               -0.22166169               70.93275064                0.00010000                1.35628345               -1.02625271               -5.33119310               -8.58517561               24.18235161              -44.83387205
              26.02724497               -2.36094498               70.40872151                0.00010000                1.76031109               -0.41735508               -7.70127548               -8.38402938               23.25449400              -56.36740597
              27.04681725               -4.49704736               69.87456982                0.00010000                2.15201505                0.31142571              -10.44264420               -7.22716807               22.99894461              -68.89814530
              28.07028527               -6.62398915               69.34539226                0.00010000                3.54000602                1.37716951              -14.27527733               -3.96618543               32.39840890              -81.51391244
              29.11761737               -8.71516101               68.99965730                0.02424500                6.92234967                3.12853992              -25.98674738               -0.30227422               30.05924232              -96.63019909
              30.20873226              -10.81072264               68.42237243                0.54271751                9.11148883                4.18089786              -29.67351182                2.60565628               18.99477676             -115.44597670
              22.08015945               11.31109656               73.51087205                0.60206518               -0.84422399               -1.54375616                4.20458494               -0.11613484                0.12313407                9.74980726
              23.07171721                9.25802318               72.65943322                0.03818828               -1.13719317               -0.13244519                1.41549034               -2.68751076               18.44979421               -9.10990913
              24.05741559                7.14902273               72.17478264                0.00010000               -1.02054605               -0.21987664               -0.22308684               -5.68515469               36.58829660              -16.77523420
              25.05130629                5.03225539               71.68304392                0.00010000               -0.17317410               -0.09847287               -2.31636911               -6.62352938               35.87375576              -24.77643537
              26.05395210                2.90742063               71.18013840                0.00010000                0.68062257                0.09209788               -4.69004179               -7.50183151               34.67523536              -33.40441084
              27.06491874                0.77633398               70.66032548                0.00010000                1.47561995                0.53828400               -7.28721139               -7.84873617               32.88822545              -43.18289086
              28.08346450               -1.35638824               70.11858251                0.00010000                2.28076733                1.18792631              -10.20185075               -7.31126923               30.66928537              -54.36686990
              29.11053409               -3.48399605               69.55222227                0.00010000                3.38595380                2.00035569              -13.65022001               -5.50118660               28.79565804              -67.40645518
              30.15118358               -5.59664952               68.97196531                0.00010000                5.43220978                3.00445113              -18.37484888               -2.06159379               25.11226038              -84.00788987
              31.21917828               -7.68538168               68.33197452                0.01431956                8.15188446                2.91333082              -23.15288206                0.34711800               15.56915402             -114.59987230
              32.31422127               -9.77861004               67.56164854                0.53067840                9.50429862                3.39427471              -27.13437923                0.35882654                9.05590178             -139.82203295
              24.12511874               12.29676689               73.30483968                0.59468118               -0.62850686               -1.33046107                3.65572633               -0.11046705                0.12510734               10.00968320
              25.11883367               10.25769283               72.35908623                0.02983039               -0.85317596                0.07547278                0.52800235               -3.22535853               24.22579819               -8.82108791
              26.10805522                8.15201933               71.89555565                0.00010000               -0.79493746                0.63559441               -1.29123470               -6.50865991               48.04755535              -15.79092094
              27.10293492                6.03759339               71.42153007                0.00010000               -0.10255695                1.01310274               -3.57482296               -7.06343756               46.91916139              -23.10590254
              28.10600408                3.91562477               70.92922553                0.00010000                0.77551313                1.38487344               -6.18341588               -7.47936777               44.95617849              -31.14928001
              29.11844518                1.78910399               70.40977074                0.00010000                1.76727635                1.88181065               -9.12666499               -7.43994527               42.04445640              -40.27233077
              30.14134960               -0.33718645               69.85363229                0.00010000                2.93048098                2.52912596              -12.46403399               -6.64415651               38.11863175              -50.94087655
              31.17705480               -2.45704025               69.25116701                0.00010000                4.45447103                3.25250927              -16.31584780               -4.90584623               32.74670030              -63.90510280
              32.23043903               -4.56390012               68.58465250                0.00010000                6.47327242                3.77101418              -20.57481558               -2.55653355               24.92431393              -80.84334323
              33.30652025               -6.65689440               67.82503869                0.01706467                8.59632440                3.73225152              -24.89950569               -0.82757756               13.71134514             -100.83070492
              34.40236551               -8.74283715               66.93644008                0.53234777                9.58452647                4.43830702              -28.42208907               -0.23510763                7.10341997             -121.48119524
              26.15609823               13.28448733               73.10093229                0.58854414               -0.41406333               -1.13260343                3.11903677               -0.10942224                0.13797061               10.14827655
              27.15195759               11.25953264               72.06123758                0.02368923               -0.43782033                0.29897192               -0.35428487               -3.53770369               30.41153787               -8.62932257
              28.14734182                9.16173462               71.62716590                0.00010000               -0.27627460                1.22720093               -2.32163842               -7.01288832               60.30484928              -14.51912255
              29.14643210                7.05251744               71.17889439                0.00010000                0.27561686                1.83567840               -4.74602598               -7.42859713               58.76731232              -20.85126990
              30.15285416                4.93511810               70.70551986                0.00010000                1.12494767                2.35496810               -7.55538305               -7.55454328               56.06918095              -27.92476668
              31.16893106                2.81397019               70.19443980                0.00010000                2.19357228                2.94670554              -10.76920621               -7.22483773               52.00928677              -36.09203107
              32.19672560                0.69419428               69.63147408                0.00010000                3.50998882                3.64888221              -14.43330416               -6.33090469               46.32783446              -45.80375684
              33.23913083               -1.41894586               68.99947713                0.00010000                5.15907284                4.38003121              -18.55874585               -4.87726712               38.60067534              -57.68874617
              34.29990706               -3.52122924               68.27672092                0.00010000                7.12164608                4.98577323              -23.04667244               -3.08947709               28.30785483              -72.19040264
              35.38156375               -5.61073665               67.43702310                0.01993334                9.07487771                5.54164491              -27.59750568               -1.41620896               15.15413493              -89.35863237
              36.48140461               -7.68984390               66.45420705                0.53415494                9.98408607                6.31072038              -31.40013058               -0.43656161                7.65759492             -108.60874240
              28.17283968               14.27411482               72.89813012                0.58325361               -0.20073723               -0.94609477                2.58341757               -0.10865084                0.14757983               10.18500485
              29.17083231               12.26367227               71.76469703                0.01942508                0.09864848                0.53447832               -1.23409211               -3.72837630               37.19103782               -8.54978648
              30.17481265               10.17656335               71.37222404                0.00010000                0.50735964                1.66619227               -3.29919466               -7.30780993               73.73982559              -13.01372902
              31.18097950                8.07430696               70.96149975                0.00010000                0.93239085                2.37467130               -5.80157279               -7.64868043               71.77745064              -18.01242084
              32.19346046                5.96272413               70.51869062                0.00010000                1.69463758                2.99113055               -8.73955358               -7.51655375               68.36238379              -23.80356581
              33.21487225                3.84803810               70.02784758                0.00010000                2.70935489                3.71045606              -12.14933807               -6.93433953               63.22467460              -30.67554948
              34.24764756                1.73579119               69.47073687                0.00010000                4.00303622                4.56396491              -16.07618297               -5.97197465               56.04153786              -38.99068967
              35.29493297               -0.36943962               68.82584497                0.00010000                5.63963554                5.48277188              -20.53512504               -4.68432232               46.38889345              -49.19861865
              36.36044027               -2.46418466               68.06777471                0.00010000                7.59388775                6.39928870              -25.44326138               -3.13680119               33.84104753              -61.80687261
              37.44681073               -4.54606150               67.16858085                0.02306039                9.57042554                7.32323682              -30.52845813               -1.51035105               18.07331050              -77.33320472
              38.55184878               -6.61662274               66.09912607                0.53597754               10.50380545                8.25617819              -34.69896289               -0.43831475                9.05275865              -96.09772429
              30.17481032               15.26556544               72.69532532                0.57885296                0.01312204               -0.76479716                2.04856192               -0.10981824                0.15914718               10.10722959
              31.17494154               13.27022221               71.46838386                0.01752085                0.78703050                0.77869790               -2.11973303               -3.88566268               44.75755331               -8.56602971
              32.19055093               11.19505847               71.13343955                0.00010000                1.61780895                1.91941829               -4.20217107               -7.45084653               88.72156105              -11.23816671
              33.20729772                9.10001087               70.77554951                0.00010000                1.91205119                2.55333270               -6.69906925               -7.63734340               86.28939057              -14.56945562
              34.22879195                6.99494071               70.37814420                0.00010000                2.49397444                3.23866507               -9.67655074               -7.11685714               82.16563122              -18.82500482
              35.25717720                4.88817931               69.92274834                0.00010000                3.29859393                4.15602760              -13.19627443               -6.26344589               76.06239194              -24.13051537
              36.29476383                2.78547357               69.38833364                0.00010000                4.41215157                5.24070771              -17.32293121               -5.23541494               67.58044549              -30.70805560
              37.34542024                0.69070958               68.74955968                0.00010000                5.95145434                6.42975502              -22.09886505               -4.06267866               56.16328575              -38.96376932
              38.41379291               -1.39324347               67.97589117                0.00010000                7.91872886                7.66081540              -27.47607893               -2.70571387               41.21645040              -49.55732009
              39.50379481               -3.46427191               67.03292923                0.02589765                9.99839423                8.87813891              -33.18636609               -1.26163805               22.13072470              -63.51747560
              40.61376080               -5.52472034               65.88208226                0.53777046               10.99659867                9.98399081              -37.73486263               -0.31152253               11.08096130              -81.87805434
              32.16132978               16.25881887               72.49126534                0.57570345                0.22962471               -0.58359895                1.50796798               -0.11577513                0.21254905               10.04310215
              33.16362602               14.27924622               71.17141727                0.01774309                1.73386391                1.02915471               -3.01511346               -4.13420415               53.34568233               -8.80537654
              34.19600705               12.21495172               70.91419813                0.00010000                3.23621821                1.75827083               -5.00323170               -7.49867879              105.64807654               -8.91222452
              35.22835039               10.12537362               70.62797480                0.00010000                3.34739124                2.15019260               -7.38698275               -6.98298155              102.59490229              -10.39733114
              36.26295488                8.02749743               70.29288651                0.00010000                3.53600407                3.10694183              -10.30112567               -5.96269383               97.70880106              -13.06227159
              37.29907047                5.93115865               69.89045218                0.00010000                3.87270596                4.30667151              -13.82933719               -4.92175629               90.79253147              -16.63143502
              38.34040900                3.84060534               69.39855756                0.00010000                4.66629865                5.65594877              -18.05829544               -3.95776310               81.27533444              -21.19975906
              39.39239644                1.75915548               68.78846322                0.00010000                6.04492440                7.10328936              -23.06791291               -2.97875640               68.30316865              -27.10655997
              40.46130749               -0.31096835               68.02282576                0.00010000                8.03291984                8.60666394              -28.86314922               -1.90114803               50.81932024              -35.04429145
              41.55305484               -2.36849872               67.05515883                0.02908115               10.26038475               10.06177202              -35.20858474               -0.80334355               27.59041659              -46.53458101
              42.66651518               -4.41694292               65.82920856                0.53955170               11.34603426               11.35523138              -40.09104563               -0.13778837               13.90896901              -64.25036595
              34.13164012               17.25389346               72.28737499                0.57071209                0.44844963               -0.39234682                0.96330947               -0.12264983               -0.18964255                8.74794339
              35.13612461               15.29080530               70.87019051                0.01970743                3.14049209                1.27579792               -3.93479345               -4.76676213               63.31456741               -8.02810416
              36.19444996               13.23022388               70.72298729                0.00010000                5.94838792                0.22620931               -5.64828270               -5.98617603              125.15396641               -5.10397487
              37.25509237               11.14301472               70.52766825                0.00010000                5.46515420                1.37848422               -7.79917675               -4.75674970              120.69925048               -5.46267520
              38.30375304                9.05707955               70.27087859                0.00010000                4.52708971                2.76939638              -10.54419906               -3.52491943              115.01240896               -6.67908512
              39.34563416                6.97431274               69.94000818                0.00010000                4.19293468                4.27954720              -13.96611368               -2.76285139              107.60793286               -8.45272979
              40.38761173                4.89859255               69.51305041                0.00010000                4.58923194                5.85085596              -18.16940952               -2.14023287               97.50530819              -10.79089793
              41.43741880                2.83277537               68.95890732                0.00010000                5.79062097                7.47640003              -23.26872576               -1.54746494               83.53520834              -13.89696388
              42.50342415                0.77888981               68.23424664                0.00010000                7.81418550                9.14268498              -29.33997181               -0.92119374               63.88903891              -18.25239786
              43.59370251               -1.26303647               67.27573786                0.03210654               10.22346406               10.77665316              -36.25333266               -0.32695676               35.49059803              -24.97879205
              44.70789344               -3.29761571               65.98544951                0.54105253               11.41909225               12.17305717              -41.31369886               -0.05421813               18.09726132              -39.07605008
              36.08505310               18.25097194               72.05745624                0.78477247                0.69072603               -0.29215211                0.31189986                0.72032238                3.97375854                7.45218620
              37.09196036               16.30476218               70.58865156                0.51011616                6.95105086                1.39568809               -4.78736057               -5.99122741               77.10789766               -7.03816079
              38.22407411               14.21947590               70.58233468                0.45157820               10.71996871               -1.07479817               -6.01847767               -4.62852854              146.56154464               -2.83809583
              39.30635973               12.15294330               70.48252190                0.44099573                6.85421782                0.99285789               -7.86193030               -1.70279125              139.76675780               -2.93577133
              40.36115847               10.08288536               70.31767862                0.43745413                4.79703541                2.58058107              -10.33824735               -1.06914266              133.95127746               -3.50098978
              41.40230044                8.01674959               70.07695028                0.43987727                3.89916245                4.24368491              -13.53518749               -0.59651734              126.59137187               -4.40598354
              42.43914172                5.95762246               69.73913578                0.44858537                3.94247207                5.90299140              -17.57002140               -0.25030730              116.59273761               -5.63247953
              43.48114988                3.90868348               69.27264277                0.46381579                4.97768652                7.59081145              -22.58533012                0.08625187              102.61875542               -7.29659511
              44.53869545                1.87188535               68.63171753                0.48617980                7.09356724                9.29955356              -28.69918033                0.44467254               82.58530970               -9.70691873
              45.62302122               -0.15296566               67.74769765                0.51700679                9.79469216               11.00708143              -35.94800203                0.66351473               50.24698219              -13.42203575
              46.73458929               -2.17348178               66.45912669                0.77112431               11.15680674               12.41339292              -41.01942850                0.61797342               29.26031421              -24.33703885
              16.44080387                8.67503984               75.22569424                0.88022559               -1.61007130               -1.79918833                6.11124205               -0.46462551               -5.37604110                5.88151151
              17.42470316                6.48931754               74.58606613                0.62406310               -1.59695836               -1.04462315                4.12450107               -0.54902169               -7.55645306               -4.48442022
              18.40886471                4.29466828               73.90321749                0.50381464               -1.42039972               -0.56961610                2.03326036               -0.48711967               -7.83405014               -0.41149757
              19.39629517                2.08217078               73.25883829                0.46364705               -0.93210985                0.01002882                0.03918285               -0.43298856               -5.37787132               -0.47090642
              20.39022251               -0.14802586               72.62551507                0.45127595               -0.16807470                0.58087343               -2.00681280               -0.36895464               -4.38381515               -0.27533912
              21.39293367               -2.39119364               72.00109314                0.45807942                0.76779998                1.16544855               -4.10047809               -0.31999496               -3.79029888               -0.09427198
              22.40557851               -4.63948388               71.37948388                0.48526444                1.73945932                1.75059886               -6.22012429               -0.29762365               -3.87463591                0.09770845
              23.42772286               -6.88487250               70.75313480                0.53772974                2.60931438                2.32013661               -8.31919647               -0.30068056               -4.67540359                0.29039111
              24.45776480               -9.12191963               70.11513097                0.62742500                3.31050901                2.87868690              -10.39188797               -0.30290821               -6.31026896                0.36956861
              25.49393304              -11.34873042               69.45545777                0.77547555                3.86898758                3.42860904              -12.45754784               -0.30482924               -6.82591211                1.18629664
              26.53514455              -13.56673093               68.80630760                0.94975183                4.12115095                4.03523436              -14.48475119               -0.66964526               -6.25498880               -4.40613448
              18.62187992                9.65704796               74.96895937                0.68492075               -1.24811916               -1.85447154                5.33794863               -0.27754911                3.96940519                8.68321807
              19.60939873                7.47887131               74.32426314                0.15744832               -0.71565130               -0.75644454                3.37012916               -0.60525814                9.03094453               -8.30595806
              20.60756689                5.28897211               73.78105636                0.03406762                0.19568108               -1.15501936                1.77953545               -1.92426827               13.99671884               -9.85563370
              21.61331235                3.08227107               73.23536680                0.02440069                0.78241403               -1.14404538                0.07766208               -3.06728910               14.55938004              -13.75792887
              22.62321517                0.85778288               72.70339840                0.02768523                1.10751939               -0.78766616               -1.64996213               -3.93823509               15.67315169              -18.54726642
              23.63546274               -1.37953915               72.18010080                0.03551591                1.31132664               -0.26975445               -3.42809509               -4.36156716               16.24747008              -24.08995653
              24.64944170               -3.62197789               71.65966920                0.04890405                1.52355952                0.30787366               -5.23112624               -4.29985025               16.16290293              -30.30855487
              25.66593393               -5.86167114               71.13451385                0.07140217                1.86114850                0.88614397               -7.00599949               -3.84858076               15.30995229              -36.97904894
              26.68666467               -8.09313276               70.59660234                0.11252128                2.36782353                1.47957613               -8.74324872               -3.20569216               13.99827265              -43.36670701
              27.71329040              -10.31444433               70.04446184                0.27794651                2.98919623                3.14794615              -10.44698963               -1.63311924               10.66549285              -43.48390481
              28.74644860              -12.52637858               69.43886912                0.71096425                3.31582031                4.27986007              -12.25309211                1.44255369                8.05725793              -52.24001429
              20.79160618               10.63795041               74.76866864                0.60958748               -1.09323457               -1.79692610                4.84004046               -0.13081977                0.02706307               10.71142865
              21.78067384                8.47418865               73.98625059                0.04783130               -1.23133005               -0.34892667                2.33983985               -1.87775888               13.32747150              -10.83365857
              22.76697958                6.27156789               73.47011416                0.00010000               -0.72676086               -1.15941808                0.83660320               -4.85040767               26.34045634              -18.78357247
              23.76613862                4.05928987               72.94610953                0.00010000                0.31442219               -1.48554110               -1.20728871               -6.36694035               25.74449078              -26.86787750
              24.77326803                1.83622082               72.41562168                0.00010000                0.96622388               -1.34476682               -3.26702459               -7.64993942               25.19072365              -36.48365064
              25.78546310               -0.39658873               71.87884219                0.00010000                1.42227299               -0.89760627               -5.44358501               -8.30973061               24.41589533              -47.49548349
              26.80171349               -2.63332641               71.33121754                0.00010000                1.82215042               -0.29160303               -7.79274758               -8.06033629               23.27025124              -59.91142746
              27.82190611               -4.86714962               70.76979817                0.00010000                2.23553307                0.40318906              -10.49511499               -6.89994000               22.39515184              -73.61465665
              28.84642415               -7.09232811               70.20246363                0.00010000                3.63051853                1.35986169              -14.23762413               -3.85927246               27.49014656              -88.07256690
              29.89451648               -9.28577150               69.73902775                0.01277422                7.07199867                2.89250670              -25.26450018               -0.33954190               24.66140760             -105.38628088
              30.98786412              -11.48113373               69.11360313                0.53468436                9.33476436                3.90836631              -30.70933221                2.57858677               16.48764775             -125.87903166
              22.94678704               11.62110943               74.55317224                0.59312834               -0.85609708               -1.57113322                4.25324799               -0.11302937                0.12546414               10.12103142
              23.93822607                9.47189278               73.67376598                0.02838167               -1.06647608               -0.13147560                1.45020858               -2.73035206               18.96107658               -9.39480368
              24.92545752                7.26578375               73.17130016                0.00010000               -0.84527294               -0.09826231               -0.42594271               -5.66997033               37.44947195              -17.60029450
              25.92132061                5.05256024               72.65867020                0.00010000                0.03187325               -0.03438076               -2.53216400               -6.51051300               36.44596591              -26.06195837
              26.92609498                2.83088754               72.13224479                0.00010000                0.87473711                0.17276398               -4.87256404               -7.31362651               35.01453475              -35.29999243
              27.93881535                0.60250872               71.58673507                0.00010000                1.63504461                0.61829742               -7.41896853               -7.58666014               32.99857055              -45.78126134
              28.95879587               -1.62780995               71.01624221                0.00010000                2.40607348                1.24515640              -10.25490241               -7.00308611               30.42854748              -57.77605924
              29.98693682               -3.85360736               70.41594164                0.00010000                3.46526136                2.00536051              -13.58418895               -5.24549036               27.75857686              -71.71141347
              31.02810110               -6.06593552               69.78901442                0.00010000                5.41841787                2.91197089              -18.10774712               -2.02680030               23.47740294              -88.92237080
              32.09530518               -8.25659420               69.10112413                0.00373445                8.03218412                2.85753642              -22.83543592                0.33806325               14.24283225             -116.28656765
              33.18874478              -10.44821126               68.29157795                0.52376304                9.34396055                3.25927390              -26.64332582                0.30338642                7.86860159             -141.27610060
              25.08777891               12.60652774               74.34162559                0.58628469               -0.63864349               -1.35395420                3.69716399               -0.10863446                0.12531662               10.40555337
              26.08139248               10.47155914               73.36450886                0.02047112               -0.74331026                0.07569250                0.55643552               -3.24057453               24.80599536               -9.10639804
              27.07291271                8.26960264               72.88118729                0.00010000               -0.52839523                0.69896131               -1.52554742               -6.48000985               49.03586570              -16.53142312
              28.07082457                6.05860225               72.38426870                0.00010000                0.20671561                1.06723531               -3.83936605               -6.95986083               47.58742472              -24.35734575
              29.07704702                3.83967610               71.86613612                0.00010000                1.08014084                1.42082092               -6.40899817               -7.30188391               45.32290960              -32.96041535
              30.09242739                1.61577722               71.31771274                0.00010000                2.03604106                1.89619818               -9.26607551               -7.18702729               42.08497090              -42.72537459
              31.11776784               -0.60842328               70.72890068                0.00010000                3.13472398                2.50360421              -12.46709579               -6.35150440               37.76056266              -54.10036905
              32.15512187               -2.82704241               70.08892243                0.00010000                4.55535716                3.16699409              -16.11730367               -4.65596466               31.99094509              -67.73756589
              33.20887499               -5.03408869               69.38113438                0.00010000                6.42158024                3.62974421              -20.12110103               -2.43758280               23.98094499              -84.88477656
              34.28355348               -7.22862077               68.58006969                0.00665611                8.41454904                3.55170310              -24.12786200               -0.81419136               13.05676654             -104.94824845
              35.37716597               -9.41594825               67.65694730                0.52521259                9.36124904                4.03974935              -27.52105519               -0.30684173                6.67421615             -125.73020823
              27.21455156               13.59403035               74.13228870                0.58045326               -0.42118825               -1.15168342                3.14629915               -0.10823156                0.13686061               10.55118133
              28.21033968               11.47340663               73.05780394                0.01481159               -0.28686796                0.30006707               -0.33006829               -3.54247451               31.08253795               -8.91152611
              29.20881420                9.27976298               72.60236324                0.00010000                0.08551282                1.25578545               -2.57736745               -6.98372116               61.46619169              -15.23233308
              30.21204994                7.07390495               72.12967401                0.00010000                0.70340682                1.85089035               -5.05090767               -7.35182672               59.57321598              -22.01710519
              31.22288234                4.85930396               71.62849206                0.00010000                1.55621249                2.33946917               -7.81527750               -7.39977200               56.50245709              -29.59247584
              32.24317419                2.64043268               71.08588928                0.00010000                2.58515403                2.88847716              -10.91397068               -6.99399945               52.03953328              -38.32322104
              33.27458542                0.42226213               70.48727567                0.00010000                3.81543739                3.53318733              -14.38700295               -6.05653634               45.93172773              -48.64984443
              34.31948293               -1.79026747               69.81553037                0.00010000                5.31711918                4.19241772              -18.22788840               -4.62579303               37.82511776              -61.13699052
              35.38092780               -3.99334064               69.05007955                0.00010000                7.06989889                4.71709788              -22.32137332               -2.96017299               27.34624663              -76.19744683
              36.46088091               -6.18556014               68.16772946                0.00921658                8.81675482                5.14793459              -26.38905684               -1.41941834               14.45978934              -93.82792607
              37.55726290               -8.36741627               67.14815655                0.52679878                9.63819885                5.78344351              -29.96909210               -0.56839421                7.24948754             -113.50170823
              29.32686173               14.58349408               73.92406984                0.57556069               -0.20513716               -0.96082958                2.60055562               -0.11005773                0.14872271               10.59017108
              30.32481036               12.47756048               72.75242520                0.01309928                0.29391147                0.53678871               -1.21725479               -3.73908794               37.98310235               -8.83495091
              31.33273996               10.29471835               72.33755416                0.00010000                0.97183503                1.66188371               -3.57093815               -7.29678682               75.13737144              -13.68133261
              32.34424706                8.09562006               71.90150836                0.00010000                1.48919431                2.34073949               -6.14213710               -7.60507745               72.78852462              -19.05942559
              33.36252385                5.88646548               71.42960102                0.00010000                2.26710853                2.91483669               -9.03432887               -7.39818275               68.92994872              -25.26721825
              34.38958923                3.67354676               70.90538704                0.00010000                3.24067135                3.57809238              -12.30672539               -6.73994855               63.30425355              -32.61243533
              35.42733727                1.46224047               70.31025800                0.00010000                4.43097747                4.35779584              -15.99391960               -5.73257511               55.60358168              -41.45842279
              36.47820878               -0.74319406               69.62275982                0.00010000                5.88134568                5.18359301              -20.08145035               -4.46193606               45.47201954              -52.24876181
              37.54496419               -2.93974673               68.81857681                0.00010000                7.55159788                5.98620632              -24.45782046               -3.03729481               32.63837366              -65.46884241
              38.62924074               -5.12566208               67.87254626                0.01196439                9.22730800                6.77065121              -28.86472145               -1.55563168               17.16881016              -81.56113351
              39.72951035               -7.30027938               66.76317990                0.52846556               10.02696096                7.56236896              -32.72243981               -0.61236056                8.55936139             -100.74795366
              31.42421760               15.57481376               73.71585573                0.57102737                0.01160451               -0.77651276                2.05367219               -0.11212149                0.16080033               10.51290917
              32.42433365               13.48414240               72.44721461                0.01398961                1.03006416                0.78322059               -2.10919812               -3.91752314               45.71385639               -8.86260540
              33.44481888               11.31300065               72.08967033                0.00010000                2.19338053                1.87674611               -4.48827947               -7.47868919               90.44242527              -11.83446278
              34.46820126                9.12071974               71.70637536                0.00010000                2.60865501                2.46185706               -7.07511097               -7.63344329               87.59363293              -15.45103361
              35.49699198                6.91760069               71.27943155                0.00010000                3.21994877                3.09792626              -10.01301913               -7.03721602               82.95364070              -20.02263976
              36.53260023                4.71199453               70.78962230                0.00010000                3.98413784                3.95381397              -13.38261080               -6.11402344               76.26414969              -25.69647631
              37.57667474                2.50941805               70.21538169                0.00010000                4.98155877                4.95308701              -17.23148635               -5.04807907               67.14257688              -32.70367101
              38.63223141                0.31340439               69.53123519                0.00010000                6.29875940                6.02826728              -21.55914744               -3.89320398               55.10006382              -41.45738098
              39.70264993               -1.87361651               68.70750978                0.00010000                7.90347592                7.12121195              -26.26891463               -2.65212977               39.72527830              -52.61232763
              40.79030093               -4.05014711               67.71271522                0.01491420                9.58001771                8.18604528              -31.08857864               -1.34267060               20.97806973              -67.12321327
              41.89425028               -6.21616889               66.51866825                0.53015842               10.39493569                9.12346160              -35.23889980               -0.51054816               10.47508409              -85.85039699
              33.50596202               16.56796382               73.50632922                0.56810914                0.23109836               -0.59017679                1.50213482               -0.11503807                0.21598771               10.44553146
              34.50827300               14.49322489               72.14124859                0.01715432                2.03134091                1.03475954               -3.01348461               -4.20596554               54.52627563               -9.12203393
              35.54658884               12.33225327               71.86235274                0.00010000                3.93525767                1.66070982               -5.30434440               -7.58967303              107.80645416               -9.39583716
              36.58697816               10.14485720               71.55169807                0.00010000                4.19579491                1.98953418               -7.80280548               -7.00980026              104.29839065              -11.05433354
              37.63050474                7.94842401               71.18761855                0.00010000                4.42566263                2.90545797              -10.69109854               -5.91280091               98.81787513              -13.92731681
              38.67549141                5.75262304               70.75067559                0.00010000                4.72305520                4.04545955              -14.06823336               -4.81645424               91.21298190              -17.74746332
              39.72496584                3.56130221               70.21802508                0.00010000                5.39439268                5.30441973              -17.99791928               -3.83099480               80.92530323              -22.61634214
              40.78337926                1.37737129               69.56050408                0.00010000                6.52536258                6.62450741              -22.50210586               -2.87499307               67.16088460              -28.88242067
              41.85547309               -0.79732249               68.74128897                0.00010000                8.07802205                7.96392268              -27.50755575               -1.89422181               49.06338658              -37.25243674
              42.94493970               -2.96194117               67.71677356                0.01748122                9.79349248                9.25132926              -32.73503577               -0.90106869               26.19417447              -49.21922210
              44.05134294               -5.11781015               66.44470887                0.53166007               10.64032376               10.35433813              -37.14299184               -0.32713796               13.19088436              -67.16983104
              35.57139470               17.56301022               73.29691709                0.56301619                0.45301840               -0.39100421                0.94371575               -0.12101441               -0.19789348                9.09571650
              36.57592488               15.50483759               71.83078847                0.01965610                3.49992064                1.28048702               -3.94075712               -4.90932597               64.80279397               -8.32660110
              37.64139311               13.34621485               71.66459566                0.00010000                6.79548175                0.02580895               -5.97091092               -6.11222724              127.90007710               -5.38965366
              38.71183452               11.16051042               71.44700484                0.00010000                6.47885079                1.15866884               -8.26441127               -4.78858238              122.91345351               -5.82438382
              39.77097013                8.97570985               71.16279800                0.00010000                5.57792157                2.51925801              -11.00310577               -3.49319185              116.54829801               -7.14297862
              40.82339295                6.79290372               70.79840376                0.00010000                5.21682371                3.97233418              -14.28498139               -2.70376946              108.35822454               -9.04380635
              41.87530660                4.61550644               70.33092026                0.00010000                5.49816466                5.45215178              -18.18801463               -2.07572999               97.36002329              -11.53661044
              42.93335624                2.44589453               69.72854117                0.00010000                6.43856762                6.94624162              -22.75713415               -1.50828069               82.42673706              -14.82839378
              44.00407795                0.28566194               68.94795561                0.00010000                7.97054825                8.43714015              -27.95401880               -0.94305525               61.94137435              -19.41079877
              45.09276721               -1.86512053               67.92825647                0.02058994                9.76837556                9.87017035              -33.52520109               -0.40291361               33.89504393              -26.45548817
              46.19944546               -4.00908213               66.59023067                0.53327567               10.66782577               11.11029146              -38.08659420               -0.17358744               17.30903331              -40.60676919
              37.61988699               18.56014374               73.06041148                0.78090250                0.69948613               -0.28664864                0.27851208                0.71831919                4.13182826                7.74781343
              38.62688186               16.51883463               71.54067758                0.50585349                7.43922323                1.39970406               -4.80279535               -6.27301679               79.09323647               -7.30801051
              39.76867146               14.33276945               71.52001716                0.45045044               11.74148251               -1.34453976               -6.38560188               -4.81236769              150.03181961               -2.99279245
              40.86171151               12.16803058               71.40088316                0.44076780                7.97880699                0.75201564               -8.39445729               -1.71031530              142.57941814               -3.13228515
              41.92824760                9.99880917               71.21119661                0.43745108                5.99539618                2.30993157              -10.88390149               -1.07029544              136.01686019               -3.74604851
              42.98161943                7.83206973               70.93907513                0.43970972                5.11064148                3.91660030              -13.95904270               -0.60054817              127.78536498               -4.71160647
              44.03046043                5.67034524               70.56228347                0.44783555                5.07193601                5.48387998              -17.71078353               -0.27329756              116.77219014               -6.01032820
              45.08305815                3.51629612               70.04826135                0.46195084                5.85833093                7.04015846              -22.20640337                0.02394443              101.66656382               -7.75673580
              46.14762705                1.37142031               69.35091643                0.48272986                7.42836741                8.57583732              -27.43594620                0.31321511               80.53955007              -10.25747624
              47.23162550               -0.76453777               68.40295958                0.51122108                9.40836728               10.05827598              -33.21397594                0.53459772               48.48939857              -14.14183923
              48.33579439               -2.89560432               67.06618783                0.76710719               10.41688946               11.34778120              -37.82456482                0.52823802               28.37315469              -25.02840327
              17.03580892                8.99523652               76.28717715                0.87455739               -1.62624118               -1.81680957                6.17399304               -0.47061226               -5.53324445                6.03160134
              18.01954651                6.70931913               75.62753189                0.61657557               -1.62294150               -1.05358151                4.16366006               -0.56579798               -7.75768882               -4.62595799
              19.00335009                4.41417390               74.92369817                0.50052656               -1.44978436               -0.57239890                2.06084714               -0.49165931               -8.03270263               -0.37559751
              19.99055082                2.10080374               74.25929796                0.46258524               -0.94632771                0.01129573                0.05238627               -0.43753026               -5.55861251               -0.45925186
              20.98442353               -0.23041079               73.60540374                0.45113832               -0.16788522                0.59128290               -2.01374859               -0.37471564               -4.61630400               -0.27001476
              21.98719312               -2.57451597               72.95993414                0.45835548                0.77507765                1.18268175               -4.12625077               -0.32583483               -4.06185097               -0.09370966
              22.99992509               -4.92368739               72.31703645                0.48473072                1.75123979                1.77414797               -6.26282211               -0.30633926               -4.15613300                0.08793285
              24.02221791               -7.27000146               71.66955440                0.53518152                2.63001674                2.35325579               -8.39173740               -0.30999523               -4.94678195                0.27199230
              25.05252542               -9.60804984               71.01064650                0.62134173                3.34101739                2.91901283              -10.48994085               -0.30951421               -6.57497375                0.34961307
              26.08903826              -11.93596308               70.33019473                0.76158644                3.90588233                3.47625287              -12.57257928               -0.30925641               -7.07800564                1.17806017
              27.13064307              -14.25522514               69.66063433                0.93960136                4.16048099                4.09013219              -14.62384748               -0.65896428               -6.49944209               -4.53673499
              19.31702019                9.97706842               76.02264157                0.67435511               -1.26003470               -1.87894059                5.39068492               -0.28535440                4.15006086                8.97782435
              20.30441984                7.69878331               75.35815108                0.14498584               -0.71644981               -0.75767075                3.40158981               -0.62755292                9.40075967               -8.58186846
              21.30269119                5.40844991               74.79888349                0.03510785                0.20240120               -1.18361385                1.79025137               -1.91380016               14.50028124              -10.20152979
              22.30846786                3.10091670               74.23610533                0.02557699                0.78225218               -1.09509208                0.07311789               -3.01564953               15.00007127              -14.43290425
              23.31833623                0.77550203               73.68669611                0.02888068                1.10526001               -0.71629017               -1.68763176               -3.84141355               16.07634363              -19.54166706
              24.33057306               -1.56268915               73.14550618                0.03679210                1.31341043               -0.18448297               -3.48924209               -4.21539908               16.61066463              -25.43757435
              25.34460444               -3.90594591               72.60688875                0.05037852                1.53630620                0.39704241               -5.32148353               -4.10054144               16.51840032              -32.08323829
              26.36129919               -6.24646890               72.06377741                0.07296840                1.89033251                0.96165865               -7.13556692               -3.58287566               15.69681486              -39.36422241
              27.38241109               -8.57885971               71.50830717                0.11344156                2.41170791                1.50986360               -8.90851313               -2.81992286               14.41516420              -46.87895162
              28.40953335              -10.90120055               70.93891575                0.25860914                3.04521962                2.82070821              -10.64726984               -1.23981740               11.04327995              -51.44130936
              29.44331548              -13.21432382               70.31513953                0.69642979                3.37821391                3.71065171              -12.47736960                1.62224243                8.38292985              -62.55961745
              21.58667205               10.95765771               75.81733265                0.60026752               -1.10580838               -1.82540944                4.88948714               -0.12614608                0.00112870               11.10890213
              22.57561396                8.69416571               75.00982650                0.03799536               -1.18656740               -0.34572331                2.37222186               -1.93825491               13.75555922              -11.17743431
              23.56294070                6.39050162               74.47762772                0.00010000               -0.62141315               -1.12530937                0.69364816               -4.82270991               27.02483087              -19.55643423
              24.56318570                4.07890190               73.93343424                0.00010000                0.41302062               -1.40298251               -1.31284564               -6.22125539               26.18116385              -28.22646339
              25.57120111                1.75526340               73.38238111                0.00010000                1.05736863               -1.22978472               -3.37023935               -7.46329109               25.55419904              -38.45781200
              26.58433307               -0.57820563               72.82387894                0.00010000                1.52464492               -0.77363240               -5.53883640               -8.03451327               24.65520144              -50.16086165
              27.60169401               -2.91574654               72.25286656                0.00010000                1.95705653               -0.18233313               -7.86599576               -7.71691124               23.29308228              -63.39444330
              28.62347420               -5.25076829               71.66466752                0.00010000                2.45823028                0.45601606              -10.50889021               -6.52359053               21.82139486              -78.17060780
              29.65085862               -7.57785257               71.06063978                0.00010000                3.81159062                1.25460093              -14.04737517               -3.78212854               23.22943336              -94.29140260
              30.69970602               -9.87954892               70.49436730                0.00572837                6.92379150                2.45227890              -23.17990872               -0.56107435               19.18060188             -113.57386417
              31.78933445              -12.18101211               69.80818579                0.52563406                8.96284295                3.34237971              -29.16098026                2.22218940               12.63924260             -135.57448857
              23.84148125               11.94056023               75.59593701                0.58444390               -0.86704209               -1.59481052                4.29514197               -0.10981425                0.12710816               10.49363169
              24.83281083                9.69186885               74.68843739                0.02224748               -0.99902222               -0.13194012                1.48247341               -2.74193027               19.38396338               -9.67121647
              25.82150080                7.38594372               74.16626378                0.00010000               -0.67649285               -0.00869164               -0.55020382               -5.64699086               38.20626665              -18.45082118
              26.81928097                5.07285705               73.63240064                0.00010000                0.23385668                0.02703873               -2.69641017               -6.42442511               37.01328680              -27.40733325
              27.82617794                2.75090634               73.08268712                0.00010000                1.08058827                0.24528962               -5.02019383               -7.16008620               35.37400022              -37.23197815
              28.84089274                0.42183820               72.51194611                0.00010000                1.83254693                0.68239508               -7.52412776               -7.37259720               33.13693547              -48.36836498
              29.86282888               -1.90959257               71.91348446                0.00010000                2.60203354                1.27596198              -10.28314686               -6.77648165               30.23200905              -61.10265341
              30.89293341               -4.23734858               71.28053849                0.00010000                3.63601376                1.96939966              -13.47429534               -5.15046626               26.83368389              -75.83305787
              31.93554915               -6.55376769               70.60981037                0.00010000                5.42689938                2.75958918              -17.65654488               -2.33771721               21.91868904              -93.55156661
              33.00147140               -8.85215498               69.87526580                0.00010000                7.75682477                2.85421094              -22.16295739               -0.07859462               12.99249613             -118.20755365
              34.09068565              -11.14747622               69.02878202                0.51710977                8.92142522                3.34960983              -25.74176955                0.10588339                6.90316194             -142.34101404
              26.08185854               12.92576150               75.37878296                0.57814886               -0.64666621               -1.37467632                3.72675811               -0.10727275                0.12241241               10.79503236
              27.07539187               10.69152691               74.37021494                0.01720512               -0.64229272                0.07584615                0.58583488               -3.23553615               25.28467444               -9.37935376
              28.06901268                8.39032779               73.86504470                0.00010000               -0.28286475                0.73886867               -1.66699834               -6.43947282               49.89818965              -17.30792759
              29.06973458                6.07944267               73.34474275                0.00010000                0.50027772                1.10393189               -4.03261277               -6.88359791               48.23663910              -25.65202433
              30.07901824                3.76016919               72.80104557                0.00010000                1.38227299                1.44486747               -6.58290081               -7.17451566               45.71371862              -34.79739024
              31.09738004                1.43544227               72.22444922                0.00010000                2.31664629                1.89966336               -9.36723327               -7.01755595               42.17931753              -45.15999196
              32.12535116               -0.89022730               71.60429037                0.00010000                3.36299833                2.47163177              -12.44181684               -6.19661876               37.49576284              -57.17161214
              33.16464001               -3.21138029               70.92882094                0.00010000                4.67797529                3.09127641              -15.89411323               -4.62687956               31.37026231              -71.38899596
              34.21891067               -5.52266078               70.18223048                0.00010000                6.36013251                3.55735417              -19.65643175               -2.60003265               23.21147155              -88.68271268
              35.29184266               -7.82246470               69.34248145                0.00010000                8.15919721                3.61916208              -23.41346549               -1.00739892               12.53794950             -108.71240805
              36.38209461              -10.11401991               68.38601897                0.51870117                9.02519563                4.06827825              -26.69695080               -0.41279418                6.33619505             -129.68028547
              28.30780496               13.91306671               75.16385827                0.57231477               -0.42711478               -1.17051429                3.16617774               -0.10584997                0.13951646               10.94899766
              29.30353382               11.69338577               74.05463621                0.01422883               -0.15046892                0.30178319               -0.30361296               -3.53637258               31.64360097               -9.18256059
              30.30479558                9.40072109               73.57561856                0.00010000                0.41168945                1.26509095               -2.73288861               -6.94929214               62.48092355              -15.97133105
              31.31176760                7.09493569               73.07787624                0.00010000                1.09462202                1.84872110               -5.26877395               -7.29744251               60.34617234              -23.21796275
              32.32668803                4.77980369               72.54921431                0.00010000                1.95852528                2.31355361               -8.00712660               -7.29708484               56.96311496              -31.27981072
              33.35093811                2.45983147               71.97616039                0.00010000                2.95155226                2.83070516              -11.00750932               -6.85216635               52.14708112              -40.53569356
              34.38571907                0.13984007               71.34373402                0.00010000                4.09455969                3.43720051              -14.30916170               -5.91796330               45.67569870              -51.41393128
              35.43282930               -2.17552305               70.63491936                0.00010000                5.44569171                4.06303108              -17.90316962               -4.55230639               37.27100591              -64.41629798
              36.49463290               -4.48262061               69.83029345                0.00010000                6.99266185                4.58345234              -21.68436611               -2.98690205               26.68545684              -79.92307479
              37.57268254               -6.77977173               68.90924196                0.00010000                8.54536392                5.00973844              -25.42348171               -1.48744283               14.00444092              -97.92695879
              38.66554018               -9.06611066               67.85482521                0.52000189                9.28576423                5.59632000              -28.84294058               -0.65018683                6.98816494             -117.99400656
              30.51910341               14.90235121               74.95014123                0.56763215               -0.20933731               -0.97512296                2.61205440               -0.10368363                0.15049456               10.99468363
              31.51701004               12.69756258               73.74035193                0.01324131                0.46867561                0.53804720               -1.19512793               -3.74256793               38.65831386               -9.11237465
              32.52847692               10.41562960               73.30080528                0.00010000                1.38465474                1.64247700               -3.73905016               -7.28511918               76.36977161              -14.36560551
              33.54470313                8.11641710               72.83865701                0.00010000                1.98519172                2.29323978               -6.38257311               -7.57738951               73.74898895              -20.13257364
              34.56818076                5.80644027               72.33800404                0.00010000                2.77986011                2.83333487               -9.24512812               -7.32154565               69.52161737              -26.74734744
              35.60030033                3.49205638               71.78171307                0.00010000                3.70828306                3.45648831              -12.39801253               -6.61758010               63.47687666              -34.53558895
              36.64234642                1.17851671               71.15085848                0.00010000                4.78771105                4.18965028              -15.87277140               -5.59463231               55.35040638              -43.85882297
              37.69605455               -1.13011967               70.42421596                0.00010000                6.05374449                4.96703723              -19.64653634               -4.35221677               44.86299661              -55.14922893
              38.76342131               -3.43099174               69.57861830                0.00010000                7.47646464                5.72092160              -23.61339164               -2.99823587               31.86880444              -68.87192385
              39.84558385               -5.72226993               68.59128642                0.00174765                8.91737089                6.44041247              -27.56638983               -1.57932852               16.61316122              -85.42103854
              40.94176873               -8.00209351               67.44467727                0.52178873                9.61848779                7.14267055              -31.20572774               -0.69154561                8.27296686             -105.00076484
              32.71530856               15.89356425               74.73639876                0.56336366                0.00955018               -0.78415337                2.05580677               -0.10638452                0.16596270               10.91693828
              33.71540406               13.70414671               73.42619989                0.01409683                1.24650595                0.78345551               -2.09304082               -3.94378188               46.54731397               -9.15191314
              34.74023868               11.43357063               73.04367396                0.00010000                2.70025452                1.82400201               -4.66989135               -7.50682504               91.97646156              -12.43914920
              35.76940915                9.14080048               72.63404729                0.00010000                3.21895758                2.36201861               -7.34029576               -7.63754927               88.82395572              -16.34983374
              36.80461783                6.83647039               72.17788381                0.00010000                3.85504548                2.95721919              -10.24974786               -6.98425699               83.75238879              -21.23412235
              37.84651006                4.52896124               71.65509613                0.00010000                4.56923217                3.76857712              -13.48533860               -6.01070404               76.56215494              -27.25626823
              38.89600247                2.22363307               71.04370392                0.00010000                5.43916785                4.71116083              -17.08582788               -4.92016963               66.91982999              -34.65280152
              39.95529342               -0.07618231               70.31837673                0.00010000                6.54079857                5.71603768              -21.03392761               -3.77697804               54.41806063              -43.83657854
              41.02681845               -2.36820218               69.45051288                0.00010000                7.84521611                6.72644118              -25.22931521               -2.59483725               38.79543981              -55.44941268
              42.11219774               -4.65096348               68.41115766                0.00425978                9.22689910                7.69227605              -29.45425036               -1.35602433               20.28087840              -70.38748479
              43.21135643               -6.92325725               67.17730426                0.52302025                9.91586864                8.50957734              -33.32761943               -0.59470004               10.13158260              -89.45546163
              34.89581079               16.88666814               74.52130804                0.56067461                0.23172282               -0.59193587                1.49143825               -0.11209936                0.21923271               10.84627848
              35.89812801               14.71323169               73.11114758                0.01719986                2.29379333                1.03487864               -3.00205263               -4.27303183               55.57555535               -9.43351410
              36.94168665               12.45210964               72.80811124                0.00010000                4.54621886                1.55978793               -5.50283937               -7.67888824              109.75280127               -9.87964460
              37.98905239               10.16365747               72.47191869                0.00010000                4.93241053                1.82707350               -8.09898437               -7.03875219              105.89732461              -11.71978731
              39.04033486                7.86558465               72.07906454                0.00010000                5.19355876                2.70857624              -10.96601165               -5.87636476               99.91278662              -14.80247723
              40.09292357                5.56742792               71.60908752                0.00010000                5.43758527                3.80379204              -14.20320981               -4.73391962               91.71685153              -18.86426394
              41.14908657                3.27273993               71.03859918                0.00010000                5.97133390                4.99844393              -17.85952971               -3.72772636               80.79988256              -24.00983498
              42.21235024                0.98420108               70.33842110                0.00010000                6.86095850                6.23162630              -21.92968140               -2.77890338               66.45186698              -30.58930646
              43.28630574               -1.29646291               69.47267464                0.00010000                8.05840928                7.46242809              -26.32195644               -1.84537964               47.99001640              -39.30565644
              44.37351843               -3.56842441               68.40045811                0.00687398                9.40782563                8.63156162              -30.80448983               -0.91542267               25.35917642              -51.61511407
              45.47446225               -5.83190196               67.08634872                0.52434797               10.09438211                9.60135988              -34.88389613               -0.40929141               12.78993207              -69.79966249
              37.05993949               17.88172553               74.30624931                0.55568856                0.45624356               -0.38643515                0.92104089               -0.12079112               -0.20790515                9.43899384
              38.06450192               15.72484429               72.79137537                0.01954448                3.81478218                1.27960338               -3.93444448               -5.04338753               66.14786522               -8.61998443
              39.13623513               13.46476639               72.60356907                0.00010000                7.53285901               -0.16662930               -6.19354958               -6.23420336              130.40241440               -5.67254123
              40.21515910               11.17734195               72.36238003                0.00010000                7.35424768                0.94417385               -8.60310466               -4.82041151              124.98546379               -6.18706380
              41.28332008                8.89064191               72.05081647                0.00010000                6.47586438                2.27912570              -11.33283362               -3.46680155              118.03608290               -7.61189184
              42.34467639                6.60503708               71.65430856                0.00010000                6.06773510                3.68733980              -14.47789520               -2.65213273              109.16490091               -9.63825378
              43.40467479                4.32360195               71.14929012                0.00010000                6.21209023                5.09747727              -18.09668943               -2.01370661               97.42679522              -12.27656132
              44.46891820                2.04845022               70.50376464                0.00010000                6.89307788                6.49536566              -22.19738017               -1.45288048               81.77547461              -15.73357364
              45.54253634               -0.21895362               69.67516626                0.00010000                8.02050701                7.86385526              -26.70211171               -0.91499914               60.77954622              -20.49736487
              46.62932834               -2.47833225               68.60523384                0.00937947                9.37946802                9.16078728              -31.38012938               -0.41285351               32.94774404              -27.74597116
              47.73012570               -4.73123005               67.22371763                0.52583123               10.07973690               10.29688969              -35.59890685               -0.23309809               16.85805711              -41.98587445
              39.20715745               18.87893944               74.06302648                0.77719015                0.70619528               -0.27860909                0.24439727                0.71022769                4.28305915                8.03715446
              40.21421940               16.73882375               72.49259566                0.50187222                7.86737347                1.39794660               -4.80356134               -6.53637097               80.91157447               -7.57260197
              41.36450492               14.44877706               72.45462264                0.44952933               12.62746188               -1.59893320               -6.65085203               -4.98716142              153.21113758               -3.12997177
              42.46676864               12.18254095               72.31463276                0.44047772                8.93993943                0.51989935               -8.79447273               -1.71954092              145.21284627               -3.31474518
              43.54330371                9.91116716               72.10000059                0.43734717                7.00761156                2.05252531              -11.28927917               -1.06994905              138.00119294               -3.98011334
              44.60692087                7.64117472               71.79776943                0.43959806                6.10477931                3.61376402              -14.23671752               -0.59943634              129.00519903               -5.00556927
              45.66539929                5.37468947               71.38492011                0.44713388                5.94636654                5.10875232              -17.70546797               -0.28086525              117.14130841               -6.37092054
              46.72584820                3.11410839               70.82851470                0.46009468                6.46944656                6.56581765              -21.71865119               -0.00076341              101.17239949               -8.18811260
              47.79478823                0.86081419               70.08299861                0.47937514                7.58447955                7.97678071              -26.21314966                0.25933527               79.35417022              -10.75751758
              48.87753779               -1.38520866               69.08341813                0.50560931                9.04038301                9.31235880              -30.97554957                0.48202791               47.45099340              -14.71910481
              49.97559589               -3.62596417               67.70263539                0.76336080                9.80580923               10.52658820              -35.24033169                0.47146776               27.85435656              -25.61024412
              17.64942950                9.32474302               77.34917410                0.86835820               -1.64011393               -1.82940729                6.22319953               -0.47503811               -5.68467528                6.18354998
              18.63302836                6.93556001               76.66933933                0.60871117               -1.64924569               -1.06206776                4.19587059               -0.58350229               -7.95026061               -4.76674470
              19.61644459                4.53678569               75.94443444                0.49730869               -1.48055097               -0.57737182                2.08546178               -0.49208430               -8.22275469               -0.33754858
              20.60341734                2.11937099               75.25988602                0.46194544               -0.95921693                0.01057103                0.06608563               -0.43144869               -5.72907146               -0.44454438
              21.59726025               -0.31601089               74.58524010                0.45129247               -0.16766990                0.59830647               -2.01217296               -0.37105040               -4.83737238               -0.26495559
              22.60006395               -2.76421192               73.91856812                0.45847532                0.77876680                1.19764786               -4.13934595               -0.32900116               -4.31965847               -0.09174863
              23.61283559               -5.21742981               73.25422743                0.48400005                1.75566150                1.79570452               -6.29231882               -0.31304902               -4.43086108                0.07660975
              24.63517718               -7.66787868               72.58530006                0.53268262                2.63947015                2.38099773               -8.43994076               -0.31348347               -5.21153455                0.25648404
              25.66562499              -10.11024872               71.90533215                0.61472296                3.36039604                2.95436449              -10.55465242               -0.31616574               -6.82514710                0.32844447
              26.70238510              -12.54261126               71.20400618                0.74693112                3.93257666                3.51681743              -12.65482660               -0.31751083               -7.31902750                1.16359331
              27.74427652              -14.96647603               70.51383065                0.92901400                4.18914255                4.13536352              -14.72523005               -0.64816441               -6.73952199               -4.66483883
              20.03386213               10.30644895               77.07677306                0.66377874               -1.26901251               -1.89550019                5.43160806               -0.29038353                4.33230624                9.27608761
              21.02117200                7.92493933               76.39229493                0.13296534               -0.71219356               -0.76031824                3.42579589               -0.64876915                9.77723564               -8.85123725
              22.01961826                5.53101197               75.81686139                0.03618268                0.21645719               -1.18633916                1.80519503               -1.90193839               15.01869477              -10.60696581
              23.02550115                3.11947670               75.23682916                0.02676576                0.78614703               -1.04528455                0.07030307               -2.97243166               15.43638852              -15.14050196
              24.03534120                0.68997217               74.66964576                0.03006837                1.09911237               -0.64577695               -1.71583433               -3.75325367               16.46541743              -20.55166054
              25.04748340               -1.75223544               74.11031596                0.03802641                1.30986396               -0.10169847               -3.54284725               -4.07136068               16.96650652              -26.78030652
              26.06153848               -4.19947277               73.55323953                0.05170895                1.54841997                0.48094129               -5.40334221               -3.89411515               16.86639619              -33.82361357
              27.07845179               -6.64406871               72.99180251                0.07422539                1.91455706                1.02779118               -7.24539114               -3.29243498               16.06790807              -41.65462885
              28.09982962               -9.08070508               72.41843208                0.11386989                2.44359235                1.52946867               -9.05372063               -2.38431638               14.81769212              -50.14320387
              29.12732364              -11.50744308               71.83151644                0.23862763                3.09150145                2.45062134              -10.82743941               -0.81099516               11.41137248              -57.98059557
              30.16165965              -13.92512239               71.18932173                0.68069069                3.43360060                3.01050181              -12.68066064                1.66884273                8.69889935              -71.34618839
              22.40664106               11.28683302               76.86645838                0.59145475               -1.11511038               -1.84585973                4.92637908               -0.12462174               -0.02775998               11.50411911
              23.39548995                8.92035365               76.03369503                0.03754477               -1.13862997               -0.34296656                2.39629625               -1.96837757               14.11672741              -11.50531012
              24.38386846                6.51305891               75.48398713                0.00010000               -0.52407216               -1.08308138                0.60114885               -4.79435034               27.64470698              -20.39612991
              25.38500851                4.09846530               74.91985262                0.00010000                0.50194280               -1.31858138               -1.39023867               -6.11617397               26.63356294              -29.64366158
              26.39390731                1.67107357               74.34821689                0.00010000                1.15365820               -1.11943298               -3.45103882               -7.30114308               25.91850565              -40.46035692
              27.40808167               -0.76624589               73.76806546                0.00010000                1.64396173               -0.65967137               -5.61211067               -7.78056142               24.89262377              -52.81278331
              28.42678655               -3.20781099               73.17389763                0.00010000                2.12395550               -0.09070324               -7.91264045               -7.38858902               23.31761175              -66.79875131
              29.45056078               -5.64732286               72.55962036                0.00010000                2.72632454                0.48233876              -10.47692433               -6.15077811               21.31357495              -82.53410031
              30.48131304               -8.07965935               71.92151612                0.00010000                4.00108632                1.10737628              -13.72304310               -3.71790083               20.03029612             -100.07168476
              31.53058251              -10.49359883               71.27542957                0.00280044                6.58494777                1.92918295              -20.56987965               -0.88734219               14.69889891             -120.91917429
              32.61301199              -12.90626599               70.53038353                0.51619795                8.24294843                2.61288353              -25.90668727                1.63908050                9.01298423             -144.08664478
              24.76432843               12.26953175               76.63907508                0.57592693               -0.87498724               -1.61629447                4.32347314               -0.10906758                0.12646039               10.85747378
              25.75557856                9.91808000               75.70341545                0.02212296               -0.93544153               -0.12902019                1.51030585               -2.74235650               19.74672493               -9.93308319
              26.74561960                7.50935035               75.16029608                0.00010000               -0.52077769                0.05152046               -0.62416746               -5.62473497               38.88088062              -19.30515529
              27.74516301                5.09310507               74.60474200                0.00010000                0.42049593                0.08104374               -2.81331160               -6.36094270               37.55549057              -28.78628703
              28.75402952                2.66758351               74.03184091                0.00010000                1.27968591                0.30637694               -5.13017093               -7.04131658               35.73738852              -39.17599521
              29.77075672                0.23457113               73.43625251                0.00010000                2.04070739                0.73044949               -7.59821383               -7.20915406               33.29056389              -50.92304985
              30.79484367               -2.20128683               72.81057927                0.00010000                2.82639338                1.28529506              -10.28226987               -6.62341128               30.07137112              -64.32622549
              31.82728459               -4.63442193               72.14645573                0.00010000                3.84519528                1.90598275              -13.32107192               -5.16222445               26.05107304              -79.75187394
              32.87174757               -7.05855755               71.43588352                0.00010000                5.44494251                2.57166606              -17.09404197               -2.81533152               20.52847349              -97.90453581
              33.93618344               -9.46885943               70.65786498                0.00010000                7.40140022                2.83768698              -21.21502222               -0.71828570               11.84870178             -120.70247630
              35.01977558              -11.87286472               69.77674256                0.51095111                8.35921361                3.53344268              -24.56957682               -0.21038828                6.13599673             -143.91311699
              27.10736320               13.25450713               76.41616075                0.56964033               -0.65389747               -1.39398593                3.74940482               -0.10050939                0.12417502               11.18372027
              28.10082423               10.91777324               75.37622555                0.01723875               -0.55072563                0.07692103                0.61500591               -3.22724772               25.69541894               -9.64370178
              29.09634869                8.51408932               74.84784732                0.00010000               -0.06338709                0.76127176               -1.75119373               -6.40570138               50.65850011              -18.09900988
              30.09955649                6.10008617               74.30361645                0.00010000                0.76331138                1.12631828               -4.16579875               -6.83367916               48.84917170              -26.96280143
              31.11161492                3.67720111               73.73447811                0.00010000                1.66062262                1.45828779               -6.70652551               -7.09460492               46.11150833              -36.63293220
              32.13276894                1.24836310               73.13036807                0.00010000                2.58482333                1.89419169               -9.43033992               -6.92334130               42.31335857              -47.54959037
              33.16331139               -1.18210509               72.48006435                0.00010000                3.59090362                2.43511164              -12.39117645               -6.15347800               37.30919903              -60.13035337
              34.20458701               -3.60920321               71.77104017                0.00010000                4.80662586                3.02167354              -15.65698226               -4.75309554               30.85958730              -74.84750607
              35.25944390               -6.02822603               70.98800575                0.00010000                6.29684780                3.51837930              -19.18753289               -2.95375589               22.55330716              -92.28407781
              36.33052397               -8.43684509               70.11180038                0.00010000                7.86854604                3.79775719              -22.73161328               -1.35582899               12.08319385             -112.25552502
              37.41681482              -10.83559714               69.12300829                0.51225260                8.62908555                4.34550108              -25.91649233               -0.57099814                6.05994454             -133.44846592
              29.43578601               14.24165203               76.19561226                0.56442943               -0.43345968               -1.18299352                3.18358827               -0.09901008                0.14061122               11.35100057
              30.43145141               11.91961842               75.05173168                0.01432469               -0.02966823                0.29880300               -0.27636369               -3.52939456               32.12771267               -9.44682529
              31.43519265                9.52457578               74.54770547                0.00010000                0.69631084                1.26307596               -2.82621991               -6.92526836               63.37724664              -16.71828730
              32.44537763                7.11563143               74.02429853                0.00010000                1.43339222                1.83556857               -5.41567875               -7.26774626               61.07325021              -24.42763077
              33.46386049                4.69674927               73.46834952                0.00010000                2.31092312                2.28239592               -8.13761371               -7.24456274               57.43729745              -32.95826216
              34.49159609                2.27245497               72.86573910                0.00010000                3.27399617                2.77680714              -11.05663771               -6.79152394               52.32038992              -42.70028203
              35.52934041               -0.15258460               72.20109243                0.00010000                4.33737636                3.35995984              -14.21213764               -5.89561511               45.53955748              -54.06964948
              36.57834362               -2.57398846               71.45746698                0.00010000                5.54869647                3.97835993              -17.60028231               -4.62417462               36.88835327              -67.51442874
              37.64031434               -4.98818997               70.61639223                0.00010000                6.90471767                4.54106980              -21.13928107               -3.15449522               26.22231281              -83.38498228
              38.71643797               -7.39290428               69.65925983                0.00010000                8.27726823                5.04232714              -24.65632372               -1.64218559               13.69138984             -101.71318408
              39.80585971               -9.78595470               68.57129774                0.51354326                8.94217339                5.64117039              -27.96585373               -0.73638424                6.82069060             -122.17155029
              31.74945022               15.23084726               75.97631093                0.55998176               -0.21376321               -0.98331602                2.61834667               -0.10236628                0.15165729               11.40085647
              32.74731259               12.92374930               74.72852264                0.01334420                0.61900449                0.53450331               -1.16860384               -3.74715529               39.24954284               -9.38343431
              33.76183031               10.53935084               74.26277315                0.00010000                1.73577412                1.61679608               -3.84163354               -7.28218423               77.46688437              -15.05191484
              34.78202807                8.13679754               73.77385690                0.00010000                2.40349103                2.24149768               -6.54280695               -7.57044617               74.65328468              -21.20847154
              35.80990013                5.72284903               73.24469845                0.00010000                3.21221291                2.75542384               -9.38387249               -7.28839345               70.13024955              -28.21633463
              36.84627233                3.30389924               72.65742679                0.00010000                4.09711881                3.35198781              -12.43732248               -6.56638927               63.73810384              -36.41556523
              37.89184251                0.88509411               71.99280258                0.00010000                5.07182764                4.06029586              -15.73522128               -5.55424664               55.26601661              -46.16457147
              38.94770888               -1.52963601               71.22982909                0.00010000                6.17136552                4.82280681              -19.25929757               -4.35293507               44.50767509              -57.88352190
              40.01526982               -3.93740463               70.34630898                0.00010000                7.38680543                5.57644300              -22.92638963               -3.04495452               31.40914704              -72.02649550
              41.09544499               -6.33599855               69.32121846                0.00010000                8.64590791                6.29178894              -26.59093913               -1.63399848               16.29026339              -88.97976297
              42.18818798               -8.72277373               68.13906534                0.51486398                9.27429854                6.95025658              -30.09411542               -0.74106720                8.12217107             -108.95944369
              34.04793459               16.22198571               75.75697187                0.55623038                0.00701362               -0.79042058                2.05421121               -0.10685355                0.16375316               11.31707363
              35.04800473               13.93030849               74.40535379                0.01416050                1.42830655                0.78149151               -2.07026728               -3.97028473               47.28801365               -9.43282889
              36.07650072               11.55691170               73.99627251                0.00010000                3.12328945                1.77072182               -4.78319499               -7.54018306               93.35884413              -13.04149406
              37.11047052                9.16046139               73.55956945                0.00010000                3.72450982                2.26655877               -7.51738668               -7.65553399               89.98356492              -17.24722599
              38.15099092                6.75185775               73.07443660                0.00010000                4.37763543                2.82963886              -10.40351258               -6.96375811               84.56500709              -22.43491125
              39.19802323                4.33949472               72.51991552                0.00010000                5.03999062                3.61130439              -13.52572547               -5.96074783               76.96410980              -28.78237938
              40.25179073                1.92862132               71.87366513                0.00010000                5.78802173                4.52125981              -16.91949967               -4.86198256               66.90839472              -36.52874393
              41.31378366               -0.47753232               71.11055663                0.00010000                6.69935325                5.49166285              -20.56816620               -3.73250854               54.06794767              -46.08455849
              42.38577780               -2.87666111               70.20292348                0.00010000                7.76717224                6.46578117              -24.39242736               -2.57847963               38.28741939              -58.08394466
              43.46912711               -5.26706850               69.12363021                0.00010000                8.94054651                7.38394556              -28.24645494               -1.36421529               19.90672059              -73.39914272
              44.56458873               -7.64694957               67.85211586                0.51633411                9.54616219                8.12784862              -31.95262061               -0.62948707                9.97012191              -92.82492881
              36.33066760               17.21503884               75.53615798                0.55353465                0.23133075               -0.59570283                1.47633786               -0.11347719                0.22195150               11.23785039
              37.33298091               14.93937913               74.08120754                0.01718920                2.51030767                1.03406665               -2.97880028               -4.33579365               56.52295264               -9.73252656
              38.38087375               12.57476527               73.75229595                0.00010000                5.04952213                1.46704641               -5.63159085               -7.76571977              111.52472849              -10.35935845
              39.43397135               10.18212872               73.38971838                0.00010000                5.53589426                1.67968437               -8.30020413               -7.07487983              107.40593838              -12.38111158
              40.49159164                7.77944180               72.96829831                0.00010000                5.81612278                2.53391106              -11.14660454               -5.86155262              101.00997873              -15.66859644
              41.55029380                5.37612533               72.46661139                0.00010000                6.00191334                3.59810069              -14.26214312               -4.68642021               92.32891443              -19.95878380
              42.61162990                2.97551931               71.86083449                0.00010000                6.40236651                4.75164800              -17.68783811               -3.66661956               80.91505697              -25.35641996
              43.67834114                0.58019725               71.12191046                0.00010000                7.08032509                5.93308923              -21.41326998               -2.72011940               66.14036128              -32.21093924
              44.75323641               -1.80808901               70.21484984                0.00010000                8.00540084                7.10258892              -25.36378914               -1.80475065               47.44537267              -41.22122908
              45.83844915               -4.18831964               69.10068377                0.00010000                9.10619821                8.20342665              -29.38854210               -0.90420665               24.93456774              -53.82522094
              46.93536037               -6.56021676               67.74703095                0.51758588                9.69112185                9.09316407              -33.27615922               -0.43719653               12.61414990              -72.28564981
              38.59698447               18.21007166               75.31533791                0.54826899                0.45779555               -0.38531838                0.89739718               -0.12107186               -0.21612824                9.77622828
              39.60156243               15.95098982               73.75209958                0.01936764                4.07261360                1.27814430               -3.91644810               -5.16413707               67.37803877               -8.90351448
              40.67843674               13.58625263               73.54072467                0.00010000                8.13669812               -0.33511976               -6.34492048               -6.34756952              132.70306637               -5.95298781
              41.76429639               11.19405508               73.27494275                0.00010000                8.06632546                0.75507460               -8.84041396               -4.85487660              126.94098938               -6.54472069
              42.83976325                8.80253597               72.93614132                0.00010000                7.19604654                2.06984303              -11.55684675               -3.45275949              119.50696357               -8.07462484
              43.90821732                6.41145674               72.50884585                0.00010000                6.73115847                3.44556324              -14.57867512               -2.61858055              110.07383389              -10.22138079
              44.97438642                4.02365428               71.96898647                0.00010000                6.73861330                4.80737654              -17.95183102               -1.97079290               97.75020752              -12.99429998
              46.04298959                1.64112946               71.28459357                0.00010000                7.19066257                6.14182437              -21.67319852               -1.40885475               81.57370765              -16.59894592
              47.11819967               -0.73460933               70.41391338                0.00010000                8.00905687                7.43471383              -25.67428099               -0.87794083               60.25034371              -21.51972335
              48.20317072               -3.10299997               69.30065388                0.00010000                9.07196815                8.65155957              -29.80489617               -0.39587649               32.49823325              -28.93274089
              49.29963904               -5.46508629               67.87825253                0.51885606                9.64683131                9.72860157              -33.82721317               -0.25429992               16.67436837              -43.32782214
              40.84640983               19.20733248               75.06529942                0.77363258                0.71073611               -0.27391798                0.21244180                0.70349006                4.43510641                8.32136663
              41.85351719               16.96494202               73.44460635                0.49772469                8.22236393                1.39521964               -4.79376526               -6.76800355               82.59370526               -7.82774257
              43.01085711               14.56806288               73.38700012                0.44849330               13.35366445               -1.81897530               -6.83990406               -5.14355399              156.14525662               -3.25625058
              44.12059048               12.19723021               73.22499371                0.44030957                9.71388397                0.31751332               -9.08575186               -1.73180158              147.69933783               -3.48370277
              45.20513479                9.82083866               72.98541103                0.43751809                7.81067026                1.83026970              -11.57872132               -1.07252710              139.94673187               -4.20073780
              46.27680389                7.44503660               72.65434078                0.43952095                6.87032669                3.35798608              -14.40718470               -0.59993491              130.31780434               -5.28397137
              47.34254132                5.07166684               72.20817411                0.44617350                6.58118789                4.80125602              -17.62395366               -0.28465297              117.77896038               -6.71102617
              48.40842764                2.70303374               71.61388833                0.45840455                6.86328492                6.19042775              -21.23418123               -0.00927270              101.17743847               -8.59207976
              49.47980702                0.34060527               70.82665343                0.47606411                7.62904705                7.52145956              -25.17514152                0.24462539               78.91714948              -11.22294162
              50.56100858               -2.01528845               69.78344859                0.50029759                8.73199942                8.77115227              -29.29628714                0.47128622               47.02861775              -15.24317031
              51.65444701               -4.36564473               68.36138119                0.75985720                9.34384245                9.94415610              -33.34957201                0.44516919               27.69428281              -26.21311794
              18.28178496                9.66370959               78.41164114                0.86224616               -1.65040000               -1.84036953                6.25738325               -0.47989565               -5.83675324                6.32975232
              19.26528096                7.16807302               77.71144930                0.60099900               -1.67183285               -1.06701523                4.21848025               -0.59750116               -8.13610501               -4.90758140
              20.24834830                4.66256902               76.96540741                0.49420840               -1.50586151               -0.58111249                2.10555783               -0.48406673               -8.39840417               -0.29690527
              21.23516373                2.13802657               76.26061967                0.46102651               -0.96771582                0.01134888                0.08249793               -0.42975986               -5.88477398               -0.42873151
              22.22899399               -0.40452123               75.56516029                0.45129694               -0.16755595                0.60132605               -2.00247973               -0.37728007               -5.04650408               -0.26039935
              23.23181261               -2.95984662               74.87714722                0.45874603                0.77909732                1.20540009               -4.13574050               -0.33322534               -4.56990865               -0.09088274
              24.24457593               -5.52017938               74.19119008                0.48329050                1.75349470                1.80910053               -6.29756696               -0.31451447               -4.69502062                0.06607649
              25.26688250               -8.07787668               73.50075559                0.52993363                2.63702104                2.39948967               -8.45208257               -0.31684148               -5.46497067                0.24134287
              26.29731635              -10.62768080               72.79955345                0.60789978                3.36383544                2.97730377              -10.57815705               -0.31828806               -7.07090303                0.30553095
              27.33415921              -13.16771174               72.07709820                0.73196146                3.94436734                3.54758805              -12.69594212               -0.31997127               -7.55738809                1.14748616
              28.37620370              -15.69950408               71.36612973                0.91796157                4.20444873                4.17036146              -14.78125071               -0.63131444               -6.97670335               -4.78472791
              20.77262257               10.64530589               78.13127373                0.65292445               -1.27463410               -1.91357582                5.46100010               -0.29737268                4.51496611                9.57099812
              21.75987623                8.15740287               77.42666699                0.12076675               -0.70458563               -0.75670129                3.44249464               -0.67045934               10.15702375               -9.11807225
              22.75853086                5.65675790               76.83498739                0.03725313                0.22675141               -1.17123475                1.81718649               -1.89669293               15.53229305              -11.04594867
              23.76441126                3.13814006               76.23751140                0.02795185                0.78134614               -0.99553718                0.06347692               -2.94012024               15.86455428              -15.86761037
              24.77415778                0.60149203               75.65237943                0.03124440                1.09490847               -0.58088281               -1.73451637               -3.67841408               16.84601978              -21.57080312
              25.78630943               -1.94779262               75.07464923                0.03918717                1.31440190               -0.02756107               -3.58625608               -3.94440956               17.30649035              -28.11082611
              26.80044582               -4.50208837               74.49882190                0.05284275                1.55776864                0.55590357               -5.46308095               -3.70868782               17.19723769              -35.51755856
              27.81746480               -7.05388179               73.91886959                0.07512649                1.93025897                1.08865821               -7.33211150               -3.02873426               16.41569897              -43.83703909
              28.83905100               -9.59790776               73.32723276                0.11366341                2.47031699                1.54715431               -9.16683316               -2.00075464               15.18725608              -53.11316043
              29.86687114              -12.13223586               72.72236697                0.21868447                3.13159500                2.17153984              -10.97861588               -0.46176626               11.75547300              -63.06275473
              30.90168290              -14.65780046               72.06152631                0.66546048                3.48117586                2.46691228              -12.85262166                1.61766536                8.99795575              -78.10163601
              23.25164356               11.62543807               77.91586023                0.58248771               -1.12237892               -1.86492763                4.94971188               -0.11455052               -0.05705978               11.89613440
              24.24041977                9.15293899               77.05775242                0.03701139               -1.09831532               -0.33631039                2.41732319               -1.98228218               14.43758179              -11.82304847
              25.22967725                6.63914433               76.48965069                0.00010000               -0.43962861               -1.03887395                0.54673483               -4.77810774               28.22003003              -21.27889518
              26.23162719                4.11811583               75.90562947                0.00010000                0.58405674               -1.23862912               -1.44400580               -6.04242639               27.08478117              -31.09140019
              27.24135838                1.58386111               75.31336033                0.00010000                1.24388108               -1.01834022               -3.50896725               -7.16281256               26.27543052              -42.47262589
              28.25650482               -0.96039784               74.71163672                0.00010000                1.75664795               -0.55663937               -5.66051700               -7.56330906               25.12683043              -55.43252918
              29.27649134               -3.50906130               74.09461375                0.00010000                2.28111964               -0.00977130               -7.93026547               -7.10492109               23.35467106              -70.10524207
              30.30212721               -6.05610352               73.45512903                0.00010000                2.95819927                0.50379608              -10.40153624               -5.82452978               20.92048294              -86.68818534
              31.33565533               -8.59673771               72.78617892                0.00010000                4.13446911                0.97798646              -13.33038553               -3.62595206               17.96083704             -105.38006096
              32.38481659              -11.12428094               72.08296971                0.00028507                6.20154482                1.48302733              -18.20150011               -1.13564344               11.73062872             -127.37285530
              33.45968622              -13.65016583               71.29005204                0.50740715                7.48696341                1.97185703              -22.42019391                1.10988642                6.57054136             -151.36318703
              25.71532972               12.60800734               77.68240647                0.56760354               -0.88053862               -1.62696719                4.34007690               -0.10462417                0.13044763               11.22034215
              26.70652433               10.15067666               76.71864351                0.02191689               -0.87689239               -0.13011726                1.53300642               -2.74165032               20.07043580              -10.17925566
              27.69779187                7.63598042               76.15378043                0.00010000               -0.38391913                0.08969365               -0.66726016               -5.60973211               39.48678044              -20.15398332
              28.69884595                5.11336748               75.57613441                0.00010000                0.58116658                0.12571445               -2.89089496               -6.31975809               38.06393644              -30.17489211
              29.70941520                2.58112522               74.98008370                0.00010000                1.45598568                0.35704152               -5.20435759               -6.95772453               36.09452756              -41.10969322
              30.72796566                0.04107459               74.35998183                0.00010000                2.23189377                0.76808610               -7.64020805               -7.09264323               33.45501939              -53.42751896
              31.75405307               -2.50228380               73.70783906                0.00010000                3.03424758                1.28568870              -10.25086720               -6.52543785               29.95402093              -67.43711637
              32.78865061               -5.04380587               73.01411705                0.00010000                4.03281510                1.83809298              -13.13301400               -5.21505456               25.44077487              -83.47362979
              33.83470938               -7.57834803               72.26792953                0.00010000                5.44678899                2.39433331              -16.50422764               -3.26040870               19.40816004             -102.03001019
              34.89758639              -10.10257531               71.45096536                0.00010000                7.04705192                2.76554465              -20.16051657               -1.31639471               10.88457576             -123.83283610
              35.97565042              -12.61836332               70.53739049                0.50478876                7.80640231                3.63107147              -23.29383419               -0.51922827                5.54913257             -146.45373893
              28.16421243               13.59289873               77.45377106                0.56202709               -0.65987522               -1.40354001                3.76322565               -0.10377678                0.12045333               11.57150254
              29.15761368               11.15033665               76.38251506                0.01721007               -0.47103228                0.07377568                0.64136037               -3.22449993               26.05392973               -9.89514831
              30.15479179                8.64093820               75.83002083                0.00010000                0.12367737                0.77245480               -1.80019134               -6.38623657               51.33398523              -18.88956232
              31.16008723                6.12063012               75.26142678                0.00010000                0.98524956                1.13875733               -4.25181213               -6.80968280               49.41938369              -28.26931638
              32.17449678                3.59100194               74.66691506                0.00010000                1.89868711                1.46464382               -6.78591692               -7.05440149               46.50536067              -38.44557564
              33.19806097                1.05496388               74.03584243                0.00010000                2.81831331                1.88462598               -9.45869062               -6.88560666               42.47772906              -49.87675566
              34.23086304               -1.48334753               73.35646684                0.00010000                3.79146910                2.39963225              -12.31862803               -6.17881386               37.19359089              -62.96925057
              35.27389035               -4.01934166               72.61568129                0.00010000                4.91767766                2.96026588              -15.41471254               -4.94287772               30.45551563              -78.12895399
              36.32921660               -6.54885105               71.79847982                0.00010000                6.23068182                3.48622701              -18.72490430               -3.35257246               21.99742371              -95.74518667
              37.39850399               -9.06897005               70.88784919                0.00010000                7.58305459                3.95609085              -22.06953350               -1.73374614               11.67788258             -115.70921833
              38.48087769              -11.57754440               69.86768913                0.50616308                8.23737009                4.63823020              -25.15929092               -0.74604817                5.83595817             -137.15227919
              30.59837834               14.57993654               77.22753004                0.55695499               -0.43834810               -1.19449989                3.19136518               -0.10340197                0.13550348               11.74408234
              31.59399486               12.15215217               76.04910894                0.01437344                0.06976642                0.29675632               -0.24747529               -3.52910181               32.55161106               -9.69818923
              32.59977367                9.65142951               75.51909416                0.00010000                0.92968465                1.25430345               -2.88023435               -6.91604879               64.17526791              -17.45972551
              33.61258855                7.13614263               74.96956266                0.00010000                1.71098698                1.81733156               -5.50870810               -7.26275592               61.75228046              -25.62722691
              34.63399341                4.61041810               74.38646203                0.00010000                2.60072240                2.25122807               -8.21810215               -7.23282186               57.91469775              -34.60703378
              35.66460300                2.07876711               73.75502763                0.00010000                3.53944657                2.73023837              -11.07092144               -6.79059660               52.54625460              -44.79890128
              36.70478234               -0.45429115               73.05949127                0.00010000                4.53467874                3.30000579              -14.10574205               -5.94831287               45.50272790              -56.60815937
              37.75529657               -2.98460055               72.28291372                0.00010000                5.62519881                3.92309475              -17.32541135               -4.77605206               36.63903815              -70.44217764
              38.81728631               -5.50862349               71.40750783                0.00010000                6.81541268                4.53990748              -20.67407615               -3.39273314               25.89328348              -86.62746923
              39.89160483               -8.02345349               70.41611549                0.00010000                8.02959268                5.13672342              -24.02966725               -1.84232325               13.46351801             -105.24948732
              40.97787817              -10.52559872               69.29550813                0.50724868                8.62733406                5.77219510              -27.25933384               -0.83248844                6.71098262             -126.10000499
              33.01771313               15.56900873               77.00250816                0.55264625               -0.21744576               -0.99389348                2.61796269               -0.10162419                0.15229899               11.79703187
              34.01553867               13.15627177               75.71697985                0.01340516                0.73836161                0.53265365               -1.13780153               -3.75578112               39.77470261               -9.64092491
              35.03248036               10.66602427               75.22397261                0.00010000                2.01524281                1.58942207               -3.90088412               -7.29343920               78.45231737              -15.72988408
              36.05584353                8.15697675               74.70780087                0.00010000                2.73677474                2.19259240               -6.64364691               -7.58349793               75.50371982              -22.27076743
              37.08721585                5.63602650               74.15032659                0.00010000                3.55573819                2.68771023               -9.46752261               -7.29148052               70.74873609              -29.65456384
              38.12695829                3.10956865               73.53296662                0.00010000                4.40242972                3.26809650              -12.44153118               -6.57065965               64.07453901              -38.23354261
              39.17526445                0.58265259               72.83615405                0.00010000                5.28716810                3.96587155              -15.59922721               -5.58507463               55.32221420              -48.36327200
              40.23270165               -1.94087976               72.03903001                0.00010000                6.24752156                4.73228524              -18.93241084               -4.43040146               44.34779108              -60.45438280
              41.30021488               -4.45805290               71.12009051                0.00010000                7.29655506                5.51007783              -22.38534175               -3.15744369               31.16151612              -74.95925915
              42.37863275               -6.96623558               70.05946764                0.00010000                8.41517487                6.25209235              -25.86501215               -1.72563306               16.11344083              -92.28270005
              43.46851838               -9.46210050               68.84279497                0.50864702                8.98856246                6.89386460              -29.28380148               -0.79102203                8.05316598             -112.67218528
              35.42181977               16.56005867               76.77748299                0.54906620                0.00439303               -0.79748115                2.04605240               -0.10346335                0.16179672               11.70922110
              36.42186370               14.16280525               75.38479455                0.01417886                1.56900719                0.77817966               -2.03849386               -3.99651419               47.95407181               -9.70013525
              37.45319991               11.68321796               74.94801006                0.00010000                3.45263320                1.72230217               -4.85007101               -7.58103789               94.61503043              -13.63497426
              38.49091636                9.17999447               74.48369955                0.00010000                4.11859941                2.18425953               -7.63006098               -7.68601904               91.08114479              -18.13023193
              39.53557190                6.66417230               73.96981356                0.00010000                4.78236815                2.72407456              -10.49677598               -6.97199276               85.39045206              -23.60770035
              40.58656372                4.14412904               73.38458162                0.00010000                5.39786804                3.48766339              -13.52857473               -5.95693181               77.46105320              -30.25614844
              41.64352926                1.62502628               72.70531392                0.00010000                6.04151519                4.38188018              -16.76087836               -4.86298437               67.07968233              -38.31604355
              42.70739403               -0.88995484               71.90701341                0.00010000                6.79819978                5.34125641              -20.18640352               -3.75038743               53.98077858              -48.19684196
              43.77949325               -3.39842193               70.96266433                0.00010000                7.68728726                6.30877511              -23.75490796               -2.61158996               38.07577358              -60.53374148
              44.86113977               -5.89841164               69.84622856                0.00010000                8.71471610                7.21415417              -27.38375623               -1.39517817               19.74212849              -76.20292205
              45.95378758               -8.38772143               68.53825185                0.50984015                9.26478040                7.91744369              -30.99591395               -0.65435289                9.91956463              -96.00990133
              37.81015071               17.55305911               76.55083480                0.54621986                0.22983911               -0.59750064                1.46100375               -0.10868322                0.22999639               11.62615518
              38.81244910               15.17183537               75.05157157                0.01713487                2.67598330                1.02849670               -2.94762856               -4.38882749               57.38646971              -10.02384638
              39.86367037               12.70047031               74.69547943                0.00010000                5.43598490                1.38922560               -5.71072404               -7.84600219              113.15205223              -10.83134784
              40.92116880               10.20066194               74.30591460                0.00010000                5.99855276                1.55888700               -8.43208803               -7.11582224              108.84029511              -13.02961969
              41.98364143                7.69050799               73.85613245                0.00010000                6.28984401                2.39321990              -11.26042477               -5.86778355              102.11700271              -16.51222710
              43.04696568                5.17932192               73.32384465                0.00010000                6.42236089                3.43755164              -14.27805125               -4.67368034               93.04904307              -21.01458240
              44.11208865                2.67029019               72.68484241                0.00010000                6.70882197                4.56750242              -17.52330961               -3.64872941               81.24859188              -26.63981050
              45.18114212                0.16594536               71.91015570                0.00010000                7.21756178                5.72241334              -20.99299777               -2.70480822               66.15423868              -33.73763189
              46.25643988               -2.33187739               70.96539886                0.00010000                7.94432826                6.86351312              -24.64307144               -1.79541031               47.28033768              -43.00868717
              47.34002868               -4.82195249               69.81268727                0.00010000                8.88055012                7.93298767              -28.39831160               -0.90300791               24.78362698              -55.89593213
              48.43405088               -7.30375163               68.42082554                0.51125244                9.40222030                8.77923441              -32.18517492               -0.44850350               12.58175830              -74.68054429
              40.18209358               18.54810866               76.32419725                0.54092260                0.45823608               -0.38076784                0.87733103               -0.11859746               -0.22432511               10.11687552
              41.18667594               16.18337518               74.71304641                0.01915832                4.26798575                1.27099948               -3.89310781               -5.25812374               68.51375180               -9.18941194
              42.26745329               13.71100247               74.47667066                0.00010000                8.59431474               -0.46845810               -6.44245377               -6.44253221              134.83936404               -6.22977417
              43.35856223               11.21117221               74.18557175                0.00010000                8.60514780                0.60515114               -9.00308280               -4.88950372              128.80297338               -6.89326773
              44.43955625                8.71203670               73.81967954                0.00010000                7.73728430                1.90525070              -11.70696028               -3.45211444              120.97775008               -8.52349955
              45.51330792                6.21288008               73.36273505                0.00010000                7.21874861                3.25917603              -14.62835477               -2.60560907              111.09625267              -10.78257894
              46.58393122                3.71637633               72.79025350                0.00010000                7.10787624                4.59017394              -17.80739631               -1.95221742               98.31985924              -13.67784699
              47.65546545                1.22449342               72.07030067                0.00010000                7.37758417                5.88659538              -21.24519635               -1.38762315               81.75464282              -17.41465560
              48.73148291               -1.26115167               71.16168064                0.00010000                7.97442010                7.13763190              -24.90291576               -0.85571191               60.18658502              -22.47809498
              49.81495385               -3.73975189               70.00913592                0.00010000                8.84664340                8.31455050              -28.71681648               -0.38156803               32.39158033              -30.05069290
              50.90841577               -6.21213674               68.54717336                0.51225860                9.34619263                9.36338858              -32.64210669               -0.26021260               16.67260436              -44.66621009
              42.53724571               19.54544375               76.06727532                0.77014904                0.71470998               -0.26649071                0.18216760                0.69637419                4.58747154                8.61185351
              43.54439281               17.19725536               74.39672035                0.49378032                8.48884914                1.38801776               -4.77644745               -6.94544261               84.17207005               -8.09105977
              44.70702270               14.69110115               74.31782456                0.44753314               13.89758381               -1.99013173               -6.96897312               -5.26757954              158.87946502               -3.37311138
              45.82234449               12.21276496               74.13291772                0.44013304               10.29342909                0.15927487               -9.29572620               -1.74618169              150.06489003               -3.64056871
              46.91289128                9.72861301               73.86842616                0.43741150                8.40846904                1.65763056              -11.78672818               -1.07947349              141.87575591               -4.40703333
              47.99051387                7.24450544               73.50962573                0.43923037                7.42698362                3.16253606              -14.51816383               -0.60537204              131.74324801               -5.54469899
              49.06143095                4.76209367               73.03244104                0.44550801                7.02018920                4.57173400              -17.53400334               -0.29143543              118.68661343               -7.02859466
              50.13091765                2.28367727               72.40383108                0.45669691                7.10700048                5.91838473              -20.83904021               -0.01570034              101.62523388               -8.96861612
              51.20357096               -0.18912476               71.57949578                0.47311220                7.62323672                7.20269161              -24.39609911                0.24186765               79.05451447              -11.66080639
              52.28338239               -2.65566148               70.49749239                0.49524791                8.50226845                8.40904072              -28.13892592                0.47489910               47.06137534              -15.74674180
              53.37361633               -5.11648386               69.03564395                0.75655657                9.02339405                9.56528829              -32.08103225                0.43781831               27.80984161              -26.86362274
              18.93307811               10.01207288               79.47432176                0.85590884               -1.65381161               -1.84230566                6.26984973               -0.48030562               -5.98096672                6.47407451
              19.91654000                7.40697300               78.75370893                0.59265233               -1.68859868               -1.06982323                4.22747102               -0.61338001               -8.31019661               -5.04549776
              20.89930614                4.79168762               77.98654559                0.49119332               -1.52855052               -0.58379090                2.12399797               -0.48664704               -8.55979102               -0.25116591
              21.88596899                2.15701290               77.26153598                0.46021342               -0.97517595                0.01017867                0.10054832               -0.42411819               -6.02712260               -0.41730769
              22.87980262               -0.49565716               76.54519050                0.45175723               -0.16665019                0.60132280               -1.98255055               -0.37021211               -5.24313256               -0.25022903
              23.88263598               -3.16103361               75.83585331                0.45871868                0.77620931                1.20921403               -4.11259225               -0.33226422               -4.80419867               -0.09598840
              24.89532681               -5.83137194               75.12827610                0.48262238                1.74392037                1.81243204               -6.27279027               -0.31870448               -4.94619493                0.05828218
              25.91751439               -8.49927984               74.41625840                0.52676671                2.62687529                2.40968997               -8.43041264               -0.32218717               -5.70713812                0.22175411
              26.94786431              -11.15949673               73.69376901                0.60050104                3.35733338                2.99029723              -10.56334295               -0.32465585               -7.30497202                0.28163236
              27.98466106              -13.81019906               72.95008734                0.71632645                3.94075480                3.56293798              -12.68590755               -0.32550272               -7.78547865                1.12519364
              29.02667941              -16.45296377               72.21820564                0.90669047                4.20183505                4.18863351              -14.77915856               -0.61440480               -7.20602483               -4.89670580
              21.53337493               10.99364982               79.18599307                0.64252739               -1.27761082               -1.92249557                5.47096620               -0.30563720                4.69028441                9.86285512
              22.52059882                8.39627477               78.46114483                0.10867492               -0.69776076               -0.75284205                3.44910868               -0.69444909               10.53682996               -9.37230165
              23.51941972                5.78584971               77.85320512                0.03830845                0.24006857               -1.14998316                1.82212728               -1.90371024               16.04888284              -11.49980409
              24.52540020                3.15711469               77.23809870                0.02914236                0.78520188               -0.94993133                0.05302470               -2.92340676               16.28929942              -16.60185244
              25.53512375                0.51035607               76.63495543                0.03240401                1.08852658               -0.52130317               -1.74787372               -3.62250546               17.21699164              -22.58481690
              26.54717073               -2.14894147               76.03859084                0.04025842                1.30695604                0.04022703               -3.61683555               -3.84374020               17.63073503              -29.41886992
              27.56126288               -4.81324762               75.44397791                0.05377103                1.55920935                0.62194738               -5.49893825               -3.55903087               17.50678123              -37.15993439
              28.57835491               -7.47518294               74.84516028                0.07566550                1.94072452                1.14729031               -7.39475447               -2.82276280               16.74199517              -45.89932685
              29.60007737              -10.12959376               74.23509541                0.11282641                2.48923170                1.57696990               -9.25129993               -1.72809739               15.53576040              -55.78696453
              30.62813955              -12.77456968               73.61194413                0.19835195                3.16113487                2.02723661              -11.08888836               -0.24113846               12.07425275              -66.98564621
              31.66330006              -15.41107743               72.93226930                0.65079638                3.51605150                2.17849303              -12.97918909                1.52816211                9.27678496              -83.10383397
              24.12171547               11.97362297               78.96545262                0.57355321               -1.12643493               -1.88110286                4.95814027               -0.11626183               -0.08658640               12.28531744
              25.11045112                9.39191616               78.08204149                0.03638675               -1.06617298               -0.32712585                2.43319345               -1.99602599               14.72568917              -12.12741960
              26.10039201                6.76868796               77.49492182                0.00010000               -0.37283128               -0.99745829                0.51641174               -4.77286444               28.75731133              -22.18317920
              27.10299450                4.13801428               76.89097250                0.00010000                0.65083282               -1.16523862               -1.47956656               -6.00164568               27.52549899              -32.54323783
              28.11340867                1.49391678               76.27803755                0.00010000                1.31851816               -0.92605732               -3.54579640               -7.06472245               26.62347981              -44.47273217
              29.12936486               -1.16022907               75.65485512                0.00010000                1.84894944               -0.46217418               -5.68466969               -7.39593681               25.36091423              -58.00042734
              30.15038766               -3.81893299               75.01529232                0.00010000                2.40202070                0.06826824               -7.92177542               -6.87894884               23.42063331              -73.30525881
              31.17740527               -6.47633403               74.35158964                0.00010000                3.11507256                0.53680757              -10.29797447               -5.56848158               20.67486744              -90.62334738
              32.21268911               -9.12795733               73.65490841                0.00010000                4.19583437                0.90675521              -12.94594752               -3.51675963               16.81388138             -110.24178105
              33.26132196              -11.76965433               72.91139957                0.00010000                5.87845188                1.20870271              -16.46563094               -1.25810632               10.11479725             -133.10310452
              34.33025815              -14.40939391               72.08197965                0.49967531                6.89361847                1.57504227              -19.73052252                0.75643781                5.32010077             -157.73806648
              26.69446331               12.95602776               78.72587662                0.55942678               -0.88499950               -1.64046786                4.34747046               -0.10111134                0.13080119               11.57994597
              27.68561331               10.38973225               77.73407558                0.02163619               -0.82994980               -0.12556567                1.55374942               -2.74626418               20.36187484              -10.41754552
              28.67786431                7.76590055               77.14695088                0.00010000               -0.27374234                0.11481940               -0.69128498               -5.60988339               40.03561526              -20.99155049
              29.68013847                5.13380992               76.54692410                0.00010000                0.71041697                0.16286549               -2.93805315               -6.30050984               38.53826359              -31.55476949
              30.69207265                2.49183492               75.92775376                0.00010000                1.59816446                0.39972458               -5.24760544               -6.90485286               36.44188185              -43.01552443
              31.71210175               -0.15818495               75.28344835                0.00010000                2.38581056                0.80056269               -7.65343949               -7.01551468               33.63265897              -55.86977606
              32.73978886               -2.81188225               74.60556192                0.00010000                3.19539350                1.28953417              -10.19444919               -6.46525778               29.89433125              -70.43284093
              33.77600962               -5.46444679               73.88379545                0.00010000                4.16368052                1.78775411              -12.93028039               -5.26486636               25.01960166              -87.01985408
              34.82306247               -8.11145865               73.10579897                0.00010000                5.42021855                2.26246334              -15.96235733               -3.57067337               18.61927530             -105.98706742
              35.88441400              -10.75039563               72.25465465                0.00010000                6.74227487                2.67373707              -19.18533027               -1.72837916               10.18322858             -127.47388141
              36.95790797              -13.37957659               71.31086588                0.49910145                7.34939739                3.63167692              -22.11062378               -0.73829775                5.15330896             -149.93504360
              29.25228427               13.94081361               78.49142526                0.55421453               -0.66312126               -1.41155953                3.76434307               -0.09712761                0.11960783               11.95102362
              30.24565306               11.38940485               77.38905276                0.01712363               -0.40837951                0.07287952                0.66609730               -3.22615299               26.37472165              -10.13144148
              31.24411668                8.77098435               76.81184350                0.00010000                0.26984355                0.77644712               -1.82586433               -6.38766458               51.93895164              -19.67031375
              32.25104993                6.14127159               76.21858021                0.00010000                1.15949014                1.14514408               -4.30258046               -6.80780901               49.94810203              -29.55778829
              33.26730648                3.50191127               75.59875977                0.00010000                2.08609053                1.46810698               -6.82979435               -7.04362868               46.89058192              -40.22112670
              34.29277174                0.85578219               74.94119426                0.00010000                3.00189277                1.87688476               -9.45925456               -6.88316881               42.66832913              -52.13341006
              35.32734434               -1.79314231               74.23369179                0.00010000                3.94563054                2.37236274              -12.23189212               -6.23205559               37.14823491              -65.69465296
              36.37168435               -4.44057895               73.46274592                0.00010000                4.99400736                2.91330264              -15.18043464               -5.12337808               30.16750581              -81.26551558
              37.42722448               -7.08270806               72.61350766                0.00010000                6.15939812                3.45543050              -18.29202025               -3.68424335               21.56738565              -99.12208034
              38.49487231               -9.71617959               71.67040971                0.00010000                7.33148110                4.04415741              -21.44956587               -2.03791327               11.34662680             -119.18818139
              39.57385411              -12.33676037               70.61982247                0.50029390                7.89817947                4.82579730              -24.44858346               -0.88877277                5.66905799             -140.92654239
              31.79533828               14.92779657               78.25943956                0.54975848               -0.44187643               -1.19893337                3.18941123               -0.09724538                0.13357240               12.13124459
              32.79091952               12.39118984               77.04678217                0.01438353                0.14529999                0.29201728               -0.21856855               -3.53389698               32.92907683               -9.93474750
              33.79824428                9.78142949               76.49010078                0.00010000                1.10679251                1.24264527               -2.90740031               -6.92690399               64.89094501              -18.18809672
              34.81305537                7.15671280               75.91412437                0.00010000                1.92225993                1.79868582               -5.56290275               -7.27669376               62.38551848              -26.80495128
              35.83668948                4.52119706               75.30398748                0.00010000                2.82182925                2.22474777               -8.26167420               -7.24787165               58.38863661              -36.21429176
              36.86949195                1.87935274               74.64432067                0.00010000                3.74097035                2.69461105              -11.06190323               -6.82340697               52.81281967              -46.82511795
              37.91150889               -0.76443500               73.91897759                0.00010000                4.68079358                3.25741600              -14.00015471               -6.03272053               45.54853840              -59.03610708
              38.96310782               -3.40618073               73.11095875                0.00010000                5.67346800                3.88777980              -17.08448201               -4.94355755               36.50047727              -73.22823366
              40.02497825               -6.04235004               72.20291071                0.00010000                6.73001053                4.54808761              -20.28089766               -3.62468570               25.67128815              -89.71265885
              41.09770803               -8.66951248               71.17866648                0.00010000                7.81579130                5.22069817              -23.50842334               -2.02867762               13.30046955             -108.62416790
              42.18129407              -11.28306064               70.02611106                0.50143833                8.35860383                5.88996054              -26.67435968               -0.91768910                6.64396545             -129.87379285
              34.32355282               15.91683494               78.02867018                0.54546170               -0.22106219               -0.99765367                2.61343788               -0.09851871                0.15302749               12.19027294
              35.32134220               13.39524519               76.70576661                0.01343824                0.82514095                0.52621114               -1.10508862               -3.76790566               40.24395454               -9.88743965
              36.34005564               10.79583725               76.18475547                0.00010000                2.22031407                1.56379536               -3.93056124               -7.31739199               79.34410816              -16.39354914
              37.36574848                8.17724530               75.64098396                0.00010000                2.98267314                2.15151083               -6.70307245               -7.60982420               76.30432470              -23.30985277
              38.39970910                5.54640622               75.05534800                0.00010000                3.80935862                2.63504112               -9.51391925               -7.31712387               71.36955019              -31.05152486
              39.44193565                2.90967441               74.40859616                0.00010000                4.62571494                3.20704883              -12.42776083               -6.60741153               64.46837792              -39.98260285
              40.49222340                0.27200601               73.68081803                0.00010000                5.43962949                3.90235395              -15.47952227               -5.65270300               55.48740423              -50.45777586
              41.55072824               -2.36282335               72.85118087                0.00010000                6.29195570                4.67929397              -18.67133831               -4.54056610               44.33265313              -62.88243596
              42.61806252               -4.99174631               71.89860215                0.00010000                7.21405556                5.48528806              -21.97173399               -3.29212007               31.05919562              -77.71392748
              43.69500936               -7.61176563               70.80391822                0.00010000                8.22670630                6.25829507              -25.32607404               -1.82703625               16.03030232              -95.38600316
              44.78259664              -10.21896116               69.55338931                0.50263298                8.75872875                6.89412364              -28.68728449               -0.83758471                8.03550714             -116.19231242
              36.83654740               16.90784350               77.79789291                0.54196610                0.00116882               -0.79936297                2.03602377               -0.10088564                0.16201257               12.10152728
              37.83655909               14.40171407               76.36458392                0.01416957                1.66744624                0.77025763               -2.00230661               -4.02073160               48.55815443               -9.96135855
              38.86989633               11.81270540               75.89927108                0.00010000                3.68654099                1.68202327               -4.88496673               -7.62274634               95.76550967              -14.21527763
              39.91028991                9.19974302               75.40696823                0.00010000                4.40107843                2.12094127               -7.69911236               -7.72158850               92.12312831              -18.99136285
              40.95791790                6.57389788               74.86450108                0.00010000                5.07270077                2.64625329              -10.55232322               -6.99783794               86.22221265              -24.74339679
              42.01174393                3.94349372               74.24934403                0.00010000                5.65173440                3.40029189              -13.51759927               -5.98283750               78.03231447              -31.66977511
              43.07095259                1.31361208               73.53844756                0.00010000                6.21524498                4.28887544              -16.63194676               -4.90106419               67.39203701              -40.01278166
              44.13604883               -1.31259485               72.70682856                0.00010000                6.85627655                5.24903529              -19.89958066               -3.80575730               54.08509519              -50.18337412
              45.20807812               -3.93264428               71.72782532                0.00010000                7.61666624                6.22336229              -23.29689124               -2.67513262               38.06238448              -62.82502390
              46.28838215               -6.54434658               70.57595509                0.00010000                8.54276614                7.13099929              -26.78591742               -1.44241134               19.70870227              -78.83291013
              47.37893344               -9.14517817               69.23219758                0.50386279                9.05512873                7.81059996              -30.34139490               -0.67704049                9.93537339              -99.03760226
              39.33379398               17.90084768               77.56537806                0.53914786                0.22716935               -0.59374276                1.45063092               -0.10712108                0.23759988               12.01753962
              40.33606567               15.41065035               76.02225496                0.01704870                2.78888926                1.01693688               -2.91467256               -4.42825003               58.18138193              -10.31412095
              41.38957176               12.82947772               75.63808147                0.00010000                5.70292771                1.33033102               -5.75464453               -7.90919293              114.65986958              -11.29178683
              42.45012423               10.21966413               75.22107662                0.00010000                6.32149388                1.47217937               -8.51794399               -7.15446814              110.20934000              -13.66029537
              43.51600164                7.59933129               74.74308982                0.00010000                6.62202385                2.29371917              -11.33514178               -5.88734177              103.23000702              -17.32646896
              44.58256470                4.97768025               74.18105037                0.00010000                6.71445260                3.32651782              -14.28200554               -4.68616396               93.85687731              -22.02406582
              45.65029069                2.35778352               73.51036830                0.00010000                6.91523795                4.44433134              -17.39749876               -3.66287426               81.75372822              -27.85462211
              46.72086946               -0.25784265               72.70205050                0.00010000                7.30104481                5.58779134              -20.68983075               -2.72280611               66.40740147              -35.17022981
              47.79631159               -2.86727907               71.72198842                0.00010000                7.89127756                6.71880675              -24.14457326               -1.81424929               47.36963544              -44.67949986
              48.87869501               -5.46914564               70.53271753                0.00010000                8.72037100                7.77638162              -27.74090824               -0.91713161               24.80361281              -57.84606640
              49.97071901               -8.06274916               69.10332745                0.50476061                9.20239959                8.59746307              -31.47301299               -0.45621201               12.63373864              -76.98858372
              41.81479966               18.89596865               77.33288453                0.53437752                0.45643999               -0.37171349                0.85981089               -0.11782333               -0.24184381               10.45137294
              42.81936406               16.42205280               75.67423743                0.01889535                4.39495146                1.25612955               -3.85843828               -5.31564728               69.56873745               -9.46943562
              43.90269869               13.83931202               75.41187559                0.00010000                8.89914610               -0.55924317               -6.50158584               -6.50944624              136.83640874               -6.49960426
              44.99734698               11.22918660               75.09488109                0.00010000                8.97281297                0.50313771               -9.11644042               -4.91886520              130.58259292               -7.23083813
              46.08215495                8.61977227               74.70200212                0.00010000                8.11107167                1.79367289              -11.81523723               -3.46111377              122.44763098               -8.95477700
              47.15956841                6.01002408               74.21627876                0.00010000                7.55315231                3.13405055              -14.66540928               -2.60921463              112.21353278              -11.31681848
              48.23321799                3.40249871               73.61283855                0.00010000                7.35434409                4.44681663              -17.70602504               -1.95427758               99.08689658              -14.32226489
              49.30665530                0.79916097               72.85968964                0.00010000                7.49390654                5.72216213              -20.94858420               -1.38793690               82.22148280              -18.17774260
              50.38309612               -1.79826815               71.91585506                0.00010000                7.94271578                6.95189684              -24.38565786               -0.85277564               60.43746669              -23.37347235
              51.46550961               -4.38881895               70.72631755                0.00010000                8.69600556                8.11047059              -28.01877621               -0.37839271               32.50149452              -31.10802365
              52.55701623               -6.97322891               69.22541040                0.50602919                9.15066242                9.14453997              -31.89528457               -0.25991041               16.77946362              -45.98795016
              44.27926920               19.89341341               77.06894277                0.76689283                0.71401592               -0.25552320                0.15508161                0.68290619                4.73025561                8.88563216
              45.28640936               17.43577294               75.34907740                0.48972789                8.64899215                1.37201333               -4.73626901               -7.05149818               85.64730452               -8.34256811
              46.45224904               14.81829285               75.24762065                0.44675872               14.24386598               -2.10191628               -7.05484040               -5.34726746              161.43729037               -3.48242345
              47.57128667               12.22972688               75.03907919                0.43998037               10.68464273                0.05402795               -9.45120078               -1.76043593              152.32188804               -3.78707593
              48.66594189                9.63520475               74.74967646                0.43733587                8.81836463                1.54324801              -11.94841411               -1.08958665              143.78775857               -4.59962461
              49.74765397                7.04036126               74.36397750                0.43919389                7.80631764                3.03371791              -14.61395045               -0.61568906              133.26214003               -5.78771647
              50.82206825                4.44671986               73.85749405                0.44480793                7.31118070                4.42211461              -17.48850770               -0.30300765              119.81121563               -7.32374292
              51.89387758                1.85660060               73.19710753                0.45495472                7.25838753                5.74396227              -20.58474237               -0.02582062              102.40610564               -9.31883027
              52.96723600               -0.72824113               72.33873145                0.46991622                7.61051687                7.00270171              -23.89581686                0.23714618               79.58280668              -12.07271380
              54.04608792               -3.30693623               71.22067007                0.49044013                8.35523617                8.18827189              -27.42502635                0.47696945               47.38619484              -16.23630009
              55.13434072               -5.87985836               69.71976055                0.75345930                8.82528014                9.33705480              -31.31107171                0.44023555               28.09535092              -27.54791711
              19.60339129               10.36984847               80.53703814                0.84943054               -1.65380913               -1.84163342                6.26260120               -0.48237540               -6.11957858                6.60925627
              20.58685320                7.65229127               79.79599872                0.58539318               -1.70329279               -1.06669995                4.21917085               -0.62633283               -8.46872762               -5.17865551
              21.56932543                4.92422666               79.00788737                0.48833889               -1.54384168               -0.58410734                2.13467377               -0.46389398               -8.70165252               -0.20552035
              22.55597637                2.17655498               78.26263064                0.45939389               -0.97557165                0.01115114                0.12018156               -0.41706029               -6.15558132               -0.40475017
              23.54981400               -0.58905568               77.52550927                0.45173607               -0.16666609                0.60043183               -1.95083312               -0.37067392               -5.42098888               -0.23936650
              24.55264304               -3.36724145               76.79489537                0.45855238                0.77164695                1.20696186               -4.07495139               -0.34222315               -5.02459430               -0.10356861
              25.56524694               -6.15041736               76.06573427                0.48171245                1.73018910                1.81140765               -6.22399051               -0.32368869               -5.18427306                0.04997662
              26.58724683               -8.93124535               75.33214733                0.52362323                2.60705174                2.40457907               -8.36968209               -0.32014244               -5.93888001                0.19845412
              27.61738798              -11.70470095               74.58828659                0.59272048                3.33830947                2.99145010              -10.50502319               -0.32436591               -7.52928293                0.25675726
              28.65401302              -14.46892143               73.82338005                0.70034004                3.92293205                3.56604225              -12.62598649               -0.32629882               -8.00276932                1.10154135
              29.69584662              -17.22556552               73.07054655                0.89509281                4.18336012                4.19143613              -14.71597510               -0.59224472               -7.42751157               -5.00147557
              22.31612474               11.35143214               80.24069306                0.63165026               -1.27239580               -1.92938036                5.46202620               -0.31364704                4.86724853               10.14837103
              23.30340078                8.64162427               79.49564917                0.10192467               -0.67850474               -0.74157125                3.44415472               -0.72177055               10.91470012               -9.61775420
              24.30255464                5.91838558               78.87142993                0.03934045                0.25230745               -1.12458363                1.81239841               -1.91953772               16.55183895              -11.95323535
              25.30844693                3.17666649               78.23857189                0.03031648                0.77254152               -0.90646536                0.04298622               -2.91959279               16.70290390              -17.32863840
              26.31800547                0.41694864               77.61742195                0.03353982                1.07273626               -0.46680933               -1.76108788               -3.58534766               17.57494585              -23.58567571
              27.32990165               -2.35517183               77.00231252                0.04123544                1.30032662                0.09887739               -3.62932856               -3.77133185               17.94878027              -30.69857203
              28.34401201               -5.13230328               76.38884314                0.05452794                1.56427730                0.68334307               -5.52983214               -3.45525905               17.80226803              -38.74230478
              29.36118720               -7.90719956               75.77097450                0.07579079                1.94851764                1.20198529               -7.42374358               -2.68607671               17.03422327              -47.83937179
              30.38298236              -10.67478645               75.14220676                0.11134117                2.49975552                1.62120310               -9.30476257               -1.56632025               15.85525384              -58.19284240
              31.41118231              -13.43326101               74.50058920                0.17933893                3.17929490                1.99339410              -11.15929300               -0.14182110               12.37306824              -70.11117717
              32.44656826              -16.18365116               73.80194253                0.63660939                3.53859463                2.10208876              -13.05630699                1.41505866                9.53676109              -86.90391636
              25.01673408               12.33126087               80.01502303                0.56511486               -1.12697375               -1.88992628                4.94876327               -0.10894786               -0.11788498               12.67131317
              26.00546434                9.63745985               79.10641629                0.03565649               -1.04208085               -0.31548962                2.43896364               -2.01195457               14.99220348              -12.41493758
              26.99589246                6.90173498               78.49997893                0.00010000               -0.32214474               -0.95789227                0.50028628               -4.79665844               29.26611549              -23.08782335
              27.99902145                4.15842567               77.87603814                0.00010000                0.70264488               -1.10010512               -1.50096135               -5.98827211               27.95166910              -33.98029627
              29.00994536                1.40160814               77.24244440                0.00010000                1.37234407               -0.84280641               -3.56390633               -6.99832252               26.96415805              -46.44346795
              30.02646833               -1.36526390               76.59794333                0.00010000                1.91120642               -0.37441202               -5.68988025               -7.27248047               25.59761869              -60.50482589
              31.04816949               -4.13675050               75.93617824                0.00010000                2.47700662                0.14815995               -7.89191819               -6.71805781               23.52355774              -76.38660956
              32.07600846               -6.90720564               75.24916954                0.00010000                3.19767658                0.59201658              -10.18981175               -5.39539983               20.57637046              -94.34505142
              33.11212302               -9.67227689               74.52725997                0.00010000                4.20164176                0.90489134              -12.62768996               -3.42972883               16.29719965             -114.71454768
              34.16004130              -12.42905355               73.75365709                0.00010000                5.64025316                1.10989670              -15.37908274               -1.31225532                9.40761173             -138.27946166
              35.22492809              -15.18352374               72.89544159                0.49336873                6.48867873                1.43720714              -18.06156513                0.53927445                4.84270207             -163.48521849
              27.70154782               13.31363361               79.76935588                0.55135615               -0.88602471               -1.64523032                4.33965208               -0.10113754                0.12969619               11.93690219
              28.69268757               10.63531448               78.74971850                0.02128250               -0.79460828               -0.12293112                1.56995845               -2.75901693               20.62351769              -10.64034919
              29.68565565                7.89922774               78.13995473                0.00010000               -0.19396193                0.13235190               -0.70276993               -5.62495929               40.53461170              -21.81411256
              30.68880833                5.15466439               77.51737335                0.00010000                0.80364686                0.19242082               -2.96244541               -6.30118381               38.98165381              -32.91288844
              31.70172859                2.40009251               76.87513159                0.00010000                1.70011733                0.43687752               -5.26640824               -6.87877260               36.77869855              -44.88124059
              32.72281068               -0.36266007               76.20691304                0.00010000                2.49320029                0.83436288               -7.64487219               -6.97026961               33.82609411              -58.24224675
              33.75159259               -3.12934008               75.50395008                0.00010000                3.29974600                1.30471193              -10.12498511               -6.42962831               29.89945780              -73.31729952
              34.78880560               -5.89535923               74.75551145                0.00010000                4.23215473                1.76951870              -12.73769605               -5.29662059               24.77762644              -90.41404409
              35.83623569               -8.65668863               73.94868238                0.00010000                5.36892287                2.19362522              -15.51854977               -3.74631774               18.14311528             -109.81534171
              36.89618406              -11.41106308               73.06725875                0.00010000                6.50292215                2.61540221              -18.41319183               -1.95689871                9.74870691             -131.42549166
              37.96629413              -14.15490702               72.09517801                0.49367777                7.01100766                3.61016546              -21.17249178               -0.85913153                4.93079354             -154.06324404
              30.37134960               14.29835626               79.52905792                0.54666849               -0.66597156               -1.41585513                3.75860509               -0.09466652                0.11785197               12.33252897
              31.36468988               11.63500123               78.39583700                0.01698724               -0.36531118                0.07144441                0.68945744               -3.23733173               26.66070656              -10.36081096
              32.36404337                8.90438202               77.79350354                0.00010000                0.37215570                0.77639333               -1.83557999               -6.40662090               52.48357956              -20.43520554
              33.37213300                6.16227409               77.17537517                0.00010000                1.28254945                1.14877318               -4.32780545               -6.82162233               50.43836043              -30.81994394
              34.38969436                3.41034569               76.53031917                0.00010000                2.21812698                1.47257580               -6.84776432               -7.05047382               47.26490817              -41.95197970
              35.41649554                0.65142336               75.84665734                0.00010000                3.12908606                1.87614582               -9.44184829               -6.89716720               42.88150550              -54.31849340
              36.45227608               -2.11065626               75.11182900                0.00010000                4.04645298                2.36002720              -12.14315677               -6.28581009               37.17014335              -68.31900653
              37.49742460               -4.87181527               74.31207260                0.00010000                5.03122167                2.88795256              -14.97226330               -5.25903615               29.99771443              -84.28919843
              38.55290052               -7.62840439               73.43263941                0.00010000                6.08485593                3.43587356              -17.92011195               -3.90807894               21.27932302             -102.45046301
              39.61912171              -10.37674551               72.45885787                0.00010000                7.12664081                4.08088616              -20.91644709               -2.23431210               11.11383883             -122.74271242
              40.69543333              -13.11132044               71.37871746                0.49459987                7.63116201                4.91327975              -23.83504897               -0.97878385                5.56428841             -144.83527197
              33.02636456               15.28531651               79.29131826                0.54268482               -0.44493829               -1.19977131                3.18073578               -0.09575329                0.12942152               12.51956510
              34.02191517               12.63674337               78.04473757                0.01435784                0.19429083                0.28600064               -0.18921035               -3.54591586               33.26643369              -10.16346413
              35.03025037                9.91475560               77.46094615                0.00010000                1.22485222                1.23004797               -2.91639813               -6.95008571               65.53667043              -18.89972808
              36.04641222                7.17763985               76.85830461                0.00010000                2.06597324                1.78308738               -5.59020248               -7.30035400               62.97541409              -27.95476265
              37.07156984                4.42954403               76.22122855                0.00010000                2.97285311                2.20683606               -8.28098271               -7.27383566               58.85326041              -37.77541302
              38.10586928                1.67486285               75.53378957                0.00010000                3.87725920                2.67349355              -11.04203462               -6.86616434               53.10793063              -48.78073044
              39.14911502               -1.08213954               74.77948817                0.00010000                4.77518623                3.23416772              -13.90726124               -6.11556424               45.66065807              -61.36814775
              40.20137301               -3.83760018               73.94122408                0.00010000                5.69446631                3.87084870              -16.88750879               -5.08428063               36.45573514              -75.90563359
              41.26300435               -6.58797116               73.00188988                0.00010000                6.65204281                4.55791648              -19.96426754               -3.80421232               25.54392180              -92.69843483
              42.33441386               -9.32944535               71.94594702                0.00010000                7.64319823                5.27506287              -23.08792481               -2.16701748               13.19685129             -111.92168202
              43.41586831              -12.05664142               70.76202094                0.49584358                8.14544515                5.96435839              -26.20029994               -0.97695733                6.61267592             -133.58588277
              35.66658082               16.27436083               79.05477692                0.53876805               -0.22483447               -0.99675841                2.60757456               -0.09828700                0.15188486               12.57979840
              36.66433247               13.64072124               77.69487808                0.01345008                0.87821813                0.51731779               -1.07276542               -3.78222069               40.66721456              -10.12355946
              37.68414518               10.92898298               77.14536138                0.00010000                2.35025087                1.54154014               -3.94041934               -7.34549931               80.15635671              -17.04138108
              38.71133749                8.19793583               76.57373942                0.00010000                3.14247351                2.12173500               -6.73551763               -7.63819282               77.05707931              -24.32169214
              39.74699465                5.45448241               75.96004821                0.00010000                3.97591643                2.60092613               -9.53903648               -7.34860454               71.98325995              -32.40428002
              40.79085582                2.70489323               75.28441141                0.00010000                4.77165873                3.17082438              -12.41168143               -6.65305348               64.89889871              -41.66488103
              41.84242782               -0.04597290               74.52656360                0.00010000                5.53573906                3.86799589              -15.38904982               -5.72605427               55.72936419              -52.46062164
              42.90157060               -2.79439829               73.66560325                0.00010000                6.31168125                4.65541120              -18.48105211               -4.64639920               44.41987238              -65.19670947
              43.96866145               -5.53724606               72.68065583                0.00010000                7.14405155                5.48312364              -21.67389197               -3.41179428               31.05709350              -80.33986171
              45.04445163               -8.27124425               71.55294616                0.00010000                8.08124366                6.27880943              -24.93913442               -1.91297579               16.01015454              -98.35502636
              46.13028632              -10.99203327               70.26904928                0.49657165                8.58346924                6.91149067              -28.25555564               -0.87181440                8.05177026             -119.58587602
              38.29167801               17.26538134               78.81820346                0.53509388               -0.00293959               -0.79712757                2.02698439               -0.10075823                0.16452501               12.49303455
              39.29164861               14.64708972               77.34474842                0.01414272                1.72238915                0.75891014               -1.96360722               -4.03770418               49.11081192              -10.21696214
              40.32612579               11.94558641               76.85031073                0.00010000                3.82501603                1.65235436               -4.89905657               -7.65571246               96.82459067              -14.78097631
              41.36814893                9.22007455               76.32971731                0.00010000                4.57572788                2.08036682               -7.74150164               -7.75070470               93.11136573              -19.82845788
              42.41764035                6.48156255               75.75876710                0.00010000                5.25572952                2.59975811              -10.58981875               -7.02610186               87.04812279              -25.84007640
              43.47326352                3.73827934               75.11422963                0.00010000                5.81225567                3.35063199              -13.51271421               -6.01866250               78.64989337              -33.02446825
              44.53388546                0.99522038               74.37267499                0.00010000                6.32273259                4.23898340              -16.54899200               -4.95180165               67.79893919              -41.62731562
              45.59971818               -1.74449195               73.50902180                0.00010000                6.88644771                5.20389930              -19.71237851               -3.87148160               54.31570969              -52.06401189
              46.67161442               -4.47830868               72.49672650                0.00010000                7.56116896                6.18744622              -22.99863907               -2.74365526               38.17416597              -64.99093931
              47.75094156               -7.20386916               71.31051021                0.00010000                8.41978222                7.10039830              -26.39768698               -1.48963255               19.75496129              -81.32903057
              48.84001006               -9.91841161               69.93142395                0.49773630                8.90685066                7.76485749              -29.91208251               -0.69326912                9.99077638             -101.94193479
              40.90114889               18.25841828               78.57984742                0.53282274                0.22244355               -0.59049720                1.44334418               -0.10823901                0.23763823               12.40018643
              41.90337332               15.65589944               76.99327812                0.01693091                2.84486081                1.00371512               -2.87441046               -4.44886007               58.91612219              -10.59310258
              42.95804611               12.96203007               76.58038654                0.00010000                5.84869622                1.29423956               -5.77636817               -7.94721296              116.06394711              -11.74090752
              44.02034725               10.23954317               76.13555573                0.00010000                6.51108595                1.42391696               -8.57728326               -7.18069319              111.51449614              -14.27249986
              45.08826782                7.50647757               75.62942962                0.00010000                6.82387463                2.23959819              -11.39431240               -5.90832229              104.33511310              -18.11033018
              46.15682474                4.77190587               75.03820454                0.00010000                6.89476277                3.26686178              -14.29905693               -4.70960916               94.71880518              -22.98750563
              47.22616308                2.03880676               74.33689244                0.00010000                7.04226435                4.37924506              -17.33228849               -3.69266865               82.37230081              -29.00491876
              48.29767003               -0.69032031               73.49635909                0.00010000                7.35012388                5.51867482              -20.51239245               -2.75717437               66.81536355              -36.51917563
              49.37316556               -3.41349713               72.48250739                0.00010000                7.85459378                6.64722637              -23.84662461               -1.84630314               47.61525555              -46.25134466
              50.45476190               -6.12923628               71.25786911                0.00010000                8.61701341                7.70021325              -27.34697815               -0.93760682               24.92416263              -59.69360338
              51.54550583               -8.83673612               69.79136528                0.49887208                9.07439213                8.50413824              -31.04120363               -0.45951877               12.73378947              -79.21223814
              43.49455091               19.25357140               78.34139347                0.52801290                0.45087137               -0.36891875                0.84527622               -0.11910361               -0.25716876               10.76679464
              44.49905963               16.66716403               76.63587764                0.01857456                4.44934458                1.24122978               -3.80638293               -5.34062521               70.55034563               -9.72675148
              45.58353780               13.97147120               76.34663894                0.00010000                9.05139704               -0.60337545               -6.53779719               -6.54452613              138.70357740               -6.76358697
              46.68008757               11.24855289               76.00324294                0.00010000                9.17866995                0.45420406               -9.20220627               -4.93687438              132.28198932               -7.55799717
              47.76711120                8.52635452               75.58337479                0.00010000                8.33272909                1.73971291              -11.90883673               -3.47280036              123.90108415               -9.36827585
              48.84674215                5.80361657               75.06942687                0.00010000                7.75735338                3.07238725              -14.72023150               -2.62174471              113.38710435              -11.82413192
              49.92225827                3.08280528               74.43613300                0.00010000                7.50682193                4.37505213              -17.67650788               -1.96864349               99.98278461              -14.92901338
              50.99687859                0.36588154               73.65132898                0.00010000                7.56730293                5.63926006              -20.79923027               -1.40185506               82.87156434              -18.89218372
              52.07360433               -2.34536415               72.67396749                0.00010000                7.92749080                6.85826605              -24.10462253               -0.86237255               60.87931999              -24.21218739
              53.15542840               -5.04986490               71.44876039                0.00010000                8.61075134                8.00718802              -27.63330604               -0.38247026               32.73669357              -32.10905639
              54.24581936               -7.74832884               69.90926767                0.49986178                9.03909527                9.02968060              -31.47595857               -0.25456626               16.94638084              -47.27530441
              46.07158156               20.25103991               78.07037695                0.76364685                0.70794604               -0.25314917                0.14196424                0.67147784                4.86761185                9.13919713
              47.07866102               17.68072404               76.30199497                0.48594162                8.70925800                1.35600094               -4.68095149               -7.09372780               87.01685732               -8.56652194
              48.24576672               14.94996256               76.17672775                0.44576351               14.40327103               -2.15086386               -7.11359206               -5.38194749              163.82688802               -3.58733189
              49.36672644               12.24862725               75.94389371                0.43973018               10.89907059                0.00743624               -9.57543659               -1.77064887              154.47210414               -3.92521510
              50.46374813                9.54127183               75.62945788                0.43733194                9.06063208                1.49173130              -12.09348791               -1.09998868              145.66408162               -4.78027907
              51.54793908                6.83335362               75.21734673                0.43902202                8.03885524                2.97370434              -14.72898791               -0.62850757              134.82948263               -6.01476138
              52.62452524                4.12630781               74.68267089                0.44422714                7.49316396                4.35025265              -17.52216307               -0.31773941              121.07215445               -7.59871147
              53.69780236                1.42246489               73.99213623                0.45334762                7.35696567                5.65833472              -20.49453182               -0.03960335              103.39565334               -9.64547289
              54.77166455               -1.27633181               73.10157944                0.46693985                7.61374120                6.90323420              -23.66322847                0.22815153               80.34284886              -12.46072431
              55.85007719               -3.96909252               71.94899186                0.48563814                8.28389174                8.07723771              -27.07450502                0.47434378               47.87486731              -16.70824403
              56.93734239               -6.65614251               70.40942252                0.75027941                8.72651991                9.21863370              -30.92400519                0.44730477               28.46889363              -28.23774261
              20.29276536               10.73694816               81.59957379                0.84295316               -1.64491512               -1.83158130                6.22943508               -0.48068320               -6.25520298                6.73508263
              21.27631621                7.90409900               80.83809235                0.57753648               -1.70620939               -1.05968861                4.19275509               -0.63883017               -8.61163177               -5.29995593
              22.25864118                5.06049208               80.02923907                0.48560421               -1.55403805               -0.57986347                2.13152777               -0.46392071               -8.81718701               -0.15970928
              23.24523545                2.19703539               79.26393961                0.45840952               -0.97615355                0.00990282                0.14055505               -0.41501591               -6.26440596               -0.38930761
              24.23911810               -0.68426985               78.50617384                0.45157161               -0.16581757                0.59772726               -1.91456169               -0.37234059               -5.58463830               -0.23464387
              25.24191910               -3.57793928               77.75435428                0.45905115                0.76356399                1.19784176               -4.01468234               -0.33540966               -5.22416318               -0.10075402
              26.25438938               -6.47659014               77.00379629                0.48011132                1.71326851                1.80524523               -6.14694671               -0.32560314               -5.39503918                0.03117497
              27.27618447               -9.37296509               76.24886476                0.51977034                2.58282749                2.39725067               -8.28595960               -0.33146142               -6.15326592                0.17651501
              28.30604593              -12.26220193               75.48366855                0.58450546                3.30806176                2.97779462              -10.40292651               -0.32889073               -7.74330663                0.22515750
              29.34234571              -15.14258653               74.69756761                0.68388525                3.88751175                3.55162679              -12.50728427               -0.32722148               -8.20662998                1.07385040
              30.38379617              -18.01578524               73.92388613                0.88329377                4.14504640                4.17344394              -14.58257633               -0.56662611               -7.63277853               -5.09897435
              23.12080768               11.71863234               81.29523359                0.62117928               -1.26517346               -1.92808744                5.43292817               -0.32272800                5.03678052               10.42578649
              24.10815595                8.89350212               80.53002792                0.10100573               -0.66369554               -0.72754630                3.42127202               -0.74579081               11.27938290               -9.84709890
              25.10753377                6.05469344               79.88945308                0.04035910                0.26551527               -1.10426935                1.79632549               -1.94581975               17.04045530              -12.39308681
              26.11346626                3.19713442               79.23895842                0.03149609                0.76741316               -0.87142491                0.03565328               -2.93295324               17.11227180              -18.04293752
              27.12288204                0.32170742               78.59973368                0.03464135                1.06294463               -0.41961894               -1.77249924               -3.57133771               17.93637385              -24.56564343
              28.13472515               -2.56596086               77.96600427                0.04211788                1.28821106                0.15065903               -3.63079986               -3.72904086               18.24313875              -31.93849499
              29.14864626               -5.45853768               77.33338127                0.05507605                1.54753025                0.74090084               -5.53990114               -3.38942545               18.07822930              -40.25699580
              30.16567575               -8.34899259               76.69668541                0.07558812                1.94607438                1.25965435               -7.44454270               -2.61099065               17.31928562              -49.66970094
              31.18756775              -11.23242399               76.04900016                0.10926311                2.50946947                1.67390153               -9.32842250               -1.49890251               16.14157549              -60.38816804
              32.21586514              -14.10707026               75.38875827                0.16035317                3.18804343                2.03367060              -11.18725253               -0.13399713               12.64717512              -72.75202514
              33.25132861              -16.97405080               74.67114316                0.62281280                3.54634718                2.17257409              -13.07839275                1.28929687                9.78079916              -90.00627229
              25.93657126               12.69838641               81.06442788                0.55645075               -1.12319594               -1.89507112                4.92166706               -0.10761751               -0.15080914               13.05271610
              26.92533930                9.88954808               80.13082076                0.03481959               -1.02393897               -0.29987814                2.43685092               -2.03254279               15.24079875              -12.68905112
              27.91609248                7.03840669               79.50492755                0.00010000               -0.28884454               -0.92998790                0.49015149               -4.82866294               29.74944254              -23.97391338
              28.91956241                4.17960690               78.86095328                0.00010000                0.73470803               -1.04596513               -1.51105527               -5.99702462               28.36002473              -35.39278343
              29.93078664                1.30733777               78.20675942                0.00010000                1.40104933               -0.76860434               -3.56691975               -6.96540535               27.29220692              -48.36702887
              30.94758339               -1.57492610               77.54105752                0.00010000                1.94229796               -0.28915141               -5.68091475               -7.20149435               25.83885121              -62.93605125
              31.96963260               -4.46177212               76.85745395                0.00010000                2.51337825                0.23293435               -7.85309689               -6.61562755               23.65997600              -79.33920039
              32.99785096               -7.34777200               76.14779340                0.00010000                3.22564819                0.66809311              -10.08974949               -5.28988409               20.58706755              -97.87550985
              34.03414556              -10.22872390               75.40235461                0.00010000                4.17208080                0.96395273              -12.39498112               -3.37656925               16.14490007             -118.87162001
              35.08129257              -13.10191312               74.60381792                0.00010000                5.46988079                1.14820088              -14.78750209               -1.32912471                9.18925007             -143.05455673
              36.14354318              -15.97233375               73.72074835                0.48777892                6.22506026                1.49667323              -17.19910803                0.42577169                4.74075158             -168.81962130
              28.73633199               13.68073092               80.81266966                0.54377400               -0.88471836               -1.64423010                4.31974947               -0.09704258                0.12818352               12.29308925
              29.72748481               10.88750456               79.76547475                0.02086807               -0.77151487               -0.11892598                1.57784714               -2.77774825               20.86236453              -10.85241652
              30.72090170                8.03609369               79.13289548                0.00010000               -0.14450649                0.14410637               -0.70598776               -5.65659024               40.99168672              -22.61802127
              31.72459468                5.17621512               78.48767519                0.00010000                0.86026149                0.21672750               -2.97044849               -6.31596256               39.39552523              -34.24081972
              32.73810693                2.30633534               77.82242560                0.00010000                1.76052367                0.47184726               -5.26754622               -6.87115870               37.10298864              -46.69968313
              33.75980515               -0.57174389               77.13055091                0.00010000                2.55363417                0.87309465               -7.62324070               -6.94528541               34.03137262              -60.54072267
              34.78917961               -3.45387900               76.40306222                0.00010000                3.35123485                1.33557937              -10.05581049               -6.40937441               29.96155927              -76.09749177
              35.82682985               -6.33563072               75.62904153                0.00010000                4.24989312                1.78482282              -12.57754774               -5.31443332               24.67846573              -93.67300578
              36.87417747               -9.21314493               74.79542798                0.00010000                5.30313247                2.18995391              -15.19330737               -3.82977025               17.90688265             -113.52767024
              37.93289250              -12.08410624               73.88639081                0.00010000                6.32539238                2.60955061              -17.87490268               -2.05969655                9.52619757             -135.49494181
              39.00068532              -14.94411733               72.88741604                0.48827497                6.77928196                3.60125105              -20.51762838               -0.90723276                4.83356112             -158.50168264
              31.52108314               14.66550181               80.56659737                0.53951069               -0.66615697               -1.41310244                3.73840195               -0.09541951                0.11153200               12.71033129
              32.51442157               11.88716956               79.40284191                0.01681129               -0.34165149                0.06874640                0.70957300               -3.25387497               26.91543966              -10.57763832
              33.51425011                9.04128882               78.77513190                0.00010000                0.42899673                0.77416997               -1.83436531               -6.43595819               52.97498990              -21.18189053
              34.52300150                6.18394145               78.13202410                0.00010000                1.35361840                1.15190854               -4.33491558               -6.84137658               50.89176791              -32.05110191
              35.54132248                3.31677472               77.46180448                0.00010000                2.29452588                1.48122125               -6.84872980               -7.06214268               47.62425030              -43.63451696
              36.56889202                0.44253579               76.75235729                0.00010000                3.20047315                1.88639786               -9.41714025               -6.91247341               43.10863357              -56.43389588
              37.60533194               -2.43506053               75.99082865                0.00010000                4.09681018                2.36732207              -12.06643541               -6.32517079               37.24575907              -70.85372031
              38.65082822               -5.31207555               75.16330065                0.00010000                5.03468686                2.89033361              -14.80876201               -5.34366595               29.92881821              -87.22177063
              39.70602568               -8.18492482               74.25510542                0.00010000                6.01214098                3.44048863              -17.63643430               -4.03451451               21.12028347             -105.73954068
              40.77107104              -11.04972211               73.25208077                0.00010000                6.96975102                4.10359174              -20.51001167               -2.33812070               10.97756133             -126.35863679
              41.84542070              -13.90030873               72.14312149                0.48922128                7.43496530                4.95036092              -23.36314378               -1.02294113                5.51476875             -148.85733264
              34.29108810               15.65246887               80.32305427                0.53560374               -0.44678006               -1.19780489                3.16597339               -0.09368584                0.12933353               12.90822265
              35.28662030               12.88887948               79.04299797                0.01430532                0.21612733                0.27967974               -0.16145996               -3.56056618               33.56977441              -10.38567173
              36.29541065               10.05157709               78.43177282                0.00010000                1.28304754                1.21781188               -2.91291957               -6.97774331               66.11949504              -19.59366669
              37.31228125                7.19925329               77.80232032                0.00010000                2.14295407                1.77286593               -5.59965005               -7.32077917               63.52269427              -29.07465298
              38.33826973                4.33595976               77.13836783                0.00010000                3.05548439                2.20036775               -8.28660356               -7.29446907               59.30057995              -39.29011000
              39.37339094                1.46598406               76.42347998                0.00010000                3.95089035                2.67004659              -11.02293085               -6.89930539               53.41581825              -50.67096309
              40.41728754               -1.40653256               75.64083237                0.00010000                4.82149421                3.23336501              -13.83947997               -6.17606041               45.81754524              -63.61897996
              41.46982082               -4.27782405               74.77320858                0.00010000                5.69231022                3.87601446              -16.74747932               -5.17986802               36.48201885              -78.49980252
              42.53113374               -7.14433516               73.80362536                0.00010000                6.58465875                4.57723247              -19.73742721               -3.91872787               25.49392241              -95.62115658
              43.60151400              -10.00203441               72.71690799                0.00010000                7.51330071                5.31463801              -22.78108844               -2.25134979               13.14491852             -115.18891443
              44.68139975              -12.84511011               71.50210506                0.49005933                7.98857563                6.01135205              -25.84727409               -1.00731464                6.60991502             -137.28389925
              37.04638820               16.64154571               80.08082168                0.53238601               -0.22861680               -0.99175884                2.59866156               -0.09526068                0.14638069               12.97105385
              38.04410203               13.89276315               78.68431131                0.01344686                0.89666170                0.50476500               -1.03867273               -3.79264417               41.05025100              -10.35404960
              39.06432143               11.06564506               78.10594709                0.00010000                2.40506046                1.52418154               -3.93774478               -7.36778908               80.89815016              -17.67335357
              40.09220324                8.21939876               77.50627360                0.00010000                3.21904430                2.10521331               -6.75164259               -7.65416890               77.76106764              -25.30656070
              41.12870232                5.36078207               76.86456727                0.00010000                4.05974953                2.58775920               -9.55529895               -7.36818707               72.57755572              -33.71457786
              42.17339823                2.49593672               76.16036254                0.00010000                4.84582629                3.16135764              -12.40605451               -6.68661706               65.34213019              -43.28689923
              43.22561885               -0.37039323               75.37303704                0.00010000                5.58176165                3.86347470              -15.33909375               -5.78201569               56.01403213              -54.38672554
              44.28503347               -3.23455526               74.48155983                0.00010000                6.31213152                4.65965591              -18.36835952               -4.72481285               44.56985827              -67.42390507
              45.35186148               -6.09338017               73.46512431                0.00010000                7.08927688                5.50102642              -21.49038516               -3.49674031               31.11862346              -82.87731857
              46.42681900               -8.94342935               72.30513553                0.00010000                7.97821676                6.30921341              -24.69269532               -1.97157939               16.03050592             -101.24081242
              47.51142581              -11.78008169               70.98827820                0.49112410                8.46068092                6.93886248              -27.97014357               -0.88914809                8.08922638             -122.90232236
              39.78674800               17.63263370               79.83843260                0.52871982               -0.00799283               -0.79421522                2.02244599               -0.10103457                0.16761349               12.87863732
              40.78666807               14.89897478               78.32531177                0.01411123                1.73356287                0.74479572               -1.92362969               -4.04130078               49.61691765              -10.46213886
              41.82141925               12.08206072               77.80128995                0.00010000                3.86963935                1.63431473               -4.90031974               -7.66827795               97.80100934              -15.33430409
              42.86406086                9.24135756               77.25213820                0.00010000                4.64743868                2.06448674               -7.76977350               -7.75889702               94.04341114              -20.64327901
              43.91436803                6.38771495               76.65270470                0.00010000                5.33865239                2.58674581              -10.62387758               -7.03967876               87.85158716              -26.90064003
              44.97083390                3.52921122               75.97908974                0.00010000                5.88855880                3.33980856              -13.52859626               -6.04491286               79.28137292              -34.32658401
              46.03213920                0.67073694               75.20746772                0.00010000                6.37388013                4.23101868              -16.52355929               -4.99394153               68.25268803              -43.17250757
              47.09831151               -2.18463093               74.31258099                0.00010000                6.89669074                5.20109555              -19.62795770               -3.92616270               54.61427293              -53.86086152
              48.17007302               -5.03431463               73.26785254                0.00010000                7.52362112                6.19166152              -22.84844598               -2.79870020               38.35403461              -67.06342610
              49.24878393               -7.87585014               72.04800135                0.00010000                8.34242335                7.10807279              -26.18972919               -1.52584263               19.84425411              -83.72886162
              50.33692149              -10.70633286               70.63395593                0.49218750                8.81375576                7.76220265              -29.66802442               -0.69943972               10.06722840             -104.75499612
              42.51168534               18.62566140               79.59424494                0.52631983                0.21636622               -0.59293469                1.43915250               -0.10323661                0.23692442               12.77862423
              43.51384900               15.90765907               77.96476676                0.01680284                2.84438836                0.99130697               -2.82603067               -4.44363115               59.59308396              -10.86220513
              44.56857310               13.09833135               77.52255411                0.00010000                5.87610365                1.28191744               -5.78567962               -7.94924416              117.36947779              -12.18242777
              45.63137107               10.26068850               77.04953096                0.00010000                6.57409914                1.41655613               -8.62446088               -7.18121505              112.75244324              -14.86902777
              46.70005509                7.41251699               76.51520357                0.00010000                6.90534573                2.23317683              -11.45502622               -5.91654673              105.41157824              -18.86693445
              47.76947798                4.56273289               75.89506923                0.00010000                6.97635406                3.25940199              -14.34659995               -4.72857285               95.59427348              -23.91016718
              48.83958217                1.71422714               75.16372253                0.00010000                7.10418968                4.37015281              -17.34120920               -3.72169392               83.04332097              -30.10010965
              49.91156178               -1.13053335               74.29180265                0.00010000                7.37622575                5.50855442              -20.46329823               -2.79167496               67.30149512              -37.79968094
              50.98710668               -3.96954694               73.24505592                0.00010000                7.83793028                6.63653432              -23.73191260               -1.87782234               47.94025659              -47.74488942
              52.06832038               -6.80126789               71.98577797                0.00010000                8.56478910                7.68636552              -27.17497873               -0.95656640               25.09513824              -61.45983629
              53.15840246               -9.62483764               70.48250338                0.49295977                9.00820792                8.47703144              -30.83457295               -0.45658443               12.85737585              -81.36148582
              45.22068794               19.62077500               79.34979005                0.52128355                0.44375617               -0.37155054                0.84406936               -0.11240506               -0.26137697               11.08666279
              46.22512550               16.91880092               77.59810977                0.01826295                4.43585013                1.22743863               -3.75393172               -5.32646148               71.46488926               -9.98415557
              47.30940494               14.10769907               77.28111965                0.00010000                9.05627086               -0.59813741               -6.56023371               -6.53986404              140.44874223               -7.02604508
              48.40625092               11.26968868               76.91083696                0.00010000                9.22938792                0.46162727               -9.27645713               -4.93465129              133.89694456               -7.87679064
              49.49399270                8.43237848               76.46382538                0.00010000                8.41506896                1.74579985              -12.00726332               -3.47870003              125.31306415               -9.76635469
              50.57455230                5.59439926               75.92187413                0.00010000                7.84894352                3.07467103              -14.81325871               -2.63429305              114.56822797              -12.30787624
              51.65097157                2.75813999               75.25930839                0.00010000                7.58498975                4.37213522              -17.73547214               -1.98597191              100.93325946              -15.50348173
              52.72625209               -0.07445984               74.44370503                0.00010000                7.61397721                5.63049968              -20.80155608               -1.42018116               83.60943908              -19.56613686
              53.80325111               -2.90158394               73.43376261                0.00010000                7.93456028                6.84337080              -24.04045518               -0.87661631               61.41362062              -25.00445411
              54.88494330               -5.72212283               72.17365143                0.00010000                8.58390918                7.98519211              -27.51083000               -0.38932428               33.03164950              -33.06246151
              55.97492930               -8.53679224               70.59589122                0.49401048                8.99860004                8.99573695              -31.31980358               -0.24419925               17.14078814              -48.52241207
              47.91338539               20.61823039               79.07178206                0.76006495                0.70103122               -0.25446090                0.14570105                0.66749025                5.01127383                9.40692357
              48.92039571               17.93220784               77.25545837                0.48240489                8.67513359                1.34069177               -4.63082371               -7.06606895               88.31357298               -8.80083327
              50.08688806               15.08636860               77.10534881                0.44505370               14.38014604               -2.13304621               -7.15518742               -5.36602733              166.06491524               -3.68906059
              51.20799863               12.26992105               76.84757045                0.43953312               10.94412210                0.02323653               -9.68562590               -1.77200986              156.50864131               -4.05730900
              52.30577051                9.44743299               76.50780670                0.43744745                9.15159940                1.50545030              -12.24329493               -1.10695568              147.47469818               -4.95140146
              53.39103061                6.62422632               76.06939774                0.43893546                8.14756615                2.98270578              -14.88611702               -0.64032525              136.38773187               -6.22865307
              54.46872183                3.80166985               75.50705079                0.44369880                7.59257392                4.35298516              -17.65429755               -0.33245741              122.38107792               -7.85693313
              55.54288209                0.98207665               74.78721689                0.45176342                7.42577556                5.65364895              -20.57473661               -0.05446846              104.47730089               -9.95252537
              56.61723734               -1.83267953               73.86546688                0.46429064                7.64300489                6.89044163              -23.67760257                0.21658819               81.20798553              -12.82812643
              57.69574219               -4.64156405               72.67917997                0.48102579                8.28099729                8.05587836              -27.02909940                0.46772071               48.43606402              -17.16147294
              58.78285729               -7.44492290               71.10128045                0.74730519                8.71150969                9.18693350              -30.84456364                0.45691371               28.87805288              -28.91603496
              21.00125011               11.11323052               82.66162684                0.83637810               -1.62948257               -1.81367498                6.16745337               -0.47879397               -6.37805245                6.85393040
              21.98495528                8.16242101               81.87985383                0.56941091               -1.70578387               -1.04671294                4.15005733               -0.64993837               -8.73806778               -5.41971764
              22.96713443                5.20060444               81.05051792                0.48270877               -1.56009058               -0.57690736                2.12335488               -0.45460925               -8.91554954               -0.10992185
              23.95375347                2.21873120               80.26544174                0.45793883               -0.97139358                0.00628752                0.16017343               -0.40780314               -6.35351324               -0.37512024
              24.94770656               -0.78086822               79.48721804                0.45173020               -0.16080687                0.59184162               -1.86552070               -0.36633027               -5.71943379               -0.22583429
              25.95053734               -3.79255650               78.71460173                0.45816194                0.75645582                1.19115378               -3.93710257               -0.34682940               -5.39525080               -0.10546458
              26.96283568               -6.80896382               77.94279534                0.47896822                1.68859551                1.78629522               -6.04430949               -0.33401444               -5.59757531                0.01814834
              27.98430925               -9.82335634               77.16642814                0.51574930                2.54916580                2.38341185               -8.16534636               -0.33038357               -6.35413698                0.15563106
              29.01381899              -12.83086103               76.38022806                0.57575059                3.26767921                2.96251518              -10.26201980               -0.33126842               -7.93392537                0.19587109
              30.04966283              -15.82982573               75.57323437                0.66695783                3.83675050                3.52739150              -12.33595602               -0.32790260               -8.39592059                1.04237608
              31.09055400              -18.82205906               74.77889503                0.87161453                4.08911741                4.14202374              -14.38481364               -0.53728683               -7.83010163               -5.19309350
              23.94727168               12.09509377               82.34935162                0.61043093               -1.25027416               -1.91757026                5.37809515               -0.32988799                5.19843483               10.69454870
              24.93476894                9.15195388               81.56407461                0.09970417               -0.64192194               -0.70945054                3.38295914               -0.77165197               11.64334196              -10.06271206
              25.93443325                6.19483536               80.90735644                0.04133298                0.28214143               -1.08950571                1.77932274               -1.97727175               17.53356379              -12.82612356
              26.94041177                3.21879407               80.23928495                0.03265748                0.76269293               -0.84389826                0.02883659               -2.95742862               17.50341930              -18.74332498
              27.94968710                0.22505019               79.58197197                0.03571197                1.03525336               -0.37780686               -1.77038589               -3.57301649               18.27547762              -25.51716912
              28.96111684               -2.78064496               78.92969653                0.04291770                1.26041745                0.20124685               -3.63565671               -3.70687858               18.53071711              -33.14133514
              29.97489545               -5.79110087               78.27804511                0.05536252                1.54185887                0.78741791               -5.52495073               -3.35399075               18.32726542              -41.71108088
              30.99195402               -8.79952222               77.62208365                0.07502425                1.94227773                1.31421849               -7.44648505               -2.57975518               17.57686704              -51.38813419
              32.01374101              -11.80123588               76.95563831                0.10673105                2.50143996                1.73619625               -9.33479344               -1.49260422               16.42097005              -62.41447976
              33.04198282              -14.79455182               76.27684415                0.15338147                3.18367245                2.10242520              -11.18559853               -0.18166008               12.90781232              -75.11643119
              34.07741446              -17.78063882               75.54037468                0.60976946                3.54316417                2.29349998              -13.06006835                1.15771280               10.01553972              -92.75455136
              26.88093214               13.07487912               82.11345637                0.54839407               -1.11514846               -1.88839276                4.87748734               -0.10323070               -0.18227266               13.43173407
              27.86978065               10.14823200               81.15515331                0.03387573               -1.00916668               -0.28544361                2.42080700               -2.05623461               15.47484400              -12.94396906
              28.86074880                7.17881432               80.50978196                0.00010000               -0.26952910               -0.90861989                0.48100167               -4.87615348               30.20626767              -24.84009088
              29.86439007                4.20185323               79.84581703                0.00010000                0.74682281               -1.00084508               -1.51290325               -6.02308702               28.74826992              -36.77037216
              30.87568526                1.21157564               79.17110601                0.00010000                1.40803756               -0.69982000               -3.56039439               -6.95796224               27.60425934              -50.23541294
              31.89255082               -1.78853156               78.48432503                0.00010000                1.94739308               -0.20646704               -5.66003394               -7.15532161               26.07164846              -65.28658279
              32.91463312               -4.79321546               77.77911631                0.00010000                2.51491663                0.32181267               -7.81379693               -6.55513545               23.81531265              -82.17582705
              33.94284916               -7.79707197               77.04737455                0.00010000                3.21816938                0.75978136              -10.00764140               -5.24332517               20.66414288             -101.21840667
              34.97899651              -10.79613711               76.27936035                0.00010000                4.12917053                1.06215214              -12.23764164               -3.37111035               16.15491101             -122.77140766
              36.02543257              -13.78777723               75.45790704                0.00010000                5.34428742                1.26635270              -14.49485705               -1.36574126                9.16752748             -147.53645422
              37.08588226              -16.77618906               74.55145943                0.48269548                6.04496924                1.66625033              -16.80455326                0.33383906                4.75737879             -173.87238034
              29.79850131               14.05732592               81.85575087                0.53664317               -0.87922659               -1.63504224                4.27980460               -0.10014043                0.11766685               12.64326254
              30.78970905               11.14624501               80.78127544                0.02039871               -0.76061843               -0.11533778                1.57962069               -2.79897300               21.07686241              -11.05124208
              31.78328894                8.17666297               80.12583498                0.00010000               -0.12601647                0.15262742               -0.70454325               -5.69278286               41.41118596              -23.39857370
              32.78718872                5.19877717               79.45796438                0.00010000                0.88118538                0.23768459               -2.96656542               -6.33517386               39.77942744              -35.53243588
              33.80091265                2.21105379               78.76978067                0.00010000                1.78063955                0.50687405               -5.25646922               -6.86952789               37.40878460              -48.46451743
              34.82280151               -0.78477430               78.05444823                0.00010000                2.57102513                0.91739656               -7.59693322               -6.93125949               34.23650799              -62.76264596
              35.85233315               -3.78466461               77.30283387                0.00010000                3.36038263                1.38573255               -9.99867134               -6.39687537               30.05624532              -78.77499803
              36.89000916               -6.78432659               76.50396049                0.00010000                4.23454562                1.83271212              -12.46402824               -5.32265950               24.66781523              -96.81123965
              37.93702406               -9.77999284               75.64481623                0.00010000                5.23553901                2.23722631              -14.98526381               -3.86843075               17.82055984             -117.12489442
              38.99471994              -12.76922477               74.70976070                0.00010000                6.19454130                2.66709072              -17.54687459               -2.10483353                9.43967828             -139.54168269
              40.06091489              -15.74731381               73.68482544                0.48307154                6.61949512                3.65164739              -20.11494553               -0.92065419                4.81058753             -162.99555266
              32.70109115               15.04217827               81.60382596                0.53253836               -0.66270069               -1.40346313                3.70407263               -0.09717650                0.11154083               13.08141723
              33.69446415               12.14592524               80.41002846                0.01660399               -0.33650840                0.06577656                0.72328741               -3.27141628               27.14443939              -10.78305445
              34.69436098                9.18186687               79.75681623                0.00010000                0.44158115                0.77020575               -1.82547887               -6.46446690               53.41759308              -21.90833434
              35.70329577                6.20660692               79.08867685                0.00010000                1.37425941                1.15600563               -4.32893461               -6.85356868               51.30757252              -33.24810348
              36.72184617                3.22171312               78.39334458                0.00010000                2.31741354                1.49626241               -6.83916716               -7.06407106               47.96027055              -45.26624241
              37.74964404                0.22981637               77.65831453                0.00010000                3.22008675                1.91063223               -9.39383810               -6.91471658               43.33317236              -58.48070304
              38.78624791               -2.76550081               76.87050029                0.00010000                4.10400754                2.39685456              -12.01363023               -6.34149610               37.34875777              -73.30540884
              39.83172419               -5.76041772               76.01589736                0.00010000                5.01390812                2.92355935              -14.70426823               -5.38402679               29.92391073              -90.07074973
              40.88652607               -8.75139258               75.07991073                0.00010000                5.94663401                3.47898324              -17.45745108               -4.09291839               21.05010928             -108.97771244
              41.95065687              -11.73443542               74.04865764                0.00010000                6.85605995                4.14731832              -20.25011547               -2.38254720               10.91126086             -129.98742259
              43.02364727              -14.70315611               72.91145458                0.48397629                7.29903986                4.99188477              -23.05195751               -1.03419105                5.50254805             -152.92682507
              35.58906384               16.02925665               81.35463773                0.52920572               -0.44717227               -1.18873441                3.14540625               -0.09771081                0.12395345               13.29670841
              36.58459212               13.14756054               80.04150837                0.01423631                0.21270399                0.27005993               -0.13738248               -3.57208183               33.83914329              -10.59981113
              37.59331792               10.19206708               79.40268776                0.00010000                1.28394867                1.20659508               -2.90091765               -6.99391774               66.64655595              -20.27125553
              38.61027109                7.22189728               78.74631161                0.00010000                2.15519283                1.76899100               -5.59674332               -7.32225766               64.02532835              -30.16453530
              39.63642178                4.24097904               78.05549648                0.00010000                3.07250056                2.20704289               -8.28545239               -7.29241385               59.71931772              -40.75916233
              40.67172110                1.25343835               77.31333095                0.00010000                3.96577738                2.68645533              -11.01312481               -6.90609714               53.71505063              -52.50003711
              41.71573733               -1.73672752               76.50269857                0.00010000                4.82496449                3.25790195              -13.80712192               -6.20152422               45.98919878              -65.79784948
              42.76822039               -4.72585540               75.60627449                0.00010000                5.67230308                3.90844557              -16.67655752               -5.22646737               36.54521478              -81.02339938
              43.82918339               -7.71041317               74.60714133                0.00010000                6.53060644                4.61864850              -19.61466649               -3.97454209               25.49106887              -98.49208061
              44.89883252              -10.68627840               73.49032525                0.00010000                7.42445334                5.36407767              -22.60416247               -2.29059801               13.12722196             -118.43233005
              45.97767246              -13.64747612               72.24507546                0.48479855                7.88399319                6.06127641              -25.63007158               -1.01286013                6.62520717             -140.96888336
              38.46252917               17.01840358               81.10675015                0.52594363               -0.23170880               -0.98629149                2.58724607               -0.09730978                0.14293638               13.36312901
              39.46021208               14.15132644               79.67410463                0.01343616                0.88083569                0.49154802               -1.00437507               -3.79336586               41.39668190              -10.57957941
              40.48014588               11.20599877               79.06660649                0.00010000                2.38632865                1.51131118               -3.92692600               -7.36690317               81.57444309              -18.29276532
              41.50793866                8.24198674               78.43870657                0.00010000                3.21554739                2.10271661               -6.75762615               -7.64067404               78.41353195              -26.26665974
              42.54445683                5.26585398               77.76894223                0.00010000                4.06450020                2.59672078               -9.57015210               -7.35712499               73.13732921              -34.98579437
              43.58922866                2.28354548               77.03629032                0.00010000                4.85271701                3.18013088              -12.41914915               -6.68949468               65.77044012              -44.85521229
              44.64151117               -0.70034277               76.21978173                0.00010000                5.58259170                3.89061283              -15.33806404               -5.80418219               56.30365062              -56.24770565
              45.70088049               -3.68224881               75.29823606                0.00010000                6.29735251                4.69517013              -18.34067658               -4.76392064               44.74057295              -69.58152575
              46.76745822               -6.65901961               74.25084813                0.00010000                7.05136802                5.54521759              -21.42644616               -3.54068424               31.20662831              -85.34908811
              47.84190785               -9.62715386               73.05909225                0.00010000                7.91636397                6.35947794              -24.58918037               -2.00101243               16.06928299             -104.06865121
              48.92578550              -12.58193058               71.70964640                0.48588995                8.38776481                6.98697060              -27.83069820               -0.88902111                8.13610847             -126.16280581
              41.32127194               18.00953082               80.85865238                0.52276922               -0.01423218               -0.78851351                2.02437390               -0.09820386                0.16667970               13.26566840
              42.32112961               15.15739150               79.30627582                0.01408536                1.70238104                0.72654523               -1.88401714               -4.02618821               50.08016069              -10.70322146
              43.35531956               12.22229330               78.75230433                0.00010000                3.82363971                1.62765223               -4.89388310               -7.64571547               98.70176149              -15.87859993
              44.39760241                9.26395161               78.17432184                0.00010000                4.62004936                2.07385511               -7.79102351               -7.72859264               94.91457404              -21.43971890
              45.44772054                6.29291346               77.54628955                0.00010000                5.32627758                2.60821113              -10.66277485               -7.02031826               88.61325987              -27.92995007
              46.50412796                3.31704096               76.84365771                0.00010000                5.88637155                3.36863333              -13.57371805               -6.04330647               79.89177022              -35.58366365
              47.56544797                0.34108473               76.04220380                0.00010000                6.37454310                4.26533389              -16.56267261               -5.01040290               68.70509515              -44.66036646
              48.63161882               -2.63195200               75.11646264                0.00010000                6.89133893                5.24054220              -19.64938007               -3.95537562               54.92617223              -55.59168250
              49.70327475               -5.59950882               74.03975758                0.00010000                7.50522113                6.23573079              -22.84290703               -2.82998456               38.55252875              -69.06560268
              50.78172324               -8.55908884               72.78671563                0.00010000                8.30853582                7.15353869              -26.15172680               -1.54592606               19.94651528              -86.05721012
              51.86944547              -11.50773670               71.33806346                0.48678948                8.77222250                7.80147262              -29.59508516               -0.69393505               10.14976409             -107.49529567
              44.16484375               19.00263331               80.60863047                0.52031704                0.20820909               -0.58816438                1.44454123               -0.10699631                0.23936449               13.15796200
              45.16692584               16.16585734               78.93675751                0.01668987                2.79138552                0.96988990               -2.77584537               -4.40916469               60.21943515              -11.12976703
              46.22067146               13.23855182               78.46467294                0.00010000                5.79104063                1.29311422               -5.78837006               -7.89638029              118.58251726              -12.61941024
              47.28274665               10.28346384               77.96306651                0.00010000                6.51448301                1.45129826               -8.66749557               -7.14076516              113.91635845              -15.45408671
              48.35096112                7.31801820               77.40032909                0.00010000                6.87223003                2.27554161              -11.52672835               -5.89654599              106.43536603              -19.60141450
              49.42019125                4.35091815               76.75127254                0.00010000                6.96674804                3.30447854              -14.43391549               -4.72792752               96.44016856              -24.79907767
              50.49029608                1.38496391               75.99006825                0.00010000                7.10876426                4.41613269              -17.43095665               -3.73557687               83.70683361              -31.15048534
              51.56236654               -1.57743797               75.08709312                0.00010000                7.38496456                5.55482847              -20.54293546               -2.81372885               67.79670771              -39.02623209
              52.63799537               -4.53430500               74.00786914                0.00010000                7.84253397                6.68223128              -23.79087290               -1.89947634               48.28100770              -49.17811973
              53.71921722               -7.48408309               72.71436953                0.00010000                8.56035802                7.72863560              -27.20517483               -0.96932992               25.27745152              -63.16213044
              54.80920253              -10.42590113               71.17467382                0.48749847                8.99853143                8.50912760              -30.82898316               -0.44630098               12.98552066              -83.44415975
              46.99268395               19.99776754               80.35827486                0.51523870                0.43438681               -0.37194707                0.85938978               -0.11729133               -0.27497822               11.41198927
              47.99702782               17.17678930               78.56079901                0.01796500                4.35507510                1.20764051               -3.70253682               -5.25860302               72.31894814              -10.24721260
              49.07978545               14.24815559               78.21543427                0.00010000                8.91464530               -0.54143990               -6.57460348               -6.47651137              142.08453432               -7.28870968
              50.17532072               11.29297758               77.81771380                0.00010000                9.12749366                0.52751230               -9.34826500               -4.90182867              135.41709054               -8.19025767
              51.26233532                8.33842429               77.34322952                0.00010000                8.36514902                1.81314812              -12.12123825               -3.46966782              126.65436981              -10.15271499
              52.34262370                5.38313053               76.77316169                0.00010000                7.83786139                3.14075875              -14.95500381               -2.63792567              115.70496111              -12.77271095
              53.41909255                2.42940739               76.08142355                0.00010000                7.59947221                4.43602216              -17.89021825               -1.99771973              101.86557749              -16.05214837
              54.49461315               -0.52085543               75.23529786                0.00010000                7.64188973                5.69143211              -20.95488304               -1.43529175               84.34991997              -20.20835582
              55.57193035               -3.46586420               74.19315838                0.00010000                7.96598160                6.90010555              -24.17962869               -0.88974409               61.96028204              -25.76067287
              56.65393278               -6.40451613               72.89854379                0.00010000                8.61125916                8.03520150              -27.62478728               -0.39611346               33.33641556              -33.97733353
              57.74415553               -9.33755415               71.28287160                0.48826689                9.02227502                9.03297406              -31.39610773               -0.22880450               17.33832831              -49.72819445
              49.80445440               20.99519437               80.07329097                0.75693557                0.69113225               -0.25731647                0.16219912                0.65862374                5.15003194                9.67779576
              50.81136573               18.19001015               78.20937850                0.47905304                8.52492714                1.32208589               -4.57188092               -6.93977668               89.54377812               -9.04337266
              51.97495295               15.22772302               78.03362400                0.44427318               14.15378259               -2.04325695               -7.18609316               -5.28305357              168.16271625               -3.78977879
              53.09444138               12.29401409               77.75018119                0.43931251               10.82309304                0.10365111               -9.79187062               -1.76002728              158.41875022               -4.18586899
              54.19141481                9.35428116               77.38459198                0.43755881                9.10041302                1.58568742              -12.40962684               -1.10609015              149.18444665               -5.11578678
              55.27644964                6.41373332               76.91962438                0.43869547                8.14564213                3.06027861              -15.09716514               -0.64724708              137.87560463               -6.43245820
              56.35432765                3.47368435               76.32958494                0.44312196                7.62413236                4.42769618              -17.89328552               -0.34362248              123.65183145               -8.10197144
              57.42893229                0.53639067               75.58064150                0.45071372                7.47667671                5.72461052              -20.82452122               -0.06744787              105.54827077              -10.24392931
              58.50386118               -2.39630288               74.62802739                0.46155475                7.70263092                6.95613113              -23.92248241                0.20459722               82.07778971              -13.17836907
              59.58298490               -5.32337906               73.40840988                0.47649952                8.34206528                8.11370694              -27.25535227                0.45827436               49.00289631              -17.59691363
              60.67070249               -8.24524165               71.79253124                0.74439507                8.77175857                9.23125057              -31.03414479                0.46843722               29.28658555              -29.57375876
              21.72875034               11.49857720               83.72292286                0.82939951               -1.60865658               -1.78834147                6.08247888               -0.47340374               -6.49599536                6.97102667
              22.71266377                8.42726309               82.92109350                0.56133341               -1.70040320               -1.03146939                4.09039156               -0.66261050               -8.84894604               -5.53552527
              23.69474227                5.34461660               82.07170616                0.47983263               -1.55993518               -0.57096601                2.11037960               -0.44558379               -8.98766352               -0.06373074
              24.68146507                2.24184655               81.26714308                0.45715952               -0.95864169                0.00460751                0.18275700               -0.40014418               -6.41505091               -0.36110744
              25.67556944               -0.87829439               80.46886343                0.45201390               -0.15141398                0.57704641               -1.80137801               -0.36317859               -5.83162938               -0.21509619
              26.67843679               -4.01023817               79.67561223                0.45807019                0.75210120                1.17272996               -3.83950234               -0.33866136               -5.54837049               -0.11455441
              27.69061146               -7.14672673               78.88291010                0.47746272                1.66161095                1.76464540               -5.90663047               -0.32696730               -5.77077062                0.01170707
              28.71166901              -10.28116348               78.08555784                0.51199159                2.49748692                2.34618007               -7.97495875               -0.32382584               -6.53552115                0.13339133
              29.74056120              -13.40910502               77.27842815                0.56684234                3.20456587                2.92591489              -10.05020883               -0.32320993               -8.11450342                0.16810364
              30.77576032              -16.52895857               76.45084849                0.64986542                3.76558052                3.48870074              -12.09446856               -0.32259960               -8.57001296                1.01342494
              31.81587281              -19.64260641               75.63618986                0.85967854                4.01124876                4.09001793              -14.10634593               -0.49423003               -8.01504329               -5.27603340
              24.79533041               12.48069378               83.40279549                0.59970999               -1.23124426               -1.89776767                5.30171736               -0.33545908                5.36059355               10.96524907
              25.78301797                9.41694839               82.59768710                0.09812107               -0.61678533               -0.68976113                3.33419683               -0.79700120               12.00603519              -10.26947229
              26.78299470                6.33890694               81.92503954                0.04224068                0.29505760               -1.07451287                1.75245276               -2.01219647               18.01731675              -13.24777363
              27.78891912                3.24189263               81.23953516                0.03376037                0.74926577               -0.81632608                0.01519725               -2.98460862               17.87520806              -19.42346523
              28.79798002                0.12747608               80.56432596                0.03669402                1.01736127               -0.34424003               -1.76041513               -3.58045609               18.57054094              -26.43998294
              29.80926634               -2.99851087               79.89329113                0.04355583                1.24122139                0.24143589               -3.62156928               -3.69935370               18.78936532              -34.29382295
              30.82280445               -6.12908027               79.22288225                0.05542065                1.51767754                0.83246556               -5.50358716               -3.34564720               18.55913027              -43.10099278
              31.83961989               -9.25770168               78.54775571                0.07393108                1.92111005                1.35732504               -7.39946019               -2.57724153               17.77666445              -53.02258574
              32.86122665              -12.37984587               77.86230429                0.10348245                2.48325644                1.78875224               -9.29275656               -1.51098962               16.64824282              -64.30880050
              33.88928502              -15.49407156               77.16504630                0.14579769                3.16758503                2.16999095              -11.15002025               -0.25383227               13.14412398              -77.30455816
              34.92457835              -18.60170623               76.40994179                0.59679130                3.52933237                2.41871401              -12.99393958                1.02219195               10.22825463              -95.28978520
              27.84953193               13.46062184               83.16197763                0.54073123               -1.10213396               -1.87335960                4.81226241               -0.10010882               -0.22251631               13.80236508
              28.83851059               10.41346786               82.17923690                0.03284351               -0.99889117               -0.26719170                2.39077199               -2.07877603               15.69484014              -13.18012500
              29.82955411                7.32312634               81.51454758                0.00010000               -0.26534184               -0.89094993                0.47133137               -4.92530268               30.64158561              -25.67798286
              30.83320376                4.22552003               80.83069521                0.00010000                0.74048563               -0.95930251               -1.50792342               -6.04935534               29.11239792              -38.10310846
              31.84436382                1.11482081               80.13555153                0.00010000                1.39011535               -0.63348280               -3.54611275               -6.95553684               27.89551967              -52.04281567
              32.86100606               -2.00540946               79.42785684                0.00010000                1.92627535               -0.12377167               -5.63492267               -7.13412263               26.28360431              -67.54018484
              33.88288933               -5.13007741               78.70117802                0.00010000                2.49418553                0.41586638               -7.77526857               -6.53098607               23.95804477              -84.89138514
              34.91088977               -8.25401698               77.94764058                0.00010000                3.19109812                0.86616810               -9.95111220               -5.23343302               20.75998648             -104.40425171
              35.94671129              -11.37332997               77.15760178                0.00010000                4.08271325                1.18263348              -12.14422792               -3.39899762               16.21697341             -126.45858412
              36.99254404              -14.48555875               76.31392078                0.00010000                5.24373435                1.41905380              -14.35116211               -1.42551616                9.19895170             -151.76895310
              38.05158598              -17.59423213               75.38465728                0.47750683                5.90419393                1.88413462              -16.61765003                0.24212426                4.79308145             -178.66600771
              30.88763619               14.44322659               82.89826575                0.52909484               -0.86982396               -1.61892759                4.22216959               -0.09335255                0.11744948               12.99016370
              31.87893795               11.41160456               81.79706716                0.01988448               -0.75998537               -0.10961608                1.57295243               -2.81645814               21.27431531              -11.23787215
              32.87243648                8.32108794               81.11880461                0.00010000               -0.13502051                0.15715061               -0.69979812               -5.72492554               41.79588586              -24.15281362
              33.87623754                5.22270658               80.42834389                0.00010000                0.86811440                0.25560566               -2.95232145               -6.34303319               40.13131553              -36.78099942
              34.88979877                2.11480642               79.71729621                0.00010000                1.76222894                0.54566258               -5.23578540               -6.85832483               37.68499350              -50.16685311
              35.91148212               -1.00098631               78.97861224                0.00010000                2.54967407                0.97242317               -7.57014889               -6.90878379               34.42073766              -64.90388768
              36.94079225               -4.12076294               78.20308880                0.00010000                3.33608371                1.45219988               -9.96077259               -6.37785386               30.14917960              -81.34962112
              37.97820379               -7.24037832               77.37976097                0.00010000                4.19981064                1.91062202              -12.40212733               -5.32120125               24.68597947              -99.82918141
              39.02478846              -10.35619320               76.49572270                0.00010000                5.17365309                2.32629001              -14.88157827               -3.88779356               17.79483195             -120.59998080
              40.08167685              -13.46569049               75.53545332                0.00010000                6.09895581                2.77618214              -17.38696901               -2.13109843                9.41043394             -143.48704962
              41.14676758              -16.56402354               74.48511713                0.47825779                6.50907258                3.75684400              -19.90763147               -0.91871537                4.81627030             -167.40905312
              33.91090894               15.42824329               82.64067882                0.52549257               -0.65888602               -1.38738713                3.66855340               -0.08728958                0.11118248               13.46518771
              34.90432008               12.41127554               81.41730766                0.01636957               -0.34776813                0.06012697                0.73033840               -3.27793769               27.34950350              -10.98690790
              35.90395358                9.32626935               80.73862232                0.00010000                0.41522642                0.76368919               -1.81098368               -6.47706766               53.81895370              -22.61362005
              36.91262461                6.23063215               80.04544541                0.00010000                1.34683163                1.16131450               -4.31102561               -6.83968636               51.68361200              -34.40719314
              37.93089021                3.12573406               79.32502114                0.00010000                2.28875710                1.51862215               -6.82111131               -7.03775836               48.26086342              -46.84289925
              38.95839975                0.01403901               78.56448053                0.00010000                3.19170265                1.94969226               -9.37603593               -6.88798723               43.53114818              -60.45564603
              39.99472426               -3.10103342               77.75055605                0.00010000                4.07481256                2.44959801              -11.99127015               -6.32539161               37.44203233              -75.67282432
              41.03989600               -6.21580454               76.86921529                0.00010000                4.97716611                2.98737934              -14.66631381               -5.38460937               29.93289569              -92.83277034
              42.09426759               -9.32680417               75.90595640                0.00010000                5.89282014                3.55395137              -17.38863881               -4.10573366               21.01376243             -112.14295781
              43.15775241              -12.43003511               74.84707846                0.00010000                6.78050886                4.22874314              -20.13898363               -2.39218075               10.87639872             -133.57249644
              44.22987776              -15.51909525               73.68208234                0.47908607                7.21253582                5.06719664              -22.90068062               -1.02421828                5.50682687             -156.96716801
              36.91982589               16.41547885               82.38596240                0.52234265               -0.44727583               -1.17248274                3.12286829               -0.08572287                0.12327929               13.69704284
              37.91535314               13.41280710               81.04025032                0.01415949                0.18563164                0.25642837               -0.11704373               -3.56289344               34.08405636              -10.81332392
              38.92353853               10.33636172               80.37375446                0.00010000                1.23129825                1.19519142               -2.88201572               -6.98097286               67.12408224              -20.93414877
              39.93997910                7.24593287               79.69038545                0.00010000                2.10491071                1.77115987               -5.58225793               -7.28346657               64.48143807              -31.22371735
              40.96563674                4.14517886               78.97265878                0.00010000                3.02553769                2.22695277               -8.27896310               -7.24751912               60.09524420              -42.18181556
              42.00048985                1.03800754               78.20321748                0.00010000                3.92456141                2.72333576              -11.01572749               -6.86910327               53.97875176              -54.26842075
              43.04412797               -2.07177098               77.36468993                0.00010000                4.78962530                3.30904218              -13.81565682               -6.18082090               46.13752370              -67.90661553
              44.09628236               -5.18063073               76.43967743                0.00010000                5.63881945                3.97153095              -16.68268190               -5.22303326               36.60072629              -83.47672373
              45.15690436               -8.28511417               75.41133203                0.00010000                6.49209765                4.69129928              -19.60632961               -3.98073146               25.49359516             -101.30418514
              46.22612431              -11.38111563               74.26482474                0.00010000                7.37495649                5.44211816              -22.56952199               -2.29557247               13.11768827             -121.63377312
              47.30440349              -14.46267960               72.98950363                0.47984331                7.82791743                6.13847150              -25.56087256               -0.99830214                6.64497845             -144.61625508
              39.91453798               17.40479364               82.13256660                0.51984452               -0.23586428               -0.97060479                2.58005400               -0.08851171                0.14236348               13.76965182
              40.91217934               14.41640411               80.66422380                0.01343325                0.83351858                0.47251875               -0.97524851               -3.76771281               41.71496028              -10.80783605
              41.93120835               11.35017318               80.02740857                0.00010000                2.29793996                1.50302691               -3.90833634               -7.32394108               82.19358076              -18.90247388
              42.95813814                8.26605534               79.37112108                0.00010000                3.13284042                2.11351871               -6.75410752               -7.57560196               79.01157283              -27.20445695
              43.99386516                5.17027312               78.67316423                0.00010000                3.99146986                2.62751106               -9.58451382               -7.29445025               73.64591682              -36.22030429
              45.03796753                2.06850572               77.91197955                0.00010000                4.79404789                3.22740890              -12.45302462               -6.64302480               66.15304483              -46.37341408
              46.08974612               -1.03485257               77.06627575                0.00010000                5.54054956                3.95070342              -15.38967301               -5.77857221               56.55619397              -58.04901063
              47.14877853               -4.13637392               76.11474630                0.00010000                6.26958652                4.76545423              -18.40355058               -4.75634019               44.88532148              -71.67627029
              48.21513785               -7.23297819               75.03659538                0.00010000                7.03139308                5.62332378              -21.48943923               -3.54262868               31.27969767              -87.76121888
              49.28940639              -10.32119275               73.81335192                0.00010000                7.89509131                6.44219997              -24.63755429               -2.00317949               16.10168726             -106.84179533
              50.37303967              -13.39632582               72.43166424                0.48061959                8.36332877                7.07067061              -27.84683007               -0.87242658                8.18007974             -129.36618319
              42.89483471               18.39606675               81.87892008                0.51689951               -0.02153756               -0.77977329                2.02942918               -0.09689960                0.16275857               13.66231372
              43.89461934               15.42225747               80.28763143                0.01407447                1.62868809                0.70682162               -1.84372070               -3.98143027               50.50857113              -10.94499702
              44.92740847               12.36642226               79.70341229                0.00010000                3.68738936                1.63200152               -4.88124932               -7.56740679               99.53560102              -16.41876203
              45.96836712                9.28820324               79.09631772                0.00010000                4.49444415                2.10797315               -7.80585332               -7.63946103               95.72086152              -22.22208573
              47.01729736                6.19772908               78.43944920                0.00010000                5.21939641                2.66378008              -10.70724419               -6.94781599               89.31327010              -28.93269330
              48.07275505                3.10255572               77.70761538                0.00010000                5.80694076                3.43708149              -13.64933838               -5.99556709               80.44495596              -36.80147487
              49.13343617                0.00724308               76.87621427                0.00010000                6.32630595                4.34251288              -16.66823655               -4.98626117               69.10725915              -46.09872698
              50.19928117               -3.08532165               75.91959339                0.00010000                6.87172181                5.32403562              -19.77886161               -3.94871303               55.19749126              -57.26667006
              51.27087061               -6.17264770               74.81099440                0.00010000                7.50635918                6.32340250              -22.98419040               -2.83186999               38.72215996              -71.00909382
              52.34940835               -9.25227163               73.52496681                0.00010000                8.31752444                7.24270413              -26.28601567               -1.54800712               20.03342664              -88.32445950
              53.43722110              -12.32126619               72.04205423                0.48147501                8.78127427                7.88984235              -29.69667824               -0.67622471               10.22466354             -110.16762249
              45.86021854               19.38919817               81.62313576                0.51454756                0.19766805               -0.58562346                1.46790362               -0.10049471                0.24681626               13.54272353
              46.86219522               16.43054054               79.90924985                0.01660097                2.68479522                0.94891037               -2.73054269               -4.33296213               60.80605235              -11.39726802
              47.91391445               13.38281321               79.40678670                0.00010000                5.59234343                1.32757774               -5.78483963               -7.77766851              119.71123032              -13.05573920
              48.97404209               10.30821481               78.87618105                0.00010000                6.33209604                1.52828014               -8.70773450               -7.04170713              115.00074817              -16.03274734
              50.04055637                7.22354872               78.28466900                0.00010000                6.72500505                2.36661044              -11.61024762               -5.83163065              107.38247220              -20.31922137
              51.10854219                4.13724735               77.60639092                0.00010000                6.86709460                3.40187416              -14.56190397               -4.69242986               97.21361774              -25.66045498
              52.17789826                1.05199768               76.81510340                0.00010000                7.05764262                4.51686304              -17.60213254               -3.72148922               84.30475660              -32.16401744
              53.24969505               -2.02989321               75.88094394                0.00010000                7.37760825                5.65731568              -20.75069775               -2.81366652               68.23668981              -40.20898153
              54.32545043               -5.10651014               74.76923847                0.00010000                7.86848468                6.78460231              -24.02097989               -1.90526185               48.58058940              -50.56256069
              55.40706474               -8.17633866               73.44167447                0.00010000                8.60269419                7.82808912              -27.43386707               -0.97343979               25.43706667              -64.81026942
              56.49750431              -11.23852897               71.86592371                0.48214424                9.04395702                8.60263196              -31.02223332               -0.42807277               13.10192312              -85.46230780
              48.81014007               20.38435428               81.36697785                0.50985087                0.42049809               -0.37220455                0.88803670               -0.11223808               -0.28873766               11.72902726
              49.81434505               17.44123568               79.52405903                0.01766438                4.20203841                1.18204338               -3.64065701               -5.13187249               73.12002819              -10.50072450
              50.89418084               14.39297381               79.14962758                0.00010000                8.62262086               -0.43098239               -6.58478193               -6.35207918              143.61277136               -7.55267299
              51.98679747               11.31876885               78.72387166                0.00010000                8.87256780                0.65270373               -9.41930374               -4.82744821              136.83488480               -8.50283333
              53.07163220                8.24506129               78.22140062                0.00010000                8.18300100                1.94218090              -12.25195497               -3.43578861              127.89599280              -10.53122927
              54.15045749                5.17059320               77.62277405                0.00010000                7.72573771                3.27022090              -15.14646188               -2.62366944              116.74626296              -13.22303126
              55.22614695                2.09758034               76.90150402                0.00010000                7.55290849                4.56549840              -18.14081266               -1.99627250              102.71058896              -16.58042686
              56.30151566               -0.97217534               76.02460737                0.00010000                7.65319361                5.82019994              -21.25685285               -1.44129942               85.01580701              -20.82559689
              57.37921082               -4.03695565               74.95017004                0.00010000                8.02213652                7.02626065              -24.51620408               -0.89800872               62.45008743              -26.48838684
              58.46195839               -7.09570984               73.62115568                0.00010000                8.69147146                8.15520909              -27.96679168               -0.40131886               33.60919681              -34.85974013
              59.55304025              -10.14921355               71.96796907                0.48292444                9.10818613                9.14058033              -31.69850517               -0.20827310               17.51890762              -50.89097898
              51.74421098               21.38175408               81.07502604                0.75427979                0.67272579               -0.26002024                0.20229009                0.64982418                5.27966853                9.92362890
              52.75093824               18.45418141               79.16402076                0.47568711                8.25643583                1.29457291               -4.49584536               -6.71870706               90.69087801               -9.26232104
              53.90933970               15.37419356               78.96162695                0.44363874               13.72337043               -1.87802525               -7.21083521               -5.12974060              170.11824622               -3.89257916
              55.02540565               12.32126888               78.65173304                0.43902269               10.53382720                0.25000342               -9.89590133               -1.72924327              160.19193131               -4.31385697
              56.12001624                9.26239234               78.25961417                0.43723275                8.90720518                1.73310449              -12.59418230               -1.09245076              150.75827764               -5.27615884
              57.20354975                6.20265177               77.76745444                0.43858778                8.03625508                3.20585717              -15.36376408               -0.64500805              139.23258770               -6.62896463
              58.28074134                3.14330765               77.14918508                0.44222620                7.59276496                4.57273069              -18.23972222               -0.34760966              124.80289145               -8.33670479
              59.35540505                0.08651079               76.37072647                0.44904255                7.51417066                5.86861236              -21.24133676               -0.07568956              106.51662212              -10.52256323
              60.43102476               -2.96598492               75.38701723                0.45889715                7.79456053                7.09707263              -24.39032134                0.19413012               82.86743733              -13.51375597
              61.51129626               -6.01323448               74.13407292                0.47232061                8.46607516                8.24753617              -27.74157808                0.44716528               49.52122204              -18.01494271
              62.60034626               -9.05571736               72.48059755                0.74165879                8.90499988                9.34961881              -31.48278142                0.48231290               29.66597039              -30.20404917
              22.47498892               11.89290578               84.78327641                0.82262590               -1.57958696               -1.75618027                5.96949628               -0.46710868               -6.60896917                7.07621727
              23.45919305                8.69852328               83.96166166                0.55362163               -1.68286725               -1.01022612                4.01028630               -0.66688060               -8.94124019               -5.64320092
              24.44133158                5.49266307               83.09272551                0.47711462               -1.54489308               -0.56246022                2.08546272               -0.42992451               -9.02906967               -0.01619778
              25.42829519                2.26672489               82.26909688                0.45569579               -0.93633797                0.00477414                0.20811195               -0.40448221               -6.44874381               -0.35187804
              26.42260482               -0.97609521               81.45119048                0.45164777               -0.13859680                0.56576365               -1.72898301               -0.37280160               -5.91093183               -0.20705506
              27.42552326               -4.23020539               80.63781168                0.45793853                0.74349213                1.14393672               -3.70764357               -0.34647927               -5.66646519               -0.12050586
              28.43747466               -7.48867399               79.82466273                0.47574436                1.62787552                1.72853456               -5.71879093               -0.33006048               -5.90898012               -0.00521200
              29.45808077              -10.74508425               79.00692897                0.50707791                2.43818037                2.30275771               -7.74002570               -0.33041294               -6.68920341                0.10651937
              30.48623827              -13.99525124               78.17922388                0.55793302                3.12100471                2.86657218               -9.76214228               -0.32572921               -8.27541597                0.14041157
              31.52050086              -17.23795284               77.33134499                0.63220383                3.66660657                3.42375767              -11.76112263               -0.31892361               -8.72177035                0.96942024
              32.55957040              -20.47508359               76.49676811                0.84724207                3.90695395                4.01816403              -13.74959889               -0.45125804               -8.17152478               -5.34605426
              25.66470033               12.87534398               84.45538597                0.58892186               -1.20547322               -1.87248111                5.20226082               -0.34357843                5.51588972               11.22416588
              26.65264560                9.68842102               83.63075854                0.09623905               -0.58844021               -0.66369232                3.26897471               -0.81955278               12.35720649              -10.46392351
              27.65293153                6.48703847               82.94240550                0.04311619                0.29919561               -1.05867409                1.71604493               -2.04288783               18.47817446              -13.65141093
              28.65862951                3.26677263               82.23958890                0.03482505                0.72052075               -0.78712803               -0.00195272               -3.00685804               18.24602985              -20.07624357
              29.66734194                0.02956243               81.54676366                0.03761161                0.98591697               -0.30778592               -1.75847044               -3.58547235               18.87633598              -27.32676748
              30.67834785               -3.21876602               80.85726514                0.04403086                1.21357718                0.27745133               -3.58894820               -3.69389487               19.00324629              -35.40100994
              31.69161349               -6.47138864               80.16797337                0.05522020                1.48587057                0.87121405               -5.46181409               -3.33775173               18.74212343              -44.42681579
              32.70806526               -9.72205667               79.47409444                0.07245224                1.89008933                1.39609931               -7.34043613               -2.58262616               17.95924022              -54.58562459
              33.72941527              -12.96658552               78.76978318                0.09959159                2.45812662                1.82620224               -9.20498117               -1.54205432               16.82411258              -66.11373661
              34.75722780              -16.20371527               78.05384374                0.13752695                3.13866432                2.21947643              -11.06213926               -0.32305935               13.33714238              -79.37324893
              35.79218856              -19.43490194               77.28049589                0.58335955                3.49607642                2.51995159              -12.88556122                0.91635614               10.43280023              -97.67637045
              28.84196327               13.85545616               84.20970162                0.53298946               -1.08557609               -1.84579870                4.72645432               -0.09331474               -0.26324081               14.17290229
              29.83110750               10.68524944               83.20296875                0.03175224               -0.99205273               -0.25021060                2.35301259               -2.09778373               15.90378236              -13.40473914
              30.82212221                7.47148959               82.51920859                0.00010000               -0.27367127               -0.87532570                0.46041803               -4.96343486               31.05788022              -26.48135318
              31.82563408                4.25098233               81.81565856                0.00010000                0.71559088               -0.91828235               -1.49676702               -6.05233055               29.44674923              -39.37773223
              32.83643403                1.01774907               81.10018375                0.00010000                1.34811745               -0.56576496               -3.52109406               -6.93182375               28.14624776              -53.77088498
              33.85259643               -2.22465636               80.37162658                0.00010000                1.87881252               -0.03548631               -5.60523345               -7.09614766               26.45889658              -69.69700649
              34.87401028               -5.47124971               79.62361093                0.00010000                2.45143464                0.51767888               -7.74180117               -6.49756863               24.06548004              -87.47922067
              35.90162512               -8.71716226               78.84835231                0.00010000                3.15227494                0.97858708               -9.91317877               -5.22239546               20.82407121             -107.44866994
              36.93705578              -11.95872720               78.03647579                0.00010000                4.03654890                1.31192243              -12.09946950               -3.42939867               16.26736061             -129.97753357
              37.98235610              -15.19356332               77.17088380                0.00010000                5.16075498                1.57959131              -14.28667862               -1.48254838                9.22622760             -155.79178529
              39.04027088              -18.42468455               76.21910643                0.47313488                5.79147785                2.09910059              -16.52087709                0.17408173                4.81936084             -183.24073534
              32.00324748               14.83842800               83.94019426                0.52226075               -0.85909878               -1.58353892                4.15539220               -0.09642633                0.11533624               13.34893259
              32.99465649               11.68341681               82.81273449                0.01934095               -0.76587713               -0.11227541                1.55483479               -2.82464175               21.45639386              -11.41897021
              33.98792994                8.46953196               82.11183902                0.00010000               -0.16665339                0.15775130               -0.69013033               -5.72648622               42.15245464              -24.87692731
              34.99132342                5.24840699               81.39891795                0.00010000                0.82071131                0.27195806               -2.92525951               -6.31748615               40.44834020              -37.97761210
              36.00434416                2.01824713               80.66506496                0.00010000                1.70501267                0.58717493               -5.20321662               -6.81442251               37.91874956              -51.79560817
              37.02542368               -1.21947575               79.90304525                0.00010000                2.49119266                1.03772876               -7.54163240               -6.85732620               34.55816025              -66.95064262
              38.05416802               -4.46103507               79.10361842                0.00010000                3.28355831                1.53456387               -9.94148775               -6.33328324               30.19958383              -83.81459698
              39.09109484               -7.70248493               78.25591795                0.00010000                4.15301679                2.00863376              -12.39043603               -5.29776877               24.67577851             -102.72163684
              40.13722835              -10.94034707               77.34718467                0.00010000                5.12196704                2.44330669              -14.86743908               -3.88780712               17.75829115             -123.94037562
              41.19353419              -14.17212344               76.36202132                0.00010000                6.03421586                2.91532777              -17.35548756               -2.14350288                9.38218878             -147.29688193
              42.25791267              -17.39291993               75.28667281                0.47354094                6.43784849                3.88992924              -19.84151930               -0.90439063                4.82259037             -171.68547229
              35.15005712               15.82378538               83.67719703                0.51900911               -0.65464098               -1.35591355                3.62726314               -0.09283941                0.10229465               13.86335653
              36.14351071               12.68300393               82.42463523                0.01612949               -0.37274074                0.04805505                0.72818950               -3.26580354               27.53574443              -11.19247971
              37.14260231                9.47464462               81.72059656                0.00010000                0.35292366                0.75329504               -1.78828937               -6.44239704               54.18722146              -23.29530902
              38.15056919                6.25642149               81.00245634                0.00010000                1.27130017                1.16701360               -4.27700999               -6.77399672               52.01909118              -35.52222358
              39.16802831                3.02949257               80.25692235                0.00010000                2.20814538                1.54762560               -6.79040430               -6.95864045               48.51145865              -48.35623040
              40.19473210               -0.20390179               79.47079381                0.00010000                3.11627422                2.00233286               -9.36109652               -6.81048439               43.67383959              -62.35078805
              41.23035380               -3.44055843               78.63067489                0.00010000                4.01248277                2.52277623              -11.99900450               -6.26139819               37.48244804              -77.94792428
              42.27498175               -6.67698959               77.72257108                0.00010000                4.92921738                3.07820208              -14.69526108               -5.34023265               29.90052408              -95.49718107
              43.32893815               -9.90986106               76.73213795                0.00010000                5.85385756                3.66056055              -17.42821612               -4.07937711               20.95325260             -115.21357452
              44.39205890              -13.13525676               75.64587796                0.00010000                6.74189508                4.34480607              -20.17089242               -2.37722042               10.83242829             -137.07162815
              45.46377605              -16.34688597               74.45344097                0.47431282                7.17171446                5.17684087              -22.90184521               -0.99784277                5.50726840             -160.92549465
              38.28295359               16.81130973               83.41709510                0.51646335               -0.44724102               -1.14732198                3.09718758               -0.09293710                0.11630978               14.11103885
              39.27848118               13.68437791               82.03916749                0.01409367                0.13554198                0.23923382               -0.10240996               -3.52766347               34.30883615              -11.03269645
              40.28566443               10.48459786               81.34504745                0.00010000                1.12571783                1.18234246               -2.85298010               -6.90563702               67.56348713              -21.58046933
              41.30099554                7.27174726               80.63466645                0.00010000                1.99151012                1.77719188               -5.55076090               -7.17764812               64.89049048              -32.24973670
              42.32549464                4.04919964               79.88991722                0.00010000                2.91347251                2.25824486               -8.26130597               -7.13439833               60.41322148              -43.55378412
              43.35926499                0.82057091               79.09301640                0.00010000                3.82666097                2.77905404              -11.02647226               -6.76666215               54.17649610              -55.97120282
              44.40202785               -2.41057954               78.22638544                0.00010000                4.71639172                3.38555521              -13.86376766               -6.09886458               46.21888952              -69.93990475
              45.45359282               -5.64092089               77.27262085                0.00010000                5.59400639                4.06497021              -16.76809754               -5.16353884               36.59731599              -85.85165346
              46.51390798               -8.86713586               76.21501474                0.00010000                6.47109288                4.79773520              -19.71810980               -3.93990102               25.45308214             -104.04223808
              47.58301468              -12.08522732               75.03893481                0.00010000                7.36531239                5.55624566              -22.68602355               -2.27167064               13.08561923             -124.76847702
              48.66121423              -15.28938312               73.73385801                0.47497137                7.81995485                6.25405649              -25.65083554               -0.96625881                6.65433046             -148.19713912
              41.40206203               17.80083894               83.15835123                0.51417060               -0.23927057               -0.95509008                2.57079284               -0.09749284                0.13388233               14.18121533
              42.39966932               14.68778861               81.65459966                0.01344764                0.75290985                0.45438010               -0.94799757               -3.71099156               42.01058230              -11.03658053
              43.41712022               11.49829147               80.98843976                0.00010000                2.13725637                1.49710330               -3.87901134               -7.20712129               82.76861574              -19.50535662
              44.44241445                8.29196533               80.30362442                0.00010000                2.96982371                2.13513374               -6.73465450               -7.43234079               79.55460696              -28.12078321
              45.47651670                5.07465747               79.57725195                0.00010000                3.83817925                2.67775904               -9.59120692               -7.15461927               74.08717984              -37.41780650
              46.51917803                1.85167929               78.78722982                0.00010000                4.66758045                3.30145946              -12.50185535               -6.52538855               66.45749129              -47.84056529
              47.56986831               -1.37284733               77.91198827                0.00010000                5.45446310                4.04310474              -15.49125527               -5.68910920               56.72629029              -59.78942495
              48.62826729               -4.59569018               76.93016504                0.00010000                6.22891250                4.87189227              -18.55875665               -4.69316672               44.95305032              -73.70587765
              49.69444656               -7.81390636               75.82105934                0.00010000                7.03027253                5.74010405              -21.68637150               -3.50025574               31.29198040              -90.10872802
              50.76887274              -11.02413185               74.56634116                0.00010000                7.91579529                6.56633682              -24.85020448               -1.97906071               16.09984500             -109.55143703
              51.85276246              -14.22180484               73.15270980                0.47574124                8.38897168                7.20172426              -28.03527540               -0.83981493                8.20778003             -132.50106282
              44.50710441               18.79220793               82.89924097                0.51145167               -0.02955811               -0.77044633                2.04133109               -0.09974772                0.16470849               14.06790106
              45.50680882               15.69346551               81.26940141                0.01408866                1.51204383                0.68478890               -1.80560006               -3.89706901               50.91211127              -11.19159046
              46.53734528               12.51453993               80.65467934                0.00010000                3.45869504                1.64651390               -4.85819766               -7.40854686              100.31328232              -16.95921588
              47.57598273                9.31444993               80.01820477                0.00010000                4.26715025                2.16448137               -7.80735294               -7.46601180               96.46221652              -22.99481555
              48.62268829                6.10275482               79.33214466                0.00010000                5.01396430                2.75124459              -10.74912090               -6.79829213               89.93367909              -29.91171174
              49.67626201                2.88660010               78.57067094                0.00010000                5.64634309                3.54355423              -13.74832114               -5.88105423               80.90509749              -37.98236209
              50.73561515               -0.32971745               77.70883907                0.00010000                6.22632558                4.46205662              -16.83599338               -4.90566294               69.40956816              -47.49003551
              51.80078852               -3.54348304               76.72088541                0.00010000                6.83646908                5.45293015              -20.01642696               -3.89591820               55.37326527              -58.88840642
              52.87234453               -6.75233378               75.58007378                0.00010000                7.52717120                6.45872550              -23.27760164               -2.79937346               38.81441760              -72.89580551
              53.95133195               -9.95390058               74.26099532                0.00010000                8.37096919                7.38272501              -26.60375147               -1.53071469               20.07594843              -90.53030874
              55.03976391              -13.14534863               72.74412990                0.47660285                8.84319674                8.03713558              -29.98954405               -0.64580204               10.27810649             -112.76770638
              47.59755191               19.78543001               82.63798854                0.50993195                0.18440395               -0.58750622                1.50151411               -0.11244152                0.23698813               13.92686321
              48.59939595               16.70148438               80.88214665                0.01654324                2.52064793                0.92691918               -2.68010093               -4.21192206               61.35669608              -11.66097409
              49.64796486               13.53122175               80.34897615                0.00010000                5.27416857                1.38609794               -5.77323260               -7.56732322              120.77423093              -13.49988022
              50.70487932               10.33525496               79.78891182                0.00010000                6.02179122                1.64594921               -8.73771208               -6.86383673              116.00423193              -16.61101570
              51.76840069                7.12968236               79.16812414                0.00010000                6.45749477                2.50498597              -11.69684391               -5.70200367              108.23245402              -21.02473136
              52.83402921                3.92255038               78.46003447                0.00010000                6.67187503                3.55031447              -14.72247141               -4.60525030               97.87355626              -26.49825092
              53.90183819                0.71639381               77.63802560                0.00010000                6.94680253                4.67173085              -17.84910649               -3.66630507               84.78060899              -33.14487448
              54.97296526               -2.48663158               76.67207917                0.00010000                7.35192179                5.81665751              -21.08469911               -2.78254517               68.55907574              -41.35261045
              56.04887663               -5.68473185               75.52744954                0.00010000                7.91540192                6.94615394              -24.42513522               -1.89032557               48.78415166              -51.90279856
              57.13127330               -8.87647735               74.16569219                0.00010000                8.69329440                7.98956020              -27.86974561               -0.96722712               25.54126771              -66.40665742
              58.22274251              -12.06106213               72.55422915                0.47722960                9.14692121                8.76505308              -31.42944818               -0.40132820               13.19100331              -87.41220697
              50.67274683               20.78045781               82.37603559                0.50399573                0.40318164               -0.39297215                0.93997340               -0.12006922               -0.29245140               12.04544969
              51.67677865               17.71200390               80.48798587                0.01740640                3.97407043                1.16779489               -3.57767889               -4.95047460               73.87870192              -10.74670122
              52.75222824               14.54226188               80.08373863                0.00010000                8.17333636               -0.26745252               -6.58741213               -6.14971292              145.04949182               -7.82820357
              53.84024538               11.34736892               79.62932772                0.00010000                8.45622752                0.83796191               -9.48213648               -4.69969377              138.14935654               -8.81834140
              54.92135279                8.15285454               79.09819043                0.00010000                7.86000895                2.13242667              -12.39027802               -3.36521289              129.01303535              -10.90553597
              55.99744556                4.95760639               78.47023246                0.00010000                7.50591068                3.46214340              -15.37903332               -2.58180486              117.64378501              -13.66198084
              57.07147101                1.76371717               77.71860730                0.00010000                7.44088588                4.75971723              -18.48084727               -1.97405090              103.40229329              -17.09162991
              58.14626327               -1.42714989               76.81016081                0.00010000                7.64563887                6.01664030              -21.70432864               -1.43302820               85.53415018              -21.42155263
              59.22438378               -4.61341070               75.70283430                0.00010000                8.10272037                7.22297258              -25.05127593               -0.89863185               62.81844776              -27.19129868
              60.30831768               -7.79410938               74.33920796                0.00010000                8.82615629                8.34824783              -28.54347551               -0.40405703               33.81125261              -35.71180225
              61.40090691              -10.97004757               72.64890150                0.47796252                9.25892282                9.32412683              -32.24058684               -0.18231238               17.66392016              -52.00643402
              53.73205834               21.77757057               82.07733677                0.75138720                0.65240353               -0.28872363                0.27502819                0.65812176                5.42194498               10.18889638
              54.73858238               18.72484028               80.11946159                0.47236710                7.87736219                1.28363845               -4.43009188               -6.40452121               91.78990659               -9.48619140
              55.88960559               15.52587270               79.88940730                0.44274405               13.08552053               -1.63891885               -7.22338817               -4.90357007              171.94890456               -4.00048226
              57.00029279               12.35201420               79.55226316                0.43891826               10.06266880                0.46452782               -9.99000382               -1.67234930              161.82491898               -4.44379464
              58.09085896                9.17233089               79.13270834                0.43761886                8.56188478                1.94763532              -12.78755363               -1.06043074              152.16431912               -5.43525402
              59.17153048                5.99179325               78.61234910                0.43835251                7.81272464                3.41868582              -15.67747037               -0.62864447              140.40067934               -6.82040007
              60.24711345                2.81158815               77.96479049                0.44199134                7.49510437                4.78709802              -18.68758098               -0.34035640              125.75618789               -8.56303495
              61.32143257               -0.36629878               77.15581476                0.44764769                7.53750100                6.08511188              -21.82241144               -0.07609789              107.29591612              -10.78986984
              62.39786347               -3.54027240               76.14022096                0.45613975                7.91982292                7.31383029              -25.08228188                0.18728820               83.49872525              -13.83488991
              63.47982903               -6.70951239               74.85357831                0.46838189                8.65545848                8.45969892              -28.49413087                0.43577501               49.94174177              -18.41438298
              64.57097264               -9.87457959               73.16287562                0.73911397                9.11436151                9.54679781              -32.20382891                0.49985334               29.99019901              -30.79941723
              23.23980047               12.29588243               85.84231278                0.81553525               -1.54106008               -1.71305416                5.82455684               -0.45745563               -6.71150167                7.17317674
              24.22438987                8.97620529               85.00129922                0.54532587               -1.65374047               -0.98424630                3.91060498               -0.67221847               -9.01352282               -5.74262717
              25.20672566                5.64493267               84.11341542                0.47488815               -1.51823216               -0.55370235                2.05071359               -0.41879972               -9.04003735                0.03082551
              26.19402523                2.29382495               83.27130532                0.45567796               -0.90448297               -0.00188751                0.23420629               -0.38009389               -6.45239029               -0.34353474
              27.18863600               -1.07358186               82.43428377                0.45184334               -0.11949934                0.55293137               -1.63629003               -0.34955851               -5.95156167               -0.19722265
              28.19163524               -4.45155521               81.60145936                0.45718663                0.73392870                1.12092400               -3.54853104               -0.34488722               -5.73783369               -0.12448745
              29.20331457               -7.83345225               80.76853428                0.47353409                1.58442724                1.68874589               -5.49594347               -0.34013821               -6.01309343               -0.02267253
              30.22332378              -11.21336405               79.93075732                0.50227383                2.36611397                2.25265322               -7.46376043               -0.33104607               -6.80917695                0.07820563
              31.25063685              -14.58741539               79.08318531                0.54813073                3.02284540                2.80428777               -9.41483004               -0.32790601               -8.39156298                0.11348862
              32.28378069              -17.95456766               78.21562604                0.61422284                3.54796168                3.34923122              -11.36567748               -0.32493562               -8.85531746                0.91719143
              33.32159609              -21.31698305               77.36119788                0.83549679                3.78153964                3.94110887              -13.32435847               -0.40814082               -8.34156535               -5.40626180
              26.55490305               13.27875189               85.50684071                0.57814160               -1.17604869               -1.83054182                5.07891069               -0.34228643                5.66255226               11.47774041
              27.54314257                9.96636283               84.66306660                0.09401952               -0.55876081               -0.64040782                3.18562445               -0.83334186               12.69853611              -10.64220497
              28.54372784                6.63939565               83.95936044                0.04390148                0.31694924               -1.04334556                1.66828118               -2.06302595               18.91446251              -14.03440868
              29.54948155                3.29380607               83.23949610                0.03580448                0.70513301               -0.75943033               -0.01761751               -3.01549207               18.56250923              -20.69433488
              30.55783050               -0.06805254               82.52915655                0.03842956                0.93200070               -0.26581635               -1.75628215               -3.57336441               19.13201047              -28.16017286
              31.56812156               -3.44034597               81.82151217                0.04438493                1.14935576                0.32127606               -3.55752089               -3.66953386               19.20261544              -36.44702440
              32.58081761               -6.81656480               81.11364597                0.05477953                1.44366619                0.90726905               -5.41029265               -3.31664607               18.89867244              -45.68776552
              33.59699489              -10.19083752               80.40094698                0.07068305                1.85709939                1.42750841               -7.27164469               -2.58125762               18.11364325              -56.06680015
              34.61795960              -13.55937251               79.67820467                0.09543225                2.41601391                1.85666282               -9.11467613               -1.56738367               16.98704600              -67.83525572
              35.64531517              -16.92107535               78.94380351                0.12898593                3.09852321                2.24978145              -10.94584057               -0.37710974               13.50703870              -81.35382415
              36.67993006              -20.27757196               78.15223057                0.57040982                3.46148974                2.58796429              -12.76503165                0.84693171               10.61331062              -99.95269752
              29.85773286               14.25927160               85.25650672                0.52563774               -1.06535856               -1.80210267                4.62108659               -0.08947567               -0.30697969               14.54737212
              30.84707928               10.96339714               84.22629716                0.03061565               -0.98554811               -0.24020791                2.30790647               -2.09636665               16.09973619              -13.62025787
              31.83802190                7.62406576               83.52375594                0.00010000               -0.29578510               -0.86171137                0.45061857               -4.95932582               31.45157993              -27.23730364
              32.84116357                4.27863634               82.80075987                0.00010000                0.66494294               -0.87247575               -1.47700435               -6.02335480               29.75114029              -40.57722031
              33.85132076                0.92110181               82.06512965                0.00010000                1.27966187               -0.48958983               -3.48369567               -6.87750352               28.35193609              -55.39632559
              34.86675681               -2.44512969               81.31575217                0.00010000                1.80762200                0.05897914               -5.56435315               -7.02191910               26.57103886              -71.73550207
              35.88747320               -5.81530687               80.54634199                0.00010000                2.38747654                0.62229783               -7.70834063               -6.42952861               24.10751402              -89.93648888
              36.91450634               -9.18481388               79.74937700                0.00010000                3.10269063                1.09038445               -9.89180373               -5.19085156               20.82494499             -110.33943186
              37.94952701              -12.55028213               78.91561239                0.00010000                3.99658025                1.43548168              -12.08835492               -3.44334175               16.26033112             -133.33989788
              38.99443795              -15.90957203               78.02818720                0.00010000                5.10004628                1.72265319              -14.27417986               -1.52121591                9.22129192             -159.64610725
              40.05152794              -19.26522376               77.05423974                0.46888033                5.70899892                2.27522196              -16.47303924                0.13414378                4.83306865             -187.62385617
              33.14486246               15.24270984               84.98137360                0.51566285               -0.84413870               -1.53310047                4.07204241               -0.09783855                0.11200731               13.71167641
              34.13642107               11.96155867               83.82816386                0.01878419               -0.77801705               -0.12020963                1.52631783               -2.79961293               21.63143484              -11.59857850
              35.12930212                8.62216142               83.10500201                0.00010000               -0.22213364                0.15444920               -0.67058225               -5.66735589               42.48849509              -25.56181443
              36.13197840                5.27635656               82.36983870                0.00010000                0.73721715                0.29014156               -2.87820363               -6.22443460               40.72907677              -39.10653433
              37.14404646                1.92215566               81.61323188                0.00010000                1.60567362                0.63276938               -5.15049956               -6.70308961               38.09623493              -53.33435472
              38.16409187               -1.43916639               80.82777959                0.00010000                2.39323851                1.10908938               -7.50442866               -6.74536524               34.62254833              -68.88845938
              39.19191123               -4.80411884               80.00425904                0.00010000                3.20306209                1.62739738               -9.93534840               -6.23703427               30.16676141              -86.15549878
              40.22815311               -8.16902983               79.13195225                0.00010000                4.09698422                2.11814058              -12.42220196               -5.23034778               24.58386063             -105.48291092
              41.27385091              -11.53066287               78.19837392                0.00010000                5.08396845                2.56881957              -14.93166398               -3.85468537               17.65580259             -127.14154500
              42.32983248              -14.88662229               77.18834357                0.00010000                6.00327398                3.05954339              -17.43125217               -2.13723204                9.31551427             -150.96281871
              43.39391639              -18.23206752               76.08828675                0.46914811                6.40839130                4.02167159              -19.89099951               -0.87606417                4.81083907             -175.81763747
              36.41807842               16.22860959               84.71322408                0.51382012               -0.64429847               -1.30822102                3.56123262               -0.10442243                0.08536620               14.25487778
              37.41163544               12.96099294               83.43187145                0.01589842               -0.41007620                0.03150367                0.71758764               -3.21492036               27.71338852              -11.38903748
              38.40987690                9.62715474               82.70285653                0.00010000                0.25226027                0.73738584               -1.75031430               -6.32732883               54.53673801              -23.94934491
              39.41668064                6.28443917               81.95990521                0.00010000                1.14525087                1.17067499               -4.21642004               -6.62283990               52.31440850              -36.58255938
              40.43278192                2.93375720               81.18921305                0.00010000                2.07216811                1.58089596               -6.73534588               -6.79411590               48.69814211              -49.79219296
              41.45812400               -0.42294791               80.37725860                0.00010000                2.99070188                2.06569306               -9.33850428               -6.65282223               43.73096544              -64.15102464
              42.49259595               -3.78275893               79.51057596                0.00010000                3.91597088                2.61181891              -12.02904855               -6.12565458               37.42479999              -80.11684511
              43.53644342               -7.14245107               78.57531007                0.00010000                4.87149036                3.18860334              -14.78623941               -5.23502728               29.77146128              -98.04952203
              44.59002576              -10.49890574               77.55739208                0.00010000                5.83272653                3.78912736              -17.57252281               -4.00644827               20.81337267             -118.17227197
              45.65309795              -13.84838117               76.44366061                0.00010000                6.74356790                4.48369595              -20.34227211               -2.33618204               10.74244734             -140.46242506
              46.72489712              -17.18479033               75.22404544                0.46969259                7.17991652                5.30881507              -23.05383278               -0.95455058                5.48629701             -164.77831418
              39.67800729               17.21654542               84.44790615                0.51094892               -0.44297857               -1.11687577                3.06160497               -0.10364926                0.10882864               14.51633127
              40.67357751               13.96218875               83.03820212                0.01406158                0.06510098                0.22228196               -0.09846862               -3.44846307               34.52278417              -11.24468306
              41.67930931               10.63690914               82.31669486                0.00010000                0.96708160                1.16397033               -2.80546451               -6.73698422               67.98107616              -22.21041808
              42.69291914                7.29977006               81.57937023                0.00010000                1.81209528                1.78310934               -5.48940596               -6.96990589               65.25600302              -33.23646672
              43.71555122                3.95377358               80.80743266                0.00010000                2.73162067                2.29661705               -8.21789177               -6.92005739               60.65969129              -44.86567998
              44.74755155                0.60214747               79.98268803                0.00010000                3.66750430                2.84938924              -11.03226460               -6.56995000               54.27712552              -57.59730115
              45.78890130               -2.75188246               79.08741458                0.00010000                4.60239122                3.48321098              -13.94241672               -5.93322421               46.18720681              -71.88574148
              46.83959938               -6.10525776               78.10431548                0.00010000                5.53753689                4.18475201              -16.92941314               -5.03364154               36.48066006              -88.13497123
              47.89965204               -9.45488033               77.01696983                0.00010000                6.46970276                4.93469772              -19.95300873               -3.84575140               25.31837229             -106.68997080
              48.96899343              -12.79694837               75.81110426                0.00010000                7.39958333                5.70495876              -22.96329585               -2.21780080               12.99849142             -127.81654652
              50.04764371              -16.12589122               74.47648692                0.47049595                7.86502764                6.40856810              -25.91609954               -0.91624087                6.63789140             -151.69263091
              42.92471878               18.20627207               84.18398245                0.50854398               -0.24163221               -0.93789755                2.56068354               -0.09331370                0.13358893               14.60762536
              43.92230246               14.96543858               82.64526385                0.01350620                0.64185614                0.43449610               -0.92448355               -3.59961237               42.29485386              -11.27497534
              44.93755590               11.65043415               81.94982834                0.00010000                1.90578122                1.48962077               -3.83093226               -6.98878895               83.31628910              -20.10223174
              45.96041808                8.32010136               81.23642799                0.00010000                2.72237260                2.16247392               -6.68461599               -7.17588051               80.04870339              -29.01440528
              46.99200335                4.97968954               80.48134009                0.00010000                3.59814805                2.74245432               -9.57344240               -6.90539649               74.44805932              -38.57384093
              48.03238104                1.63403988               79.66194245                0.00010000                4.46666739                3.39781808              -12.55046323               -6.30866063               66.65187807              -49.25034264
              49.08133670               -1.71309471               78.75645065                0.00010000                5.31937072                4.16437505              -15.63249853               -5.51420771               56.76696459              -61.46153813
              50.13876846               -5.05875603               77.74357117                0.00010000                6.17323168                5.01269311              -18.80342417               -4.56023419               44.88969409              -75.66183197
              51.20480134               -8.40021178               76.60286795                0.00010000                7.04921854                5.89631602              -22.02357132               -3.40644742               31.19412220              -92.38144454
              52.27975283              -11.73428199               75.31634783                0.00010000                7.98283320                6.73597701              -25.24339651               -1.92647104               16.03330111             -112.18580713
              53.36445800              -15.05661897               73.87095873                0.47111984                8.47051717                7.38757760              -28.42137413               -0.79018035                8.20482251             -135.55618848
              46.15780800               19.19778747               83.91974670                0.50611394               -0.03848121               -0.76656309                2.06573195               -0.09471506                0.16174209               14.49208981
              47.15742318               15.97087867               82.25151943                0.01414851                1.35313823                0.66490092               -1.77364704               -3.75234202               51.29997908              -11.44615968
              48.18487076               12.66670155               81.60624834                0.00010000                3.13614763                1.66610863               -4.81551696               -7.13905667              101.05863364              -17.50682088
              49.22014614                9.34301953               80.94017067                0.00010000                3.93170044                2.23850907               -7.77965952               -7.17591128               97.14533621              -23.76008454
              50.26350477                6.00862266               80.22446679                0.00010000                4.70082272                2.86593930              -10.76998081               -6.54181291               90.46120144              -30.86701487
              51.31416259                2.67010383               79.43264896                0.00010000                5.39541467                3.68404679              -13.85386137               -5.67434069               81.23834784              -39.12446703
              52.37141306               -0.66859496               78.53949440                0.00010000                6.06745903                4.62133363              -17.05438376               -4.74893493               69.56233773              -48.83145023
              53.43551177               -4.00500390               77.51926485                0.00010000                6.78179955                5.62676076              -20.35878375               -3.78374425               55.39695349              -60.45341902
              54.50704905               -7.33695401               76.34544236                0.00010000                7.56797134                6.64425745              -23.73035471               -2.72529139               38.77845065              -74.72144606
              55.58687120              -10.66222883               74.99289178                0.00010000                8.47325014                7.57987664              -27.12373457               -1.49140013               20.04313161              -92.66911294
              56.67651406              -13.97813967               73.44226335                0.47186510                8.96428586                8.25371309              -30.50330034               -0.60146090               10.29542425             -115.28817649
              49.37664208               20.19094081               83.65316605                0.50402182                0.16994571               -0.59362133                1.54906169               -0.09129601                0.24698606               14.33713352
              50.37834153               16.97873660               81.85564783                0.01653742                2.29959130                0.90540263               -2.63259915               -4.01958086               61.89068814              -11.94024511
              51.42263390               13.68375632               81.29132205                0.00010000                4.83186048                1.46385238               -5.74317217               -7.24534991              121.78709516              -13.95915601
              52.47497874               10.36487154               80.70142681                0.00010000                5.57244492                1.80155693               -8.74051989               -6.57806621              116.93641676              -17.19368738
              53.53408280                7.03700833               80.05073212                0.00010000                6.05665553                2.68718563              -11.76689555               -5.48336634              108.96988973              -21.72061682
              54.59611185                3.70772081               79.31194149                0.00010000                6.36914684                3.74675565              -14.89761060               -4.44613185               98.38222703              -27.31351326
              55.66146574                0.37933197               78.45812127                0.00010000                6.76703829                4.87889092              -18.15926029               -3.55451137               85.07926878              -34.09328166
              56.73145262               -2.94622082               77.45924996                0.00010000                7.30273487                6.03309588              -21.54092300               -2.70993548               68.70154592              -42.45695224
              57.80752043               -6.26732663               76.28073576                0.00010000                7.98289333                7.17004810              -25.01038672               -1.84900359               48.83598379              -53.19810444
              58.89111049               -9.58268446               74.88427956                0.00010000                8.83650116                8.21984085              -28.53227676               -0.94865115               25.55634485              -67.94873332
              59.98425046              -12.89154471               73.23733475                0.47253677                9.31399719                9.00754847              -32.08202526               -0.36514845               13.23665325              -89.28662961
              52.58039049               21.18591504               83.38577732                0.49903831                0.38255638               -0.40055841                1.02326846               -0.10492319               -0.29508694               12.39114940
              53.58421605               17.98898672               81.45250545                0.01722669                3.67191669                1.13847684               -3.52703410               -4.68060617               74.61490271              -11.02361676
              54.65382882               14.69597860               81.01787934                0.00010000                7.55583749               -0.04548691               -6.57012715               -5.85268648              146.42452927               -8.11770211
              55.73533280               11.37905067               80.53422893                0.00010000                7.85796713                1.08252828               -9.51896131               -4.49939873              139.36814968               -9.14171018
              56.81098817                8.06236638               79.97359506                0.00010000                7.37917560                2.38215545              -12.51564758               -3.24389230              129.98633494              -11.27822466
              57.88291632                4.74503894               79.31519338                0.00010000                7.16381499                3.71448305              -15.63389150               -2.50070937              118.35298769              -14.09121985
              58.95426447                1.42898286               78.53188708                0.00010000                7.25276727                5.01743020              -18.89708296               -1.92236118              103.87685375              -17.58682359
              60.02797166               -1.88434198               77.59052080                0.00010000                7.61340779                6.28131462              -22.29291748               -1.40478106               85.83311401              -21.99703951
              61.10653262               -5.19355304               76.44914452                0.00010000                8.20722927                7.49352935              -25.79183609               -0.88873744               63.00098571              -27.86985183
              62.19211625               -8.49783201               75.05028617                0.00010000                9.01994801                8.62108049              -29.37471198               -0.40348463               33.90351882              -36.53251187
              63.28693158              -11.79798870               73.32315733                0.47318122                9.48153359                9.59453805              -33.05470759               -0.15040949               17.75443387              -53.06774950
              55.76840025               22.18292964               83.08052660                0.74913604                0.62656000               -0.29853982                0.37437464                0.65862581                5.55963507               10.47103603
              56.77466585               19.00150614               81.07541892                0.46945391                7.35579840                1.25194187               -4.36174505               -5.95917321               92.87267672               -9.74222464
              57.91551622               15.68284658               80.81715919                0.44198404               12.19685691               -1.31320150               -7.21349323               -4.58046219              173.69746455               -4.11422533
              59.01860299               12.38652211               80.45193297                0.43861197                9.38502324                0.74714317              -10.05471903               -1.58273872              163.31945318               -4.58002896
              60.10321668                9.08465144               80.00386309                0.43725831                8.04390973                2.22850611              -12.96830990               -1.00272977              153.37639502               -5.59544129
              61.17948118                5.78201048               79.45390503                0.43838231                7.45913791                3.69715316              -16.01905017               -0.59205657              141.32475910               -7.00864531
              62.25239944                2.47968057               78.77543346                0.44121356                7.32058585                5.06977114              -19.22383711               -0.31675246              126.43531176               -8.78201172
              63.32589290               -0.82059453               77.93427824                0.44636895                7.54181351                6.37474596              -22.56412632               -0.06470690              107.80066439              -11.04607716
              64.40323571               -4.11745605               76.88537160                0.45424467                8.07917724                7.60969971              -26.00660502                0.18689283               83.89380430              -14.14090663
              65.48747645               -7.41026285               75.56419031                0.46476164                8.91599631                8.75691627              -29.53458179                0.42612499               50.21496114              -18.79259290
              66.58155564              -10.69965395               73.83652097                0.73691828                9.40791929                9.83347515              -33.23159722                0.52329595               30.23274350              -31.35090001
              24.02278601               12.70731346               86.89976755                0.80831508               -1.49660509               -1.66086094                5.65425786               -0.44638826               -6.80310947                7.26891842
              25.00781996                9.26013599               86.03987376                0.53743937               -1.61306376               -0.95569981                3.79389350               -0.66853191               -9.06579645               -5.83892707
              25.99052474                5.80138955               85.13373979                0.47199100               -1.47204599               -0.53797748                2.01220319               -0.40651367               -9.01824239                0.07189698
              26.97837904                2.32347263               84.27378100                0.45485711               -0.85525965               -0.00412465                0.26576296               -0.38828436               -6.41315822               -0.33366421
              27.97341954               -1.16978523               83.41846468                0.45177228               -0.09314838                0.52983114               -1.52477679               -0.35901517               -5.94690161               -0.19662333
              28.97651607               -4.67280076               82.56684106                0.45708684                0.72476453                1.08014409               -3.35577871               -0.33881265               -5.77064759               -0.12497029
              29.98791483               -8.17935082               81.71474386                0.47134342                1.53650637                1.63991541               -5.22997144               -0.33120599               -6.07365819               -0.04044786
              31.00724620              -11.68389946               80.85765376                0.49738427                2.28117299                2.18871054               -7.12041702               -0.33014563               -6.87913965                0.06185044
              32.03353829              -15.18302020               79.99092728                0.53782388                2.90678677                2.73024762               -9.00832308               -0.32708754               -8.47985882                0.07493521
              33.06538193              -18.67596396               79.10403144                0.59700923                3.40285572                3.26110432              -10.89417550               -0.31662582               -8.97234633                0.88377896
              34.10159541              -22.16527419               78.23028094                0.82336673                3.62134719                3.82764355              -12.76613769               -0.33049734               -8.49020776               -5.44987212
              27.46549960               13.69070485               86.55696418                0.56814071               -1.14030051               -1.77213728                4.93034775               -0.33974698                5.79714296               11.72364167
              28.45409660               10.25057899               85.69447103                0.09154981               -0.53541621               -0.61944833                3.08669180               -0.83310167               13.02537144              -10.80452966
              29.45479128                6.79600977               84.97577112                0.04456997                0.29934951               -1.01437982                1.60605144               -2.04906221               19.33096215              -14.39078820
              30.46008359                3.32343138               84.23923655                0.03666783                0.65874039               -0.71886489               -0.04129104               -2.97962788               18.83787232              -21.26373703
              31.46796608               -0.16448692               83.51163802                0.03910894                0.89135783               -0.22337710               -1.74994103               -3.51848948               19.32591324              -28.93216685
              32.47791074               -3.66199932               82.78611472                0.04451482                1.10930200                0.35834655               -3.51477378               -3.60879783               19.33363988              -37.41849446
              33.49015212               -7.16295167               82.05976752                0.05403182                1.39343437                0.93791335               -5.34383376               -3.26960722               19.00728604              -46.86578797
              34.50577943              -10.66201235               81.32866155                0.06856904                1.80737712                1.44716470               -7.18082131               -2.55793138               18.21719393              -57.46755613
              35.52629967              -14.15571772               80.58748966                0.09089697                2.37816217                1.86628960               -9.01399134               -1.57133291               17.10179463              -69.47663839
              36.55334267              -17.64335292               79.83492693                0.12012951                3.06504980                2.24692205              -10.81355018               -0.42536905               13.63477592              -83.23918469
              37.58760066              -21.12699775               79.02519525                0.55769522                3.42579895                2.60281657              -12.58141496                0.79710488               10.72559368             -102.10084599
              30.89624279               14.67187071               86.30212335                0.51845490               -1.03897920               -1.73803404                4.48760135               -0.09199429               -0.35105297               14.91841098
              31.88585300               11.24774702               85.24912688                0.02945637               -0.97758492               -0.23540187                2.24667514               -2.06042877               16.28340954              -13.82070320
              32.87669110                7.78110195               84.52822096                0.00010000               -0.32849134               -0.84073456                0.44683043               -4.87089801               31.82417289              -27.92956503
              33.87928317                4.30909533               83.78611848                0.00010000                0.58946787               -0.81502087               -1.43996658               -5.88816130               30.02008239              -41.67503763
              34.88848045                0.82574723               83.03050984                0.00010000                1.17608455               -0.40182241               -3.42756939               -6.71836395               28.50216947              -56.88998661
              35.90280487               -2.66563383               82.26033952                0.00010000                1.70276370                0.16239735               -5.50987317               -6.87015204               26.60899338              -73.62707571
              36.92253573               -6.16059256               81.46944412                0.00010000                2.30243782                0.72863325               -7.67074787               -6.30719370               24.05535339              -92.23332727
              37.94885362               -9.65495617               80.65051624                0.00010000                3.04582347                1.19680694               -9.88472272               -5.11120489               20.72661372             -113.07767625
              38.98345220              -13.14569440               79.79470869                0.00010000                3.96504825                1.53800315              -12.10889876               -3.42079673               16.16371987             -136.54313367
              40.02815459              -16.63102552               78.88540021                0.00010000                5.06874911                1.82498463              -14.30772297               -1.54672425                9.15645814             -163.33844376
              41.08482718              -20.11321786               77.88964565                0.46474208                5.66725909                2.39596876              -16.47882924                0.11288769                4.82605595             -191.82778083
              34.31190710               15.65594417               86.02163511                0.50932792               -0.82503210               -1.47601657                3.97049653               -0.09597563                0.10021627               14.08192200
              35.30365678               12.24587095               84.84326085                0.01822879               -0.79410494               -0.12810491                1.48877614               -2.72280263               21.79823231              -11.78149449
              36.29602500                8.77919508               84.09842737                0.00010000               -0.29908484                0.14314560               -0.63365815               -5.50638838               42.81686057              -26.19560583
              37.29767508                5.30713097               83.34135387                0.00010000                0.61514802                0.30717174               -2.79808119               -6.02503943               40.97559002              -40.14506311
              38.30832796                1.82747663               82.56205497                0.00010000                1.45862006                0.68503519               -5.06303230               -6.48625147               38.20629853              -54.75417753
              39.32684749               -1.65875137               81.75295667                0.00010000                2.25013132                1.19015525               -7.44458275               -6.53360007               34.58691942              -70.68956124
              40.35333059               -5.14837900               80.90491145                0.00010000                3.09048468                1.72708440               -9.93152923               -6.05311204               30.01148248              -88.35245180
              41.38865718               -8.63807622               80.00747391                0.00010000                4.03112471                2.23064548              -12.48965249               -5.09187092               24.36190632             -108.09655088
              42.43395308              -12.12495766               79.04855139                0.00010000                5.06372313                2.68959949              -15.06861721               -3.76870754               17.43737841             -130.19868633
              43.48993164              -15.60685322               78.01339627                0.00010000                6.01450049                3.18797803              -17.61119554               -2.10104097                9.17701202             -154.48848885
              44.55424309              -19.07907838               76.88885282                0.46497810                6.43114526                4.12827154              -20.05541907               -0.82725734                4.76536056             -179.81860618
              37.71446972               16.64235038               85.74842168                0.50726979               -0.63236821               -1.25330912                3.48719453               -0.08498955                0.08427245               14.67239456
              38.70814604               13.24518492               84.43898699                0.01569107               -0.45832026                0.01104472                0.70139509               -3.09470715               27.89878211              -11.60209279
              39.70530331                9.78396486               83.68559027                0.00010000                0.11774006                0.71113040               -1.68716546               -6.09266588               54.88584191              -24.56737311
              40.71050084                6.31523877               82.91812794                0.00010000                0.96672233                1.16820863               -4.11154372               -6.34071076               52.57696345              -37.57121701
              41.72463776                2.83944793               82.12221543                0.00010000                1.87438326                1.61411836               -6.63552153               -6.50133959               48.81038131              -51.12849208
              42.74798850               -0.64183072               81.28402373                0.00010000                2.80802869                2.13462057               -9.28911189               -6.37603508               43.67380424              -65.83253410
              43.78079833               -4.12605087               80.39009392                0.00010000                3.78031775                2.71049706              -12.06642713               -5.88492878               37.22432870              -82.15694046
              44.82359486               -7.61034326               79.42684630                0.00010000                4.80283602                3.30974009              -14.93032302               -5.04289763               29.49123371             -100.47169299
              45.87685505              -11.09190241               78.38068749                0.00010000                5.83298162                3.92732516              -17.81948639               -3.86945733               20.54159954             -121.00489783
              46.94025449              -14.56726596               77.23903252                0.00010000                6.79386434                4.63038777              -20.65810831               -2.26071180               10.57226131             -143.73528408
              48.01273234              -18.03065243               75.99236431                0.46583828                7.24778507                5.44646755              -23.37003463               -0.89046438                5.42831695             -168.52366338
              41.10453823               17.63087799               85.47832720                0.50629795               -0.43900763               -1.05997421                3.02209575               -0.09354971                0.09960330               14.95138369
              42.10014816               14.24609184               84.03719812                0.01407648               -0.02101960                0.18934335               -0.10199307               -3.29429096               34.74793412              -11.47057207
              43.10411784               10.79341769               83.28893816                0.00010000                0.76148231                1.13642463               -2.72763481               -6.43090762               68.40805949              -22.82097188
              44.11537780                7.33049514               82.52487833                0.00010000                1.56264101                1.78190131               -5.37682641               -6.61413830               65.58951477              -34.17281850
              45.13537066                3.85975900               81.72555938                0.00010000                2.47238908                2.33492949               -8.12407875               -6.56142138               60.82646778              -46.10117404
              46.16482558                0.38394104               80.87237111                0.00010000                3.43869449                2.92711182              -11.01001814               -6.24057642               54.25183630              -59.12803289
              47.20414455               -3.09416906               79.94753710                0.00010000                4.44125943                3.59464757              -14.03419423               -5.65209561               45.99666875              -73.72543922
              48.25365077               -6.57188141               78.93403259                0.00010000                5.46710446                4.32335278              -17.15809491               -4.80965377               36.19560034              -90.30921014
              49.31348664              -10.04641115               77.81595457                0.00010000                6.49083230                5.09473151              -20.31355817               -3.68333858               25.03713482             -109.23212730
              50.38346742              -13.51424547               76.57966889                0.00010000                7.48600524                5.88152242              -23.41616134               -2.12721861               12.82290003             -130.76632347
              51.46320674              -16.97014903               75.21553601                0.46606175                7.97393259                6.59736972              -26.38375889               -0.84511718                6.57995184             -155.09808646
              44.48217101               18.62115090               85.20956490                0.50366508               -0.24504937               -0.90059258                2.56102298               -0.10513294                0.13442412               15.05295836
              45.47972051               15.24897179               83.63610999                0.01363239                0.50554301                0.40332493               -0.91452822               -3.41494638               42.58905938              -11.52315511
              46.49228187               11.80669336               82.91182111                0.00010000                1.60781246                1.47460516               -3.74921347               -6.61730586               83.87346218              -20.69530519
              47.51187676                8.35087679               82.16993210                0.00010000                2.38407810                2.18771449               -6.57996425               -6.76268183               80.50988657              -29.87983462
              48.53996343                4.88614652               81.38578310                0.00010000                3.26141376                2.81317451               -9.50346211               -6.50509585               74.72226528              -39.67860516
              49.57710504                1.41671152               80.53622056                0.00010000                4.18077244                3.50853351              -12.57302263               -5.95643358               66.70774778              -50.59032599
              50.62357888               -2.05415792               79.59933830                0.00010000                5.12694175                4.30759978              -15.79444967               -5.22431275               56.63196938              -63.05200852
              51.67964387               -5.52387620               78.55409656                0.00010000                6.09867295                5.18255984              -19.12964346               -4.33605026               44.63979876              -77.53115278
              52.74555234               -8.99000778               77.38058792                0.00010000                7.09020594                6.08903226              -22.50734624               -3.24796680               30.93419545              -94.56764825
              53.82144799              -12.44963551               76.06147323                0.00010000                8.10423888                6.95154475              -25.83937528               -1.83955348               15.86935282             -114.73564561
              54.90763711              -15.89870503               74.58428232                0.46681966                8.61891230                7.63304232              -29.04277133               -0.72082564                8.15573785             -138.52699989
              47.84679379               19.61286613               84.94055561                0.50145726               -0.04870230               -0.75044150                2.09654152               -0.10292626                0.15436048               14.93994559
              48.84630677               16.25415834               83.23392847                0.01428216                1.15364630                0.63608350               -1.74461201               -3.53115750               51.69698418              -11.72157213
              49.86986672               12.82290979               82.55836901                0.00010000                2.71821160                1.68571352               -4.73876482               -6.71314947              101.81106051              -18.06298552
              50.90067100                9.37424943               81.86261158                0.00010000                3.47836517                2.32230743               -7.69653234               -6.72832418               97.78907373              -24.51796471
              51.93943402                5.91602249               81.11674505                0.00010000                4.26651746                2.99976143              -10.73985643               -6.14086735               90.89025723              -31.79466392
              52.98600135                2.45411171               80.29359371                0.00010000                5.04059949                3.85120872              -13.93822462               -5.34299917               81.41532827              -40.22139167
              54.04024601               -1.00801707               79.36775140                0.00010000                5.83891419                4.81467079              -17.30340771               -4.49028541               69.51737877              -50.11531026
              55.10277963               -4.46823022               78.31370973                0.00010000                6.70203002                5.84248133              -20.79844409               -3.59378129               55.21102315              -61.95387238
              56.17428661               -7.92463051               77.10546668                0.00010000                7.62969814                6.88058457              -24.35120979               -2.59849961               38.56081615              -76.47870799
              57.25537360              -11.37521457               75.71852062                0.00010000                8.63213324                7.83945534              -27.87301144               -1.42522264               19.90161662              -94.73443810
              58.34692928              -14.81748818               74.13406389                0.46715332                9.15556796                8.55081630              -31.28259427               -0.54095627               10.26069388             -117.72371752
              51.19752806               20.60614207               84.66896977                0.49982594                0.15256405               -0.59729483                1.61955520               -0.11510917                0.24685487               14.77080911
              52.19905370               17.26169346               82.82949467                0.01660935                2.01998646                0.88010645               -2.59399113               -3.75332612               62.43266130              -12.24109642
              53.23792779               13.84040763               82.23411271                0.00010000                4.25719391                1.55804571               -5.67695806               -6.76209441              122.80117105              -14.43790016
              54.28419758               10.39732294               81.61410142                0.00010000                4.96780028                1.98895632               -8.68855298               -6.15221146              117.81539098              -17.78410496
              55.33728380                6.94614175               80.93278623                0.00010000                5.50435149                2.90682922              -11.78880175               -5.14531151              109.58836103              -22.40720382
              56.39428461                3.49373569               80.16208225                0.00010000                5.94156505                3.98533688              -15.05827168               -4.18971550               98.70688634              -28.10433400
              57.45611510                0.04213550               79.27484040                0.00010000                6.50485377                5.13427880              -18.51191659               -3.36638050               85.14778183              -35.00600248
              58.52438169               -3.40702657               78.24126071                0.00010000                7.22258006                6.30556276              -22.11219294               -2.58215546               68.60132038              -43.51829341
              59.60056670               -6.85239609               77.02724181                0.00010000                8.07097616                7.45934681              -25.78710201               -1.77341570               48.67813753              -54.44466706
              60.68580121              -10.29284640               75.59504666                0.00010000                9.03992512                8.52721063              -29.45157710               -0.91454833               25.44633765              -69.43193782
              61.78136520              -13.72768871               73.91258865                0.46807510                9.55639922                9.34497002              -33.02909115               -0.31803066               13.22150742              -91.07790133
              54.53338883               21.60092024               84.39650096                0.49415650                0.35858597               -0.43246738                1.12640308               -0.11905903               -0.31536555               12.74789845
              55.53697469               18.27176047               82.41744519                0.01709242                3.28032595                1.12376990               -3.47270924               -4.32499522               75.35536598              -11.30233364
              56.59899535               14.85407071               81.95233609                0.00010000                6.74589813                0.23104311               -6.51659309               -5.43094398              147.78810865               -8.43029489
              57.67189265               11.41402855               81.43894849                0.00010000                7.05598486                1.38413072               -9.50035861               -4.20656357              140.50927343               -9.47605908
              58.74011504                7.97415907               80.84787747                0.00010000                6.71603208                2.68721230              -12.59510429               -3.05395542              130.80552908              -11.65116670
              59.80621329                4.53381845               80.15755463                0.00010000                6.67828110                4.02306759              -15.88098365               -2.36599372              118.83438467              -14.51092602
              60.87368067                1.09466851               79.34066564                0.00010000                6.97274124                5.33598314              -19.36847573               -1.83030122              104.07259728              -18.06522648
              61.94566812               -2.34211896               78.36430246                0.00010000                7.54787303                6.61456919              -23.01590418               -1.34930241               85.84040771              -22.55078863
              63.02463813               -5.77544357               77.18699758                0.00010000                8.33535640                7.84257031              -26.74968418               -0.86453030               62.93104886              -28.52247340
              64.11237524               -9.20467036               75.75171372                0.00010000                9.28075719                8.98369456              -30.49302980               -0.39837706               33.84462290              -37.31925502
              65.21025327              -12.63058878               73.98780735                0.46845946                9.78780259                9.96819190              -34.19306741               -0.11179293               17.77013390              -54.06691474
              57.85346641               22.59749272               84.08482427                0.74617922                0.59369160               -0.34275181                0.50725210                0.67537217                5.71910854               10.74818615
              58.85940333               19.28416886               82.03222669                0.46662993                6.67872084                1.24083836               -4.28592399               -5.38034735               93.95905736               -9.97907522
              59.98704083               15.84502849               81.74513743                0.44152944               11.02873072               -0.90422183               -7.16098207               -4.15361667              175.39575935               -4.24666357
              61.07997794               12.42500556               81.35116878                0.43849803                8.46869822                1.09770012              -10.05895601               -1.44859535              164.69379658               -4.72504734
              62.15641479                8.99988600               80.87334214                0.43736054                7.32386799                2.57269210              -13.10174252               -0.91045070              154.37522526               -5.75987091
              63.22645530                5.57419704               80.29196810                0.43814013                6.95158460                4.03785914              -16.35744121               -0.52734054              141.95379561               -7.19538644
              64.29544649                2.14885516               79.58031375                0.44074568                7.05262079                5.41866532              -19.82735039               -0.27002956              126.76470173               -8.99430153
              65.36750772               -1.27473519               78.70453224                0.44507289                7.51905031                6.73837714              -23.46067336               -0.03603214              107.94375904              -11.29074424
              66.44582749               -4.69554469               77.62008886                0.45194506                8.27355788                7.98988859              -27.17700178                0.19707054               83.97149893              -14.43012301
              67.53297888               -8.11317251               76.26288668                0.46113327                9.25693448                9.14978491              -30.89832928                0.42135414               50.28823214              -19.14607013
              68.63096618              -11.52832487               74.49824367                0.73445148                9.79873055               10.22639121              -34.62158267                0.55605555               30.36488931              -31.84820851
              24.82352587               13.12686754               87.95539794                0.80111570               -1.44241646               -1.59986167                5.45545597               -0.43290009               -6.88557641                7.34958652
              25.80910171                9.55023220               87.07717709                0.52975531               -1.55361520               -0.92130826                3.65531853               -0.65384537               -9.09072486               -5.92584407
              26.79245357                5.96230793               86.15365948                0.46963655               -1.40322692               -0.52092234                1.96373156               -0.38678173               -8.94786079                0.10699667
              27.78103717                2.35624057               85.27662058                0.45394727               -0.79078265               -0.00467104                0.30380911               -0.37495405               -6.32649075               -0.32456571
              28.77663791               -1.26386101               84.40378823                0.45118280               -0.05470287                0.51199692               -1.40023447               -0.35885843               -5.88261101               -0.19828887
              29.77994311               -4.89260195               83.53434379                0.45601850                0.71953996                1.03876267               -3.13539993               -0.35020046               -5.73851698               -0.13172633
              30.79102871               -8.52430853               82.66393485                0.46941048                1.48072284                1.57277136               -4.90828510               -0.33825461               -6.07702998               -0.05344927
              31.80955757              -12.15414263               81.78834898                0.49195532                2.18166391                2.10915070               -6.70820540               -0.33073926               -6.91063594                0.03679315
              32.83466199              -15.77904144               80.90301884                0.52800800                2.77112702                2.63547522               -8.52004714               -0.32020936               -8.52838042                0.04413199
              33.86498011              -19.39868306               79.99774253                0.57926311                3.23154762                3.14552514              -10.30322279               -0.30588571               -9.02689279                0.84515353
              34.89929294              -23.01580912               79.10587513                0.81131013                3.43128363                3.68555328              -12.08661898               -0.25137115               -8.56338521               -5.47533628
              28.39583221               14.11086892               87.60544766                0.55795517               -1.09891560               -1.69493246                4.75254998               -0.32603648                5.92028728               11.95458685
              29.38484305               10.54101911               86.72480043                0.08884271               -0.51253234               -0.60194684                2.97086603               -0.81110261               13.32952930              -10.94956050
              30.38558156                6.95709871               85.99148147                0.04514460                0.27645220               -0.97448625                1.53063709               -1.98825308               19.70748871              -14.70457021
              31.39037210                3.35619386               85.23867028                0.03740495                0.59445123               -0.66111529               -0.07552538               -2.88002880               19.08941310              -21.76459895
              32.39747059               -0.25874104               84.49415773                0.03965314                0.81463841               -0.16269287               -1.75049799               -3.39514939               19.50417736              -29.61615689
              33.40666487               -3.88221432               83.75121670                0.04447133                1.04729589                0.40443951               -3.47742876               -3.48902457               19.43168710              -38.29982225
              34.41841651               -7.50858082               83.00676929                0.05299472                1.34758795                0.95955920               -5.25766237               -3.17309815               19.04573071              -47.95394808
              35.43361663              -11.13305112               82.25733056                0.06604595                1.76568026                1.44814313               -7.07496221               -2.49446912               18.24932949              -58.78120218
              36.45373011              -14.75268668               81.49792484                0.08584111                2.33442325                1.84174533               -8.87728124               -1.54606169               17.15404982              -71.03121065
              37.48030509              -18.36722781               80.72753251                0.11089353                3.00875909                2.19364019              -10.64337351               -0.43084264               13.72131613              -85.04419389
              38.51390529              -21.97895359               79.90060227                0.54510773                3.36002022                2.51860843              -12.34057873                0.84068360               10.83036419             -104.15546298
              31.95670475               15.09296889               87.34625874                0.51199177               -1.00548895               -1.64094842                4.33031761               -0.08840784               -0.39684234               15.28796954
              32.94664986               11.53819326               86.27123066                0.02828181               -0.95954964               -0.24752194                2.16464326               -1.97001401               16.46372362              -14.00647950
              33.93751376                7.94281821               85.53269255                0.00010000               -0.36867615               -0.81093620                0.45514227               -4.66051308               32.19360013              -28.53477828
              34.93927634                4.34301826               84.77196054                0.00010000                0.48146726               -0.73740150               -1.37527746               -5.62212874               30.25531134              -42.63386061
              35.94714311                0.73288513               83.99657827                0.00010000                1.03630276               -0.29462226               -3.33912234               -6.42161901               28.58373049              -58.20473755
              36.96000240               -2.88451316               83.20555470                0.00010000                1.56302208                0.27862489               -5.42862966               -6.58467826               26.54883956              -75.32671057
              37.97840355               -6.50511735               82.39292704                0.00010000                2.18858260                0.83815741               -7.62333681               -6.07297321               23.88440078              -94.34486221
              39.00377405              -10.12517977               81.55168255                0.00010000                2.97569461                1.28801067               -9.88444108               -4.94772535               20.49455124             -115.63772518
              40.03791744              -13.74220653               80.67343442                0.00010000                3.94280532                1.60356397              -12.16182270               -3.33422416               15.93815397             -139.58411632
              41.08263015              -17.35481025               79.74203275                0.00010000                5.08203671                1.86017129              -14.39352194               -1.52321134                8.99819654             -166.88035113
              42.13955817              -20.96543695               78.72466316                0.46074611                5.69280194                2.38976371              -16.54611848                0.15759102                4.77213178             -195.91252073
              35.50361531               16.07804995               87.06078353                0.50347177               -0.80218559               -1.38017485                3.84846886               -0.10170254                0.08428511               14.47244297
              36.49559345               12.53606868               85.85793938                0.01769083               -0.80345052               -0.15897236                1.43849550               -2.56886731               21.97167545              -11.96665608
              37.48754630                8.94087999               85.09232884                0.00010000               -0.38654276                0.12391439               -0.56819267               -5.18419147               43.16019184              -26.76219197
              38.48786260                5.34144583               84.31387707                0.00010000                0.45116651                0.32360565               -2.66548091               -5.65975304               41.19792518              -41.06190804
              39.49656963                1.73536651               83.51197124                0.00010000                1.25555918                0.73989093               -4.91850088               -6.10685013               38.24138037              -56.01510183
              40.51297378               -1.87664183               82.67888794                0.00010000                2.05270090                1.27500691               -7.34098267               -6.17324888               34.42734676              -72.31103694
              41.53762365               -5.49181767               81.80562846                0.00010000                2.93887584                1.82969786               -9.91251910               -5.73963370               29.69433450              -90.36622820
              42.57175130               -9.10729091               80.88215920                0.00010000                3.95262333                2.33680746              -12.58318985               -4.84486315               23.96169070             -110.53770190
              43.61667611              -12.72061540               79.89700157                0.00010000                5.06599920                2.78998283              -15.27701623               -3.59896924               17.05555967             -133.09942910
              44.67307128              -16.33002438               78.83611966                0.00010000                6.08171955                3.27253926              -17.90320627               -2.01533506                8.93555665             -157.87679926
              45.73831051              -19.93115831               77.68717837                0.46118392                6.52392220                4.17450810              -20.35387153               -0.75130833                4.67425212             -183.70184120
              39.03863326               17.06536539               86.78296797                0.50236777               -0.61907726               -1.18100437                3.41023986               -0.10304797                0.06978502               15.11582591
              40.03244248               13.53501381               85.44589935                0.01552526               -0.50902391               -0.02071861                0.67187540               -2.88685599               28.09991458              -11.83119264
              41.02845278                9.94529650               84.66911322                0.00010000               -0.04238663                0.66894353               -1.58253102               -5.66397213               55.27108873              -25.13877945
              42.03159475                6.34949038               83.87767433                0.00010000                0.73204888                1.15318496               -3.93645303               -5.86939664               52.82525559              -38.46264262
              43.04309376                2.74768295               83.05650262                0.00010000                1.60634258                1.64079549               -6.46081821               -6.02426154               48.84519770              -52.33172657
              44.06372160               -0.85901302               82.19147636                0.00010000                2.55831000                2.20159021               -9.18402050               -5.92847848               43.47797468              -67.35988446
              45.09425996               -4.46852339               81.26924741                0.00010000                3.59764576                2.80910222              -12.08825627               -5.49405232               36.83880374              -84.03592210
              46.13567452               -8.07844362               80.27670361                0.00010000                4.72057846                3.42993379              -15.11434045               -4.72704291               29.00671785             -102.73792801
              47.18867153              -11.68640687               79.20100235                0.00010000                5.85959203                4.05960545              -18.16882909               -3.64167648               20.08588763             -123.69644745
              48.25286636              -15.28935947               78.03049845                0.00010000                6.90641719                4.76544138              -21.13305491               -2.13706064               10.28774817             -146.88841926
              49.32679987              -18.88194679               76.75664474                0.46147008                7.39335104                5.56936788              -23.88031927               -0.79883188                5.31734858             -172.17665818
              42.56225751               18.05442987               86.50834807                0.50048545               -0.43322780               -1.01312820                2.98064054               -0.09336416                0.09480716               15.42466666
              43.55792523               14.53565430               85.03616226                0.01413891               -0.12336067                0.16156603               -0.10964915               -3.03930293               35.00979679              -11.72824722
              44.55979029               10.95425886               84.26214217                0.00010000                0.50814905                1.09003496               -2.60097427               -5.91972626               68.88866264              -23.40408983
              45.56808821                7.36450953               83.47183371                0.00010000                1.23987508                1.76405206               -5.18190221               -6.05086815               65.91762095              -35.04046017
              46.58458780                3.76818242               82.64495108                0.00010000                2.12611725                2.36244116               -7.94401444               -6.00265515               60.91485332              -47.23511544
              47.61061056                0.16738998               81.76248767                0.00010000                3.12927004                3.00118891              -10.92562711               -5.72794251               54.07815741              -60.53552684
              48.64717320               -3.43563563               80.80673069                0.00010000                4.22416834                3.70871110              -14.11252962               -5.21210406               45.60489501              -75.43219318
              49.69509392               -7.03869223               79.76115358                0.00010000                5.37926194                4.46936927              -17.44027387               -4.45736872               35.68800330              -92.35217805
              50.75475844              -10.63942330               78.61069867                0.00010000                6.53880311                5.26650046              -20.80279944               -3.42931371               24.55641280             -111.65405170
              51.82586998              -14.23471555               77.34278104                0.00010000                7.63750354                6.07564176              -24.06731885               -1.98842676               12.52433751             -133.61385326
              52.90750851              -17.81977095               75.94881174                0.46198775                8.16385218                6.81299714              -27.09651123               -0.74780430                6.46425013             -158.42345069
              46.07431710               19.04510283               86.23520291                0.49959496               -0.24896631               -0.86241785                2.57140996               -0.09117083                0.12812563               15.52805170
              47.07182744               15.53824513               84.62697329                0.01382843                0.34429662                0.37041180               -0.91495092               -3.11906974               42.93027308              -11.79326517
              48.08120303               11.96709720               83.87484407                0.00010000                1.24131934                1.44456948               -3.61214683               -6.04275756               84.49874251              -21.28105625
              49.09665382                8.38477142               83.10482871                0.00010000                1.94785858                2.19906971               -6.38595139               -6.13510307               80.96950113              -30.70616887
              50.12016020                4.79493177               82.29127085                0.00010000                2.81634912                2.87719198               -9.34137438               -5.90103374               74.91457784              -40.71551961
              51.15298080                1.20101076               81.41048199                0.00010000                3.79699425                3.62121618              -12.53194023               -5.42143479               66.60417035              -51.84104917
              52.19610009               -2.39434917               80.44056166                0.00010000                4.86670047                4.46161817              -15.94851664               -4.77977861               56.27921365              -64.54128742
              53.25031481               -5.98905623               79.36097830                0.00010000                6.00042420                5.37233678              -19.52392605               -3.99023343               44.14894141              -79.29685849
              54.31610857               -9.58107686               78.15272103                0.00010000                7.15653342                6.31206189              -23.14445473               -3.00471752               30.45888923              -96.65546062
              55.39344548              -13.16784663               76.79956032                0.00010000                8.29230075                7.21122698              -26.66850400               -1.70868236               15.57334328             -117.19666660
              56.48195459              -16.74568684               75.29010330                0.46271248                8.85091042                7.94253056              -29.95367289               -0.62737676                8.04389562             -141.41937638
              49.57414948               20.03718151               85.96167753                0.49682241               -0.06000118               -0.73455956                2.13682893               -0.10128297                0.16092699               15.40747805
              50.57354947               16.54306254               84.21662719                0.01449774                0.91296904                0.60764110               -1.72078490               -3.20034366               52.14374186              -12.00958819
              51.59240886               12.98315025               83.51147304                0.00010000                2.20010514                1.69670210               -4.60388731               -6.08620375              102.62833495              -18.63025415
              52.61755157                9.40849092               82.78624002                0.00010000                2.89594606                2.40405537               -7.52049609               -6.07323812               98.42875690              -25.26417099
              53.65032778                5.82572626               82.00966966                0.00010000                3.69556169                3.14000247              -10.61614138               -5.54838173               91.22717687              -32.68623311
              54.69146280                2.23981430               81.15388447                0.00010000                4.56584159                4.03312306              -13.96163219               -4.84574607               81.41494525              -41.26178505
              55.74164461               -1.34640326               80.19342625                0.00010000                5.52770721                5.03234212              -17.55348092               -4.09584841               69.23120311              -51.32936169
              56.80201695               -4.93124550               79.10329597                0.00010000                6.59049367                6.09384119              -21.32279465               -3.30079971               54.75911021              -63.37859883
              57.87345449               -8.51318206               77.85841817                0.00010000                7.71446849                7.16629953              -25.15027850               -2.40284252               38.10645848              -78.15925301
              58.95630632              -12.09049101               76.43543156                0.00010000                8.85934541                8.16651601              -28.88815960               -1.32466823               19.61578305              -96.72202330
              60.05064139              -15.66092034               74.81661146                0.46326043                9.43350766                8.94203297              -32.39068866               -0.46083088               10.15664900             -120.07484905
              53.06052938               21.03041164               85.68555715                0.49528382                0.13224472               -0.60814976                1.70685341               -0.09910562                0.25009033               15.22358097
              54.06185182               17.55039796               83.80376801                0.01676640                1.67605983                0.85727444               -2.55523611               -3.37208088               63.01885603              -12.55543306
              55.09405057               14.00103124               83.17778289                0.00010000                3.53806090                1.65988649               -5.55027860               -6.09333013              123.87341417              -14.94181393
              56.13261304               10.43285252               82.52765575                0.00010000                4.19093065                2.19856043               -8.54221401               -5.54370496              118.67847441              -18.38324779
              57.17786919                6.85773182               81.81495609                0.00010000                4.77911838                3.15304346              -11.71807118               -4.65072360              110.09310416              -23.08233783
              58.22819541                3.28167322               81.01077606                0.00010000                5.36868660                4.25601374              -15.16331996               -3.80405563               98.82342575              -28.86587360
              59.28524292               -0.29370233               80.08788293                0.00010000                6.14411023                5.43041205              -18.87714419               -3.07643283               84.93799396              -35.87687047
              60.35107761               -3.86717941               79.01700610                0.00010000                7.10271588                6.63081053              -22.78699005               -2.38088094               68.19673525              -44.53050406
              61.42729724               -7.43775087               77.76499372                0.00010000                8.18063940                7.81662457              -26.76828173               -1.65245285               48.25083809              -55.63741125
              62.51469040              -11.00451631               76.29524802                0.00010000                9.31496960                8.92169393              -30.66905105               -0.86013456               25.17282427              -70.85213515
              63.61359663              -14.56684619               74.57675293                0.46356488                9.89062261                9.79691623              -34.34052427               -0.25770638               13.12670762              -92.78065697
              56.53219473               22.02501851               85.40830538                0.48962041                0.32935204               -0.45824425                1.25271333               -0.10863845               -0.31724817               13.12599192
              57.53548825               18.56020803               83.38305127                0.01704815                2.79464803                1.09818364               -3.41370893               -3.84942637               76.13927161              -11.60412585
              58.58808769               15.01634798               82.88754747                0.00010000                5.72443178                0.56396915               -6.39945101               -4.86535790              149.19468547               -8.76789534
              59.64997688               11.45246213               82.34422176                0.00010000                6.02024634                1.73640303               -9.38500660               -3.79498355              141.61014728               -9.82493227
              60.70849262                7.88878713               81.72169297                0.00010000                5.84194791                3.03964343              -12.58241362               -2.77374349              131.47161251              -12.02512272
              61.76681584                4.32493458               80.99757371                0.00010000                6.02379832                4.38012913              -16.07809376               -2.15960400              119.05662232              -14.92011638
              62.82896858                0.76220498               80.14451756                0.00010000                6.58160166                5.71003250              -19.86499648               -1.68387218              103.93200568              -18.52469249
              63.89844788               -2.79862929               79.13020272                0.00010000                7.43868761                7.01552181              -23.86294003               -1.25695961               85.48410575              -23.08028856
              64.97774233               -6.35684957               77.91415083                0.00010000                8.48755316                8.27548992              -27.94043430               -0.82069171               62.53940048              -29.14676993
              66.06819894               -9.91205713               76.44042558                0.00010000                9.62023390                9.44930734              -31.94381967               -0.38682865               33.59022813              -38.06925863
              67.17014701              -13.46498202               74.63929598                0.46413655               10.19480736               10.46777088              -35.73036405               -0.06534783               17.68891657              -54.99615402
              59.98797758               23.02124675               85.09067165                0.74383883                0.55562561               -0.37717620                0.67356906                0.68977268                5.87920576               11.06359231
              60.99353383               19.57236163               82.98970044                0.46401414                5.82558679                1.21536001               -4.21100449               -4.64224801               95.09804218              -10.25822792
              62.10448931               16.01231062               82.67393954                0.44083175                9.53701903               -0.40373557               -7.03462566               -3.59888969              177.12175824               -4.39267549
              63.18427421               12.46758058               82.25075385                0.43825187                7.27162780                1.51184545               -9.95859280               -1.25956336              165.97777598               -4.88519276
              64.24992187                8.91852469               81.74182824                0.43746765                6.36556350                2.97375598              -13.13907212               -0.77231378              155.15326346               -5.93175159
              65.31158548                5.36927580               81.12675621                0.43811260                6.26037344                4.43412233              -16.64881447               -0.42435427              142.24302830               -7.38280172
              66.37512934                1.82049832               80.37888645                0.44008885                6.67037409                5.82933451              -20.46767268               -0.19116294              126.67113916               -9.20068338
              67.44499297               -1.72686897               79.46506477                0.44386627                7.45909553                7.17603149              -24.50264617                0.01753920              107.63652739              -11.52341892
              68.52431125               -5.27224107               78.34183156                0.44987458                8.50466570                8.46084916              -28.61144122                0.22383180               83.64619125              -14.70076347
              69.61508628               -8.81553017               76.94622372                0.45780651                9.69140949                9.65269680              -32.63446659                0.42624952               50.10446647              -19.47116362
              70.71813944              -12.35749077               75.14408932                0.73219576               10.30531588               10.74912500              -36.45277101                0.60318251               30.35498813              -32.28020263
              25.64151618               13.55420574               89.00887667                0.79399495               -1.37722589               -1.52699572                5.22249066               -0.41496893               -6.95962347                7.41713746
              26.62774392                9.84637242               88.11298013                0.52180772               -1.46960713               -0.88382083                3.49431440               -0.62506488               -9.09127320               -6.00380596
              27.61212403                6.12788552               87.17301442                0.46700954               -1.30117203               -0.50002159                1.90534466               -0.37980846               -8.82875435                0.13683523
              28.60172048                2.39288191               86.27985718                0.45323537               -0.70399612               -0.00824656                0.34489516               -0.37126525               -6.18106102               -0.31898943
              29.59804411               -1.35449000               85.39045999                0.45064736               -0.00606810                0.48899127               -1.25448441               -0.35723990               -5.75651233               -0.19976775
              30.60159911               -5.10918110               84.50413306                0.45509557                0.71624636                0.99744218               -2.88295250               -0.34655432               -5.63739360               -0.13803482
              31.61236904               -8.86608870               83.61657816                0.46680612                1.41751851                1.50658821               -4.53852673               -0.33889857               -6.01251211               -0.06497676
              32.62994949              -12.62112675               82.72348965                0.48686110                2.06040489                2.01567853               -6.22522215               -0.32694399               -6.88518529                0.00877847
              33.65357714              -16.37194955               81.82052634                0.51786136                2.60191546                2.51920478               -7.92568176               -0.31554720               -8.51844770                0.01745138
              34.68198779              -20.11864085               80.89796699                0.56172180                3.02426836                3.01138353               -9.60933326               -0.30390431               -9.04640823                0.79336224
              35.71406250              -23.86423519               79.98854856                0.79960810                3.20747092                3.53401511              -11.32026637               -0.15884222               -8.62893030               -5.48061847
              29.34519981               14.53893578               88.65201518                0.54760673               -1.05464267               -1.59557482                4.54731937               -0.29785993                6.03489946               12.17589094
              30.33465338               10.83753421               87.75388835                0.08587191               -0.50643009               -0.59469680                2.83816730               -0.75503658               13.61344407              -11.08331565
              31.33507120                7.12288530               87.00638386                0.04556537                0.22711026               -0.91632524                1.44471905               -1.85127915               20.04072753              -14.96239333
              32.33919558                3.39279944               86.23772604                0.03797155                0.52160061               -0.58352892               -0.11517466               -2.68510900               19.27674250              -22.17114809
              33.34550322               -0.34960009               85.47662806                0.03998955                0.73686674               -0.08355122               -1.75652398               -3.17446677               19.61710780              -30.17876692
              34.35393292               -4.09920668               84.71656615                0.04424275                0.97248301                0.46709100               -3.45106523               -3.27944766               19.48913666              -39.04613553
              35.36495288               -7.85102282               83.95461427                0.05174328                1.28387759                0.98698688               -5.18342607               -3.00182113               19.04212035              -48.91929955
              36.37961047              -11.60096996               83.18716231                0.06314024                1.71129181                1.42937186               -6.94937532               -2.37234523               18.21441451              -59.98924386
              37.39917871              -15.34675750               82.40994403                0.08036970                2.27405496                1.77480450               -8.70622877               -1.46345534               17.13256227              -72.49990505
              38.42509157              -19.08852701               81.62205946                0.10150155                2.94448570                2.07105770              -10.44058060               -0.36177759               13.74713264              -86.78024754
              39.45806843              -22.82889504               80.77838368                0.53322605                3.29768563                2.30954102              -12.09004807                1.01052147               10.89272151             -106.11904384
              33.03836212               15.52229424               88.38872971                0.50556495               -0.96684521               -1.51259894                4.15513020               -0.07751136               -0.44963692               15.66228032
              34.02869367               11.83447848               87.29241974                0.02710297               -0.92644499               -0.28325352                2.07135451               -1.79218168               16.65177690              -14.18982803
              35.01983322                8.10955901               86.53732380                0.00010000               -0.40949887               -0.76773628                0.48361709               -4.25236030               32.57810119              -29.02023621
              36.02050369                4.38121133               85.75861293                0.00010000                0.33638393               -0.63102142               -1.27001036               -5.14622148               30.46509537              -43.39817601
              37.02656090                0.64383897               84.96372739                0.00010000                0.84645995               -0.15748342               -3.20281645               -5.92045613               28.59399384              -59.27650614
              38.03743289               -3.09983928               84.15176692                0.00010000                1.37675017                0.41564556               -5.30436202               -6.11918266               26.37030288              -76.76158283
              39.05409590               -6.84634896               83.31697739                0.00010000                2.04021896                0.94994359               -7.54832857               -5.68534435               23.56019045              -96.21026116
              40.07823727              -10.59253931               82.45282741                0.00010000                2.88845881                1.35593246               -9.88511597               -4.65985479               20.09228138             -117.98310940
              41.11186508              -14.33645346               81.55147224                0.00010000                3.93262555                1.61216665              -12.24638335               -3.13776373               15.54881270             -142.45796101
              42.15688978              -18.07721969               80.59752977                0.00010000                5.15719580                1.78360500              -14.53988170               -1.41082481                8.72829582             -170.29271659
              43.21500899              -21.81804437               79.55872328                0.45688190                5.81192146                2.18991250              -16.68849432                0.29464677                4.67299947             -199.89696140
              36.71928110               16.50868380               88.09860449                0.49814916               -0.77361203               -1.25959393                3.70856112               -0.09943888                0.07004284               14.87545306
              37.71154498               12.83186914               86.87203076                0.01719420               -0.79949726               -0.20701441                1.37353550               -2.29239082               22.18080481              -12.16030721
              38.70329115                9.10753057               86.08706352                0.00010000               -0.47768903                0.09084705               -0.45716298               -4.62866195               43.55938307              -27.23510214
              39.70199120                5.38017901               85.28804426                0.00010000                0.24267765                0.34089754               -2.45451908               -5.05837378               41.41728186              -41.81049150
              40.70814470                1.64725024               84.46368495                0.00010000                0.98730023                0.79972896               -4.68663639               -5.49469995               38.20260488              -57.06058472
              41.72173720               -2.09089377               83.60613702                0.00010000                1.79006581                1.36055684               -7.16384096               -5.59519348               34.12507322              -73.69657440
              42.74394602               -5.83202395               82.70666107                0.00010000                2.73903376                1.92387081               -9.85436471               -5.23531408               29.17954534              -92.14613089
              43.77651787               -9.57385131               81.75581011                0.00010000                3.85788992                2.42215578              -12.68756942               -4.43766066               23.33566741             -112.76902491
              44.82110382              -13.31451417               80.74301106                0.00010000                5.09740539                2.84625034              -15.55593837               -3.30453536               16.46251078             -135.82626153
              45.87846598              -17.05285491               79.65533215                0.00010000                6.22534510                3.27619841              -18.32281726               -1.85526697                8.55798979             -161.13536607
              46.94561072              -20.78509679               78.48177539                0.45744193                6.71447379                4.11127011              -20.81881087               -0.63530177                4.52078402             -187.50599612
              40.39000266               17.49710236               87.81662648                0.49759724               -0.60035873               -1.07737114                3.31536051               -0.10017190                0.05265577               15.57172863
              41.38399908               13.83033819               86.45242449                0.01542689               -0.55262795               -0.07080891                0.62919155               -2.53606969               28.35837507              -12.07134398
              42.37895010               10.11137595               85.65393965                0.00010000               -0.21912644                0.60372366               -1.41493901               -4.96902105               55.75166282              -25.64379895
              43.37961655                6.38802928               84.83939888                0.00010000                0.43947873                1.11762732               -3.65591457               -5.13061477               53.09266031              -39.21946412
              44.38773968                2.65983355               83.99299907                0.00010000                1.25933282                1.65191121               -6.17073205               -5.28941838               48.81189380              -53.35480261
              45.40480320               -1.07262814               83.10034332                0.00010000                2.23037428                2.25593217               -8.98390943               -5.24165857               43.12869151              -68.68356033
              46.43234716               -4.80787155               82.14832879                0.00010000                3.35855373                2.89483889              -12.06241873               -4.89187636               36.23227484              -85.70891926
              47.47197428               -8.54409620               81.12455949                0.00010000                4.62154003                3.53258239              -15.31967633               -4.23659602               28.26789473             -104.81430640
              48.52477797              -12.27952846               80.01731091                0.00010000                5.91963891                4.16516520              -18.62074597               -3.28579557               19.39451214             -126.22982155
              49.59036706              -16.01169572               78.81637142                0.00010000                7.10043755                4.86352491              -21.79020108               -1.94577024                9.85392163             -149.92714551
              50.66678672              -19.73581897               77.51475793                0.45781665                7.64196595                5.65100950              -24.63145813               -0.67134382                5.13717975             -175.76825066
              44.05080599               18.48713638               87.53794001                0.49657211               -0.42560020               -0.93599480                2.93573265               -0.10883652                0.09290922               15.92011373
              45.04654999               14.83045296               86.03500514                0.01428313               -0.22931752                0.11516795               -0.13083211               -2.64227949               35.34428709              -12.00453435
              46.04621964               11.11960505               85.23691867                0.00010000                0.21856547                1.01827019               -2.39767273               -5.12351038               69.49255597              -23.94747376
              47.05092130                7.40253156               84.42124029                0.00010000                0.83970584                1.71589112               -4.86323010               -5.20465642               66.28433694              -35.81161935
              48.06301376                3.68028846               83.56667909                0.00010000                1.68439116                2.36420028               -7.63002175               -5.17223334               60.94127308              -48.23124306
              49.08460912               -0.04577512               82.65385857                0.00010000                2.72813921                3.05609397              -10.73316758               -4.96605994               53.74559375              -61.78078690
              50.11757654               -3.77412717               81.66528651                0.00010000                3.94168694                3.80961613              -14.14070600               -4.55524304               44.97811149              -76.96969199
              51.16344286               -7.50319967               80.58522711                0.00010000                5.27054450                4.60702157              -17.75572463               -3.92973255               34.90841098              -94.23556132
              52.22298743              -11.23121087               79.39989858                0.00010000                6.61991136                5.43459790              -21.42385276               -3.05073095               23.82418333             -113.94077545
              53.29584109              -14.95558441               78.09832252                0.00010000                7.87214498                6.27381820              -24.94837744               -1.78501043               12.06728604             -136.36275433
              54.38043033              -18.67207660               76.67360579                0.45816599                8.45892438                7.04633460              -28.11601296               -0.61710117                6.27355057             -161.69586008
              47.70119277               19.47838247               87.26099310                0.49551096               -0.25079500               -0.82374600                2.57421294               -0.10874012                0.10748459               16.03283471
              48.69868482               15.83264155               85.61781097                0.01410270                0.16042653                0.33594503               -0.91476026               -2.69025032               43.35335319              -12.09232348
              49.70440130               12.13174136               84.83957818                0.00010000                0.80775926                1.38804207               -3.39116918               -5.18467538               85.27062838              -21.85142797
              50.71484000                8.42234710               84.04221307                0.00010000                1.41001993                2.18037043               -6.05635780               -5.22477894               81.47870486              -31.47545233
              51.73260170                4.70711756               83.19895562                0.00010000                2.25288174                2.91620628               -9.03475598               -5.02670088               75.04656559              -41.65980956
              52.75989764                0.98849374               82.28558175                0.00010000                3.30325745                3.71785354              -12.37717017               -4.64311209               66.33388134              -52.97472603
              53.79866685               -2.73167922               81.28036797                0.00010000                4.52828444                4.61007944              -16.05546976               -4.12837369               55.67665886              -65.90262613
              54.85046333               -6.45195576               80.16361804                0.00010000                5.87406233                5.56848345              -19.96619780               -3.48151081               43.36834700              -80.93743446
              55.91614809              -10.17083650               78.91769882                0.00010000                7.25346271                6.55613033              -23.94181327               -2.64854165               29.71625875              -98.63284810
              56.99553258              -13.88621936               77.52810315                0.00010000                8.56404882                7.51208390              -27.77073145               -1.52004523               15.10969923             -119.57049458
              58.08742907              -17.59489228               75.98520886                0.45884563                9.18964880                8.32209074              -31.22922841               -0.50368613                7.85182280             -144.25227576
              51.34011302               20.47066146               86.98329218                0.49314742               -0.07269218               -0.71983134                2.19560375               -0.10319018                0.16932613               15.90238352
              52.33938610               16.83717186               85.19951277                0.01481099                0.63537843                0.57595826               -1.70635415               -2.73876521               52.68395397              -12.32473438
              53.35282059               13.14736589               84.46629126                0.00010000                1.58317133                1.68777801               -4.37757638               -5.19629280              103.59711057              -19.20549520
              54.37104952                9.44613897               83.71220166                0.00010000                2.17562617                2.46645700               -7.20253726               -5.14997152               99.11933074              -25.99006526
              55.39633311                5.73861259               82.90442222                0.00010000                2.97470700                3.26770611              -10.34327899               -4.70665757               91.49573716              -33.52781595
              56.43054366                2.02858195               82.01436107                0.00010000                3.95627305                4.21176195              -13.87164963               -4.13047634               81.23061231              -42.22872270
              57.47545857               -1.68192558               81.01668178                0.00010000                5.12131292                5.25929998              -17.76437569               -3.52169269               68.67109566              -52.45639136
              58.53296992               -5.39183000               79.88725384                0.00010000                6.44108130                6.37061811              -21.91287004               -2.87102016               53.99097017              -64.71312782
              59.60428020               -9.10008826               78.60246111                0.00010000                7.82630219                7.49797567              -26.13839536               -2.11596437               37.36181689              -79.75429188
              60.68949596              -12.80534273               77.14075743                0.00010000                9.17111248                8.56681156              -30.21642343               -1.17903083               19.14902098              -98.63113712
              61.78770245              -16.50563479               75.48625012                0.45942711                9.82064815                9.44529535              -33.91369951               -0.35618160                9.96508625             -122.35039533
              54.96610816               21.46398584               86.70310684                0.49153591                0.10969260               -0.61679384                1.80681032               -0.11055862                0.24933834               15.71456442
              55.96720508               17.84416072               84.77838995                0.01702506                1.27000891                0.82868308               -2.51521041               -2.86784977               63.69703628              -12.90336860
              56.99150834               14.16549692               84.12310714                0.00010000                2.66943944                1.75951293               -5.32874709               -5.17932508              125.09374227              -15.47095433
              58.02059387               10.47167624               83.44325714                0.00010000                3.22586162                2.41464209               -8.25020143               -4.70623319              119.58102858              -18.99027331
              59.05602557                6.77247168               82.69842480                0.00010000                3.86162042                3.40859378              -11.49708844               -3.95425162              110.50713116              -23.74096803
              60.09782628                3.07272897               81.85881585                0.00010000                4.63096839                4.54270126              -15.15901608               -3.24937093               98.72211781              -29.59028460
              61.14864494               -0.62649322               80.89729751                0.00010000                5.66896621                5.75483619              -19.21464234               -2.65195873               84.41245514              -36.69689277
              62.21120560               -4.32454340               79.78552091                0.00010000                6.93483033                7.00232971              -23.54799437               -2.08183601               67.43200723              -45.48546379
              63.28734154               -8.02087698               78.49187617                0.00010000                8.31464421                8.24357252              -27.96852518               -1.47083237               47.49546658              -56.77080998
              64.37749849              -11.71488313               76.98166564                0.00010000                9.67739985                9.41557501              -32.23801646               -0.77853469               24.69612245              -72.20685703
              65.48088954              -15.40598637               75.22577816                0.45970177               10.33910507               10.38932666              -36.11073553               -0.18090711               12.93230279              -94.39354330
              58.57755209               22.45832558               86.42155523                0.48553674                0.29659365               -0.49769026                1.40500769               -0.11376660               -0.32798723               13.53227443
              59.58051802               18.85374552               84.34917101                0.01708878                2.20832364                1.07726188               -3.35480092               -3.24391221               77.01479971              -11.92964791
              60.62171856               15.18255615               83.82434707                0.00010000                4.47160363                0.94469620               -6.18181503               -4.11997302              150.73949422               -9.13578517
              61.66995010               11.49443181               83.25124836                0.00010000                4.72383925                2.12806468               -9.11936011               -3.23603952              142.72443524              -10.19048595
              62.71619535                7.80678446               82.59622920                0.00010000                4.72855248                3.42543726              -12.41809147               -2.37718538              132.00280156              -12.40020632
              63.76452115                4.11943597               81.83599275                0.00010000                5.17482138                4.77235179              -16.17046355               -1.85909689              119.00179109              -15.31674083
              64.81969177                0.43317114               80.94336571                0.00010000                6.05979072                6.12984749              -20.34656931               -1.46518008              103.40715562              -18.96203047
              65.88571696               -3.25178340               79.88704366                0.00010000                7.27557512                7.48078639              -24.81850546               -1.11502021               84.69692302              -23.58226457
              66.96520328               -6.93521681               78.62818889                0.00010000                8.66588478                8.79777884              -29.38226649               -0.74985031               61.75676003              -29.74020843
              68.05903466              -10.61703123               77.11283733                0.00010000               10.05437561               10.03455299              -33.78564871               -0.36597411               33.09397126              -38.78042493
              69.16629079              -14.29784825               75.27320006                0.46019398               10.72561312               11.12353908              -37.76724149               -0.00944142               17.48719497              -55.84880631
              62.17299294               23.45403203               86.09829565                0.74204449                0.51033317               -0.42935476                0.86748870                0.71147757                6.05637550               11.39267411
              63.17809627               19.86570596               83.94800660                0.46151992                4.77148232                1.19604322               -4.12310468               -3.72423479               96.34419624              -10.54842612
              64.26842259               16.18439084               83.60444492                0.44020653                7.67742453                0.18346924               -6.79760638               -2.90301823              178.96361796               -4.56652719
              65.33164476               12.51423754               83.15199692                0.43826170                5.75275556                1.98057257               -9.69582442               -1.00105412              167.22335182               -5.06528967
              66.38347770                8.84098042               82.61056069                0.43757822                5.13064499                3.41959581              -13.01775393               -0.57484092              155.71747398               -6.11595254
              67.43425766                5.16817601               81.95899181                0.43787084                5.35415048                4.87400388              -16.83639476               -0.27018315              142.15929045               -7.57382465
              68.49056071                1.49610373               81.17096029                0.43965744                6.15177454                6.29325815              -21.10421337               -0.06829068              126.08853711               -9.40261171
              69.55729315               -2.17492767               80.21447931                0.44303589                7.35158293                7.68557284              -25.67569450                0.10636273              106.79238859              -11.74419706
              70.63759237               -5.84492141               79.04786004                0.44771111                8.77586467                9.02954029              -30.33106088                0.27568949               82.82967831              -14.95155665
              71.73281045               -9.51419207               77.61019735                0.45462673               10.23711902               10.28391656              -34.80624234                0.44787013               49.60254190              -19.76462106
              72.84233475              -13.18351559               75.76918825                0.73032287               10.95242995               11.43326641              -38.83122772                0.67204401               30.16847057              -32.63523025
              26.47612649               13.98893326               90.05984775                0.78727484               -1.29879928               -1.43995597                4.95109833               -0.39362734               -7.01488980                7.46582563
              27.46313849               10.14833962               89.14706338                0.51415181               -1.35625334               -0.84264390                3.31016432               -0.57090042               -9.05776256               -6.06728017
              28.44900142                6.29830574               88.19176638                0.46460331               -1.15840611               -0.47642840                1.84051559               -0.35512747               -8.65729812                0.15702496
              29.43997037                2.43412307               87.28351848                0.45277264               -0.58848150               -0.01079106                0.39238846               -0.35567473               -5.97765000               -0.31560416
              30.43723179               -1.44019251               86.37869854                0.45081663                0.05533498                0.46087285               -1.08292300               -0.34350967               -5.56211527               -0.20407318
              31.44107707               -5.32022882               85.47668474                0.45437710                0.70950448                0.94579238               -2.58135472               -0.33595761               -5.46639620               -0.14332519
              32.45142188               -9.20168030               84.57316431                0.46439735                1.34143022                1.43142578               -4.11088083               -0.33009011               -5.87812611               -0.07726942
              33.46790568              -13.08131237               83.66384454                0.48118972                1.91969080                1.91386076               -5.66949767               -0.32542763               -6.78753109               -0.01110977
              34.48981570              -16.95752780               82.74450521                0.50762258                2.40620220                2.38971173               -7.24700049               -0.31756874               -8.44922279               -0.01334447
              35.51602972              -20.83100076               81.80555586                0.54458904                2.78677493                2.86052221               -8.82348322               -0.30035853               -9.01883730                0.74265884
              36.54555119              -24.70509173               80.87946980                0.78844031                2.95214743                3.35825468              -10.43523002               -0.05308785               -8.65097030               -5.46005222
              30.31278386               14.97453371               89.69639405                0.53742872               -1.00406029               -1.46540367                4.31293694               -0.25177938                6.13301526               12.38101410
              31.30274325               11.13991319               88.78156378                0.08263025               -0.51127147               -0.60426629                2.68543233               -0.65197180               13.86592663              -11.19710236
              32.30255843                7.29354146               88.02037585                0.04577044                0.14597492               -0.82859555                1.34752650               -1.60084244               20.31850100              -15.14679817
              33.30566275                3.43401515               87.23636679                0.03829651                0.42071062               -0.46932685               -0.16698323               -2.34604753               19.38693011              -22.44855779
              34.31097264               -0.43558378               86.45902725                0.04005379                0.63993202                0.02453135               -1.76272431               -2.80744295               19.62494858              -30.57342558
              35.31846139               -4.31077090               85.68219539                0.04370535                0.88450583                0.54565660               -3.41897379               -2.93504363               19.43401772              -39.61030648
              36.32866275               -8.18736604               84.90310077                0.05017468                1.20568801                1.01554656               -5.10646569               -2.71389403               18.95633776              -49.71269612
              37.34257515              -12.06217376               84.11834305                0.05995280                1.64107232                1.39113070               -6.81974162               -2.15227470               18.11672004              -61.06222907
              38.36148420              -15.93363068               83.32380027                0.07466950                2.21164734                1.65475111               -8.52591500               -1.29230617               17.04026370              -73.87699861
              39.38680810              -19.80239553               82.51872090                0.09211144                2.88135427                1.85317412              -10.21962010               -0.19815932               13.71336489              -88.45005209
              40.41911129              -23.67150918               81.65880131                0.52166102                3.23031880                1.91619166              -11.81413557                1.34263290               10.90291851             -108.01165253
              34.14033194               15.95962519               89.42936135                0.49940889               -0.92406341               -1.34357299                3.95899727               -0.06810066               -0.51137179               16.04873513
              35.13109131               12.13625430               88.31265775                0.02595079               -0.87246690               -0.35277013                1.97090850               -1.49420474               16.85704721              -14.37854962
              36.12288260                8.28173383               87.54236489                0.00010000               -0.44583232               -0.69896822                0.54505301               -3.56778674               33.00070914              -29.34189351
              37.12217466                4.42473653               86.74656033                0.00010000                0.14931914               -0.47825557               -1.10438260               -4.37558309               30.65894926              -43.89392945
              38.12586898                0.56029812               85.93252194                0.00010000                0.59919002                0.02334617               -2.99807098               -5.12479472               28.52935291              -60.01253994
              39.13415846               -3.30931569               85.09946746                0.00010000                1.13389406                0.58105966               -5.11830922               -5.38148708               26.06350526              -77.84190022
              40.14854687               -7.18136937               84.24196046                0.00010000                1.84831825                1.06371724               -7.43101831               -5.06476781               23.05930432              -97.74365609
              41.17112482              -11.05348976               83.35398023                0.00010000                2.78222379                1.38851429               -9.87466375               -4.17619556               19.48328803             -120.06527900
              42.20419134              -14.92443278               82.42850675                0.00010000                3.94101028                1.53256854              -12.36103094               -2.77637131               14.95938069             -145.14803357
              43.24994503              -18.79393727               81.45123511                0.00010000                5.32199005                1.54110884              -14.76006628               -1.18382331                8.31783131             -173.59206124
              44.31063114              -22.66676789               80.39089327                0.45354941                6.06861126                1.70981468              -16.93714756                0.55335861                4.51512250             -203.83876090
              37.95816363               16.94766225               89.13495475                0.49285453               -0.74131100               -1.10803731                3.55173590               -0.09252636                0.05153267               15.30400212
              38.95075052               13.13285778               87.88541009                0.01677015               -0.77215836               -0.28208734                1.30063822               -1.84473241               22.45238077              -12.37665730
              39.94272046                9.27956209               87.08318558                0.00010000               -0.55818585                0.04157676               -0.27934053               -3.73893467               44.07217467              -27.57705465
              40.93958680                5.42445004               86.26478669                0.00010000               -0.00957494                0.35842677               -2.13163879               -4.12325332               41.66997091              -42.32523748
              41.94252896                1.56488314               85.41823851                0.00010000                0.64561670                0.86473214               -4.32886520               -4.55407675               38.10541437              -57.81212394
              42.95249913               -2.29914970               84.53561112                0.00010000                1.45062523                1.44549588               -6.87492808               -4.70837946               33.67395708              -74.76588297
              43.97154147               -6.16609170               83.60854116                0.00010000                2.48077580                2.00210720               -9.72412100               -4.45556786               28.44070588              -93.62419452
              45.00211465              -10.03440348               82.62840781                0.00010000                3.74314118                2.46715045              -12.78199637               -3.79810742               22.44149501             -114.74031721
              46.04640429              -13.90297931               81.58588281                0.00010000                5.16760480                2.82709792              -15.90261219               -2.83056933               15.60978001             -138.35775119
              47.10546675              -17.77157336               80.46966331                0.00010000                6.47177033                3.15222635              -18.89130053               -1.58904138                8.01015632             -164.27982555
              48.17583970              -21.63731289               79.27080215                0.45405447                7.03729495                3.88128479              -21.49497158               -0.46698737                4.28948182             -191.28691432
              41.76809034               17.93746445               88.84927518                0.49318477               -0.57935285               -0.95983657                3.21427565               -0.09409937                0.03858991               16.06810960
              42.76229681               14.13061255               87.45848318                0.01541758               -0.57893451               -0.13403198                0.57576249               -1.99086448               28.71800068              -12.34698408
              43.75651165               10.28256537               86.64081444                0.00010000               -0.39541331                0.50543819               -1.15607633               -3.90108408               56.40750539              -26.05225061
              44.75438854                6.43190506               85.80455604                0.00010000                0.09377752                1.05064526               -3.22612241               -4.02724386               53.43452947              -39.78957902
              45.75838720                2.57759276               84.93308798                0.00010000                0.82885833                1.63589349               -5.71452029               -4.20224105               48.73883277              -54.13350799
              46.77096571               -1.28040577               84.01179818                0.00010000                1.81510424                2.28427540               -8.63858265               -4.22520541               42.62839951              -69.73734546
              47.79468928               -5.14132722               83.02799904                0.00010000                3.05422916                2.95115275              -11.94672006               -3.99577822               35.38275517              -87.11626910
              48.83205029               -9.00414675               81.97031008                0.00010000                4.50302754                3.59707332              -15.52017394               -3.50140854               27.23343853             -106.65707709
              49.88474983              -12.86789082               80.82858743                0.00010000                6.02237416                4.21762985              -19.17390902               -2.75017944               18.41876632             -128.58564765
              50.95249778              -16.73089275               79.59469442                0.00010000                7.40103094                4.89354929              -22.66010514               -1.66048157                9.23497140             -152.86542685
              52.03277045              -20.58914220               78.26401558                0.45424806                8.02726761                5.65868984              -25.68869237               -0.49628117                4.87000480             -179.35490255
              45.56998543               18.92846551               88.56706272                0.49228970               -0.41531204               -0.85285508                2.88625746               -0.09180091                0.08857708               16.44519334
              46.56583231               15.13017714               87.03354561                0.01452763               -0.32895807                0.06392402               -0.16195744               -2.03910205               35.80834368              -12.31136833
              47.56340627               11.28967086               86.21418871                0.00010000               -0.09088897                0.90653408               -2.08568403               -3.95061749               70.32070346              -24.42939779
              48.56401453                7.44546295               85.37456910                0.00010000                0.36943553                1.61979676               -4.36958957               -3.98039542               66.75755047              -36.44713974
              49.57079498                3.59760101               84.49235065                0.00010000                1.14502413                2.31998481               -7.12337978               -3.97957552               60.94502091              -49.04023160
              50.58691501               -0.25346420               83.54782432                0.00010000                2.22859509                3.07097540              -10.37499290               -3.86946405               53.26485584              -62.81153566
              51.61536688               -4.10706864               82.52391657                0.00010000                3.58675328                3.87651321              -14.07095328               -3.60450601               44.10030664              -78.29003206
              52.65865008               -7.96246201               81.40603908                0.00010000                5.13899098                4.71575504              -18.07631836               -3.16287353               33.81956523              -95.92321479
              53.71814670              -11.81862671               80.18222161                0.00010000                6.74292082                5.57972293              -22.17848350               -2.50207803               22.79410254             -116.07592713
              54.79350849              -15.67370237               78.84381349                0.00010000                8.21331376                6.46006538              -26.09997919               -1.49403611               11.41727675             -139.02488834
              55.88241297              -19.52413909               77.38649148                0.45478888                8.89044806                7.28827533              -29.52648874               -0.44321295                5.99053728             -164.96340921
              49.36283106               19.92040734               88.28668717                0.49194906               -0.25216365               -0.76750362                2.57457816               -0.09616108                0.11062328               16.56998665
              50.36030942               16.13189103               86.60867808                0.01447986               -0.03087844                0.29058640               -0.92059386               -2.06570655               43.92803212              -12.42249235
              51.36221349               12.30069605               85.80702069                0.00010000                0.32705271                1.29202635               -3.04861348               -3.96670569               86.29182458              -22.39342151
              52.36685048                8.46430100               84.98370155                0.00010000                0.77546704                2.10913006               -5.53535357               -3.94554459               82.11549594              -32.16127242
              53.37772283                4.62399246               84.11057573                0.00010000                1.56978018                2.90498726               -8.51969390               -3.79995628               75.16445560              -42.47693952
              54.39824608                0.78101374               83.16293859                0.00010000                2.69370725                3.77349724              -12.04663008               -3.54444686               65.91330201              -53.95364045
              55.43159698               -3.06379696               82.11945226                0.00010000                4.10524072                4.73040013              -16.06479624               -3.20192557               54.81265144              -67.10043542
              56.48035090               -6.90983165               80.96165434                0.00010000                5.71758268                5.75255459              -20.42834816               -2.75462302               42.26384196              -82.42524779
              57.54594863              -10.75629636               79.67388476                0.00010000                7.38892654                6.80907338              -24.90527274               -2.14096274               28.66182211             -100.48647380
              58.62812943              -14.60169144               78.24414570                0.00010000                8.94154980                7.85130676              -29.19626525               -1.25455464               14.44474913             -121.86467718
              59.72477963              -18.44337669               76.66551873                0.45505503                9.66502000                8.78207708              -32.97013434               -0.34128663                7.56225299             -147.06023723
              53.14509483               20.91311544               88.00558961                0.49007171               -0.08653572               -0.69837308                2.25724419               -0.10671367                0.16370795               16.42534586
              54.14422947               17.13598887               86.18250011                0.01521863                0.32836779                0.53906575               -1.69022455               -2.10606131               53.37587461              -12.66787627
              55.15166219               13.31551138               85.42392151                0.00010000                0.87888769                1.64301486               -4.02196821               -3.97492927              104.83360810              -19.78260647
              56.16180723                9.48764555               84.64218927                0.00010000                1.32104647                2.48496767               -6.68318597               -3.88725795               99.94171901              -26.68146019
              57.17808311                5.65570076               83.80280408                0.00010000                2.10041316                3.35565111               -9.85418182               -3.54547701               91.74534187              -34.29899092
              58.20381549                1.82200575               82.87645148                0.00010000                3.20453183                4.36110527              -13.60375589               -3.13212113               80.88042003              -43.09852414
              59.24217375               -2.01246064               81.83813874                0.00010000                4.61207643                5.47364218              -17.88457466               -2.71133390               67.82599963              -53.47297393
              60.29605702               -5.84741092               80.66503857                0.00010000                6.25067413                6.65765751              -22.54174423               -2.25982044               52.87211775              -65.93842791
              61.36718723               -9.68244525               79.33565026                0.00010000                7.97203557                7.87007528              -27.32562733               -1.70760539               36.28160507              -81.25353367
              62.45549773              -13.51667624               77.83110309                0.00010000                9.58852548                9.04790447              -31.91611246               -0.97354309               18.46699371             -100.46413685
              63.55895774              -17.34849755               76.13833747                0.45560187               10.34600140               10.08548472              -35.96503989               -0.22023072                9.66817390             -124.56825559
              56.91494993               21.90643988               87.72169336                0.48818398                0.08423269               -0.63201234                1.91798937               -0.11132383                0.25968016               16.21521940
              57.91579226               18.14267235               85.75346380                0.01738296                0.80541497                0.80047744               -2.46829504               -2.20603022               64.53155415              -13.26587019
              58.93105823               14.33355634               85.07120795                0.00010000                1.65618450                1.83915529               -4.97162983               -3.97669805              126.57388704              -16.02857308
              59.94891595               10.51400035               84.36265172                0.00010000                2.06974335                2.61335380               -7.75062867               -3.58373189              120.60561911              -19.60065173
              60.97245310                6.69110548               83.58501432                0.00010000                2.74245553                3.64731782              -11.05675405               -3.00216842              110.87822590              -24.37481409
              62.00376506                2.86823584               82.70759574                0.00010000                3.71669369                4.82090284              -14.97966434               -2.47649646               98.41784614              -30.26605984
              63.04678697               -0.95432411               81.70359009                0.00010000                5.06870208                6.08811123              -19.47300760               -2.05136501               83.55529942              -37.45354164
              64.10513910               -4.77667850               80.54604621                0.00010000                6.71374354                7.40889680              -24.37018200               -1.65323027               66.26700249              -46.37228991
              65.18106184               -8.59889485               79.20562322                0.00010000                8.47858841                8.74038239              -29.40205626               -1.20791111               46.36147523              -57.83815541
              66.27471087              -12.42073335               77.65048769                0.00010000               10.14778979               10.02394462              -34.22347015               -0.66013384               23.97863724              -73.49473559
              67.38401764              -16.24166700               75.85453822                0.45592139               10.93067695               11.15646561              -38.46238705               -0.08297985               12.61858454              -95.91899985
              60.67040342               22.90047519               87.43640553                0.48167285                0.25889819               -0.54102448                1.57404700               -0.11101459               -0.33495579               13.96510015
              61.67299241               19.15199842               85.31595525                0.01722151                1.51983977                1.05247883               -3.28408349               -2.48522353               78.04522991              -12.28182373
              62.70080022               15.35229449               84.76391117                0.00010000                2.97955240                1.36140134               -5.82088771               -3.16863371              152.53588293               -9.53673387
              63.73258345               11.53991263               84.16183456                0.00010000                3.15020195                2.53886570               -8.63902011               -2.49689230              143.93265031              -10.57462576
              64.76380426                7.72864712               83.47333114                0.00010000                3.35658508                3.82185874              -12.03131223               -1.83327260              132.44074662              -12.77556074
              65.79971516                3.91842380               82.67416444                0.00010000                4.11282662                5.17826744              -16.09164166               -1.43694453              118.67532166              -15.69762156
              66.84606079                0.10930159               81.73758618                0.00010000                5.39239989                6.57905174              -20.76240516               -1.15155902              102.47027193              -19.37279013
              67.90756315               -3.69923298               80.63383261                0.00010000                7.05115363                8.00271348              -25.85991977               -0.90686450               83.42565892              -24.05244857
              68.98708386               -7.50763760               79.32650550                0.00010000                8.87520203                9.41401782              -31.09371935               -0.64197079               60.52041431              -30.29986473
              70.08506719              -11.31619734               77.76471260                0.00010000               10.60407882               10.75953622              -36.08965701               -0.33162974               32.31062314              -39.45104126
              71.19916544              -15.12536823               75.88395115                0.45631814               11.40982458               11.97476249              -40.43346749                0.05838123               17.14115012              -56.61889870
              64.40968319               23.89561939               87.10802142                0.74024128                0.45853027               -0.48558021                1.08611528                0.73822942                6.24995913               11.75596261
              65.41426849               20.16372192               84.90723835                0.45920602                3.50440805                1.17235038               -4.02095016               -2.61414265               97.77082126              -10.87210961
              66.47977135               16.36078437               84.53798742                0.43947152                5.41784926                0.84898814               -6.39995094               -2.05009998              181.04604976               -4.77317364
              67.52262547               12.56477767               84.05683736                0.43808827                3.87525583                2.48650406               -9.20273129               -0.65788373              168.50546854               -5.27393302
              68.55727646                8.76754265               83.48147317                0.43756897                3.58731095                3.88955395              -12.66355983               -0.30160320              156.09708351               -6.31863260
              69.59437169                4.97180119               82.79002831                0.43760769                4.20680567                5.33773851              -16.85186107               -0.04863288              141.68996072               -7.77270551
              70.64141258                1.17725692               81.95680218                0.43913817                5.47846503                6.79553328              -21.68604986                0.11390782              124.96799275               -9.60253501
              71.70394099               -2.61662423               80.95155088                0.44199772                7.18871025                8.26087560              -26.95899539                0.24421322              105.33562537              -11.95406619
              72.78518678               -6.41061450               79.73521034                0.44593769                9.09339561                9.70231010              -32.35842623                0.36437217               81.43703754              -15.18201735
              73.88580891              -10.20554262               78.25009887                0.45164955               10.91701297               11.06547188              -37.49098205                0.49630893               48.71982058              -20.02373533
              75.00352704              -14.00217175               76.36746476                0.72839921               11.77181357               12.31964889              -41.89377368                0.77324818               29.76867281              -32.90090510
              27.32678713               14.43042965               91.10789864                0.77991740               -1.21170838               -1.33871847                4.65296792               -0.36701089               -7.05415972                7.51130167
              28.31467004               10.45602601               90.17918341                0.50628442               -1.21320773               -0.80282196                3.10920568               -0.49912133               -8.99270983               -6.12370346
              29.30252297                6.47380707               89.20982473                0.46235253               -0.97173654               -0.44562550                1.77000280               -0.34611546               -8.42235431                0.16909157
              30.29523531                2.48087321               88.28770495                0.45207728               -0.44437111               -0.00867749                0.44992145               -0.34705040               -5.69909551               -0.32076049
              31.29363555               -1.51922888               87.36880153                0.45049894                0.12850545                0.43368845               -0.88491619               -0.34330244               -5.28264408               -0.20564287
              32.29780542               -5.52306891               86.45250597                0.45329963                0.70055831                0.88733766               -2.23954371               -0.34047306               -5.20990029               -0.15224339
              33.30764671               -9.52750701               85.53436054                0.46175180                1.25262743                1.34341156               -3.62672430               -0.33532710               -5.66247783               -0.08333291
              34.32285797              -13.53034597               84.61009970                0.47553001                1.76173202                1.79957354               -5.04760687               -0.32623659               -6.61722775               -0.03141022
              35.34288136              -17.53080656               83.67558633                0.49745331                2.18942436                2.25075408               -6.49625701               -0.31610944               -8.31233536               -0.03860935
              36.36664646              -21.53011773               82.72149732                0.52831654                2.51669340                2.69104325               -7.93311783               -0.29349697               -8.93021668                0.69495127
              37.39321522              -25.53209924               81.77984396                0.77788570                2.65687674                3.15476856               -9.41685521                0.07692407               -8.62131347               -5.41125392
              31.29752065               15.41704246               90.73827392                0.52811679               -0.95305374               -1.28607022                4.05410826               -0.16672944                6.21634900               12.58009830
              32.28799012               11.44799779               89.80759700                0.07924438               -0.54412182               -0.64824168                2.51656839               -0.47653119               14.08914322              -11.29136985
              33.28663822                7.46935082               89.03333439                0.04572929                0.01463340               -0.69478338                1.23526219               -1.18947549               20.52152762              -15.22744833
              34.28828278                3.48078643               88.23438638                0.03834046                0.27676837               -0.29801854               -0.23569278               -1.79762475               19.40433741              -22.54391636
              35.29217358               -0.51489200               87.44137358                0.03982323                0.51284833                0.18028985               -1.77963677               -2.21883478               19.53327227              -30.74040868
              36.29853975               -4.51419554               86.64818667                0.04285017                0.78791935                0.64879494               -3.38525846               -2.38609232               19.28053268              -39.93456912
              37.30793197               -8.51407289               85.85248496                0.04829541                1.13528135                1.04222665               -5.02597812               -2.25160942               18.77397017              -50.28533595
              38.32124538              -12.51235023               85.05076747                0.05650504                1.58370853                1.32181589               -6.68809088               -1.78636755               17.93424191              -61.95772839
              39.33960614              -16.50829902               84.23942573                0.06883747                2.15562257                1.46549420               -8.34860278               -0.99703075               16.87987751              -75.13786420
              40.36435783              -20.50320730               83.41766706                0.08280492                2.81799171                1.50571992               -9.98213040                0.09804428               13.60858762              -90.06110367
              41.39596598              -24.50055156               82.54210097                0.51062915                3.16081473                1.26394066              -11.49684821                1.90456917               10.84112023             -109.84857822
              35.26154188               16.40470824               90.46790965                0.49409759               -0.87108168               -1.10962272                3.72944638               -0.07068605               -0.58304406               16.43236534
              36.25283106               12.44306118               89.33183791                0.02486978               -0.77985313               -0.47436146                1.85503066               -1.02125987               17.09690755              -14.55628377
              37.24594482                8.45991140               88.54822486                0.00010000               -0.46527164               -0.59054420                0.65578191               -2.47142553               33.50132557              -29.44017491
              38.24352563                4.47491284               87.73652527                0.00010000               -0.08519980               -0.25539389               -0.85509191               -3.17397933               30.86289483              -44.01801488
              39.24424082                0.48437691               86.90376597                0.00010000                0.28694171                0.26668573               -2.69670473               -3.88754373               28.40101764              -60.29817208
              40.24926447               -3.51009301               86.04940074                0.00010000                0.82642005                0.78266986               -4.84234246               -4.23327259               25.62445919              -78.44916294
              41.26076922               -7.50666247               85.16835702                0.00010000                1.60461386                1.17632397               -7.24752481               -4.08925810               22.36896083              -98.84706421
              42.28135674              -11.50390965               84.25533414                0.00010000                2.65142912                1.36813610               -9.83682859               -3.40367237               18.64223971             -121.80391599
              43.31379781              -15.50149667               83.30425162                0.00010000                3.97515701                1.32745706              -12.50078877               -2.18279543               14.12723378             -147.61913823
              44.36085988              -19.50000333               82.30232844                0.00010000                5.60986597                1.06482820              -15.06840297               -0.79659097                7.72813128             -176.80002177
              45.42599513              -23.50682043               81.21998033                0.45037756                6.51352425                0.82970854              -17.32530380                0.97612566                4.28071926             -207.82087538
              39.21940107               17.39485001               90.16963920                0.48805476               -0.70393074               -0.91758298                3.37810855               -0.09311545                0.03338263               15.75917819
              40.21236176               13.43851056               88.89804352                0.01644311               -0.70215098               -0.38990941                1.21665359               -1.16606552               22.82592762              -12.62223953
              41.20535805                9.45753993               88.08147671                0.00010000               -0.60120349               -0.02917968               -0.00818998               -2.38747358               44.77583261              -27.73769627
              42.20033769                5.47567856               87.24541148                0.00010000               -0.29647423                0.37712237               -1.65703670               -2.72951258               42.01419448              -42.52330051
              43.19942856                1.49044172               86.37710765                0.00010000                0.22879991                0.93371667               -3.79875466               -3.15936594               37.98570405              -58.16779832
              44.20491369               -2.49854214               85.46863846                0.00010000                1.02674426                1.52523796               -6.42683253               -3.38962282               33.08923346              -75.41441713
              45.21996345               -6.49054641               84.51217865                0.00010000                2.15462217                2.05450674               -9.47930286               -3.28621162               27.47034958              -94.70601504
              46.24800613              -10.48498751               83.50017018                0.00010000                3.60402347                2.45203192              -12.83688065               -2.82527739               21.24903596             -116.38643719
              47.29204392              -14.48174988               82.42495882                0.00010000                5.28718186                2.69582303              -16.31018821               -2.09760417               14.45260963             -140.66760103
              48.35374977              -18.48191074               81.27750614                0.00010000                6.85393845                2.84244483              -19.63363449               -1.17145314                7.25457114             -167.33426480
              49.42912269              -22.48395739               80.05187596                0.45063781                7.53729180                3.41070376              -22.44262151               -0.22719657                3.96093726             -195.13588688
              43.17235847               18.38635658               89.88091199                0.48973513               -0.55386364               -0.81108773                3.09544593               -0.09882558                0.01018666               16.59574967
              44.16681983               14.43526299               88.46393974                0.01551946               -0.56655568               -0.22399357                0.51652024               -1.18998292               29.23211861              -12.65767603
              45.16102735               10.45932781               87.63081813                0.00010000               -0.53931164                0.36354573               -0.77287158               -2.32777637               57.35084366              -26.32634800
              46.15603360                6.48245529               86.77487643                0.00010000               -0.28765773                0.93823491               -2.59666183               -2.43519404               53.93360554              -40.10523105
              47.15527420                2.50305125               85.87870866                0.00010000                0.32132697                1.57771835               -5.03333677               -2.64065696               48.68401847              -54.58538526
              48.16246014               -1.47958825               84.92757166                0.00010000                1.31080826                2.26979430               -8.08792815               -2.75984769               42.00942839              -70.43557590
              49.18149036               -5.46557234               83.90939439                0.00010000                2.67972611                2.95826901              -11.68782821               -2.69381459               34.29533111              -88.18129027
              50.21605466               -9.45486901               82.81415601                0.00010000                4.36392915                3.59896437              -15.67985810               -2.42424377               25.88198535             -108.20972219
              51.26876895              -13.44758021               81.63383273                0.00010000                6.17918368                4.18615655              -19.82252978               -1.96171297               17.12022715             -130.74095663
              52.33963833              -17.44315444               80.36316932                0.00010000                7.83877765                4.81886426              -23.77944984               -1.24295791                8.39809908             -155.72803437
              53.42554450              -21.43860636               79.00098408                0.45118760                8.59061672                5.55547249              -27.13833030               -0.25707176                4.49877248             -183.02528143
              47.11961174               19.37862826               89.59566516                0.48918506               -0.40208712               -0.75506369                2.83046743               -0.10650922                0.08534091               17.00003236
              48.11559087               15.43403069               88.03176599                0.01488534               -0.40007608               -0.00128876               -0.20063048               -1.18626454               36.46744162              -12.65489448
              49.11161022               11.46481085               87.19520499                0.00010000               -0.38402510                0.74061553               -1.62732709               -2.27002333               71.50326912              -24.82048266
              50.10791037                7.49444325               86.33384849                0.00010000               -0.14756305                1.45230991               -3.64358086               -2.26267428               67.43890908              -36.89556647
              51.10865896                3.52199608               85.42421150                0.00010000                0.52149739                2.20370447               -6.35743633               -2.31049686               60.99973791              -49.59809360
              52.11834032               -0.45314625               84.44635871                0.00010000                1.63544754                3.01910127               -9.78370345               -2.32750517               52.68263147              -63.56047116
              53.14136791               -4.43138103               83.38386745                0.00010000                3.15944047                3.88311209              -13.84444985               -2.25741056               42.98916498              -79.33140974
              54.18152913               -8.41300822               82.22370075                0.00010000                4.98635841                4.77044033              -18.36411199               -2.06963548               32.41061292              -97.36881275
              55.24109508              -12.39802674               80.95632891                0.00010000                6.91938115                5.67927950              -23.06472338               -1.72004966               21.43558336             -118.04000755
              56.31991675              -16.38553345               79.57632293                0.00010000                8.68950036                6.61759679              -27.57134240               -1.08329673               10.54574739             -141.62087953
              57.41488509              -20.37284794               78.08307602                0.45171381                9.49683364                7.53316746              -31.43928544               -0.21227126                5.59965125             -168.30095607
              51.05942341               20.37125531               89.31248467                0.48880250               -0.25114640               -0.72330326                2.57358370               -0.10408795                0.10518335               17.13393235
              52.05691195               16.43523721               87.59939909                0.01495637               -0.21045438                0.24989650               -0.93023616               -1.20671911               44.72165675              -12.78733008
              53.05521432               12.47414012               86.77860591                0.00010000               -0.16585349                1.13578237               -2.54388056               -2.27711871               87.71257172              -22.88702796
              54.05359488                8.51150148               85.93150600                0.00010000                0.07197227                1.95581713               -4.76078248               -2.19619091               82.99038335              -32.72764613
              55.05665377                4.54712534               85.02856174                0.00010000                0.78461355                2.80990492               -7.72478749               -2.11944646               75.35183326              -43.12104964
              56.06928715                0.58079377               84.04464915                0.00010000                1.97751776                3.75502847              -11.46884699               -2.02791744               65.39830267              -54.72817400
              57.09620412               -3.38791010               82.95907204                0.00010000                3.60102575                4.79290729              -15.91511656               -1.91152105               53.71348121              -68.08782026
              58.14130766               -7.35946021               81.75505108                0.00010000                5.53445283                5.90088983              -20.87259233               -1.73564513               40.83191657              -83.72369145
              59.20689318              -11.33399462               80.41959337                0.00010000                7.57429645                7.05646780              -26.03739047               -1.42947977               27.27030062             -102.19899632
              60.29279359              -15.31080250               78.94417785                0.00010000                9.45174353                8.22829923              -31.00534117               -0.88582532               13.55267898             -124.09119355
              61.39592805              -19.28794301               77.32580618                0.45180937               10.31344591                9.34142799              -35.30763755               -0.12844712                7.16067074             -149.89451706
              54.98956618               21.36416219               89.02843707                0.48679250               -0.09944983               -0.68905055                2.31877108               -0.09648353                0.17160318               16.97336753
              55.98857168               17.43902862               87.16570828                0.01571250                0.01187004                0.50754779               -1.67148632               -1.26130336               54.30173899              -13.04049831
              56.98980358               13.48752650               86.38585189                0.00010000                0.12148290                1.53978360               -3.49288171               -2.34425951              106.48309238              -20.35138559
              57.99100134                9.53355960               85.57853794                0.00010000                0.35870828                2.42582187               -5.89707183               -2.20136535              101.01217599              -27.31681714
              58.99697775                5.57819418               84.70733858                0.00010000                1.09080331                3.36614968               -9.07451164               -1.98064913               92.06265477              -34.97132938
              60.01281740                1.62195432               83.74228595                0.00010000                2.32068616                4.44505209              -13.08425074               -1.76983898               80.42347224              -43.83878182
              61.04339147               -2.33552289               82.65899028                0.00010000                4.00416737                5.64492992              -17.85167971               -1.59242098               66.72482835              -54.34689797
              62.09290075               -6.29499043               81.43641896                0.00010000                6.02281563                6.93384836              -23.17259849               -1.40848209               51.40084449              -67.02779560
              63.16384778              -10.25689739               80.05594857                0.00010000                8.16239385                8.27496433              -28.71851565               -1.13703245               34.84141086              -82.64180701
              64.25614863              -14.22096747               78.50243518                0.00010000               10.13746882                9.62075724              -34.05567633               -0.68796737               17.54408049             -102.22333124
              65.36659716              -18.18601938               76.76694932                0.45227280               11.04485285               10.89814779              -38.68963015               -0.04358493                9.25116897             -126.75328595
              58.90776088               22.35747430               88.74146663                0.48512309                0.05606961               -0.64313341                2.03855085               -0.09924497                0.27487697               16.75192938
              59.90832157               18.44538817               86.72902405                0.01782954                0.30186393                0.76529403               -2.41632010               -1.35966029               65.60076629              -13.66457246
              60.91379816               14.50493579               86.02367454                0.00010000                0.52891547                1.87577532               -4.43106021               -2.43084608              128.46418757              -16.60728640
              61.91889988               10.56001792               85.28824457                0.00010000                0.74239548                2.75970293               -6.97588230               -2.11528344              121.86558851              -20.20642379
              62.92864607                6.61444833               84.47728972                0.00010000                1.43537759                3.83101116              -10.32095355               -1.73102278              111.29093518              -24.97106289
              63.94760744                2.66969481               83.55922257                0.00010000                2.63271908                5.05483231              -14.55051774               -1.42523444               97.96625079              -30.87650397
              64.98130045               -1.27501150               82.50783736                0.00010000                4.34525442                6.40130663              -19.58984258               -1.22202384               82.39080297              -38.12861759
              66.03451252               -5.22078324               81.29811727                0.00010000                6.44145608                7.83266929              -25.21828010               -1.05368888               64.69453668              -47.17467996
              67.11012957               -9.16849534               79.90383505                0.00010000                8.68218552                9.30480789              -31.07903992               -0.83601665               44.81925342              -58.82844292
              68.20815623              -13.11838736               78.29719623                0.00010000               10.75153043               10.76521119              -36.69991764               -0.49159373               22.99145383              -74.71204009
              69.32516018              -17.06998005               76.45653042                0.45280787               11.70039439               12.14333025              -41.54899939                0.04270701               12.16883832              -97.35959336
              62.81175354               23.35129952               88.45303617                0.47868884                0.21634417               -0.57773935                1.75194810               -0.10663230               -0.34683813               14.42022240
              63.81391698               19.45433450               86.28348934                0.01742856                0.74016841                1.01547005               -3.19487976               -1.55161967               79.30810310              -12.65915904
              64.82655691               15.52504200               85.70792931                0.00010000                1.26330760                1.79195436               -5.26605001               -1.98172156              154.72962311               -9.96892060
              65.83918313               11.58875366               85.07846796                0.00010000                1.30617452                2.93676811               -7.87437162               -1.54295472              145.34309303              -10.97812900
              66.85268040                7.65481440               84.35560296                0.00010000                1.72947059                4.19376991              -11.34466303               -1.10601738              132.86218976              -13.14911651
              67.87377255                3.72305096               83.51415992                0.00010000                2.83743228                5.56496696              -15.76652523               -0.85953657              118.12181540              -16.05761350
              68.90942904               -0.20749675               82.52811761                0.00010000                4.57691337                7.03162588              -21.05100630               -0.71452273              101.13207685              -19.75014691
              69.96531081               -4.13833704               81.36984526                0.00010000                6.76512614                8.56688484              -26.95442550               -0.61097506               81.64826103              -24.48413032
              71.04473157               -8.07080123               80.00631451                0.00010000                9.12453282               10.12619529              -33.08939072               -0.48353226               58.78679805              -30.82064495
              72.14780147              -12.00566324               78.39104419                0.00010000               11.29525605               11.64740212              -38.93650806               -0.27776694               31.20247487              -40.07759649
              73.27063669              -15.94315277               76.46453071                0.45290011               12.28352183               13.07095715              -43.88923499                0.14185901               16.62932478              -57.29829449
              66.69955827               24.34591951               88.12001795                0.73829216                0.39884283               -0.53800088                1.31251860                0.75827914                6.44876403               12.13635997
              67.70354670               20.46569757               85.86758760                0.45730691                2.00931493                1.13630696               -3.88280655               -1.29425962               99.44928723              -11.21710475
              68.73974457               16.54077488               85.47644590                0.43898332                2.73608427                1.57328794               -5.78812521               -1.02844802              183.51950954               -5.02227444
              69.75826839               12.61875328               84.96794230                0.43781938                1.62419202                2.99996274               -8.40552776               -0.21403231              169.92610523               -5.52155740
              70.77222841                8.69832373               84.35728950                0.43737168                1.72297376                4.35093239              -11.99643592                0.06684482              156.35350928               -6.54800414
              71.79272786                4.78099415               83.62195459                0.43784593                2.80847930                5.79431892              -16.61910643                0.26039617              140.85839312               -7.98499217
              72.82839800                0.86562102               82.73723930                0.43900434                4.64348193                7.31177717              -22.15260933                0.37491072              123.29551571               -9.80390355
              73.88559750               -3.04944554               81.67529941                0.44083421                6.96935636                8.88914996              -28.32289614                0.44904629              103.21773817              -12.15479143
              74.96778512               -6.96597143               80.40069151                0.44417788                9.46774690               10.48297997              -34.71377654                0.50566725               79.39822492              -15.39217114
              76.07495244              -10.88543931               78.86037771                0.44889946               11.75956485               12.02239278              -40.77768335                0.58562308               47.39757515              -20.24574957
              77.20297642              -14.80856091               76.93131278                0.72662159               12.80239836               13.45918656              -45.80984951                0.92181406               29.11865592              -33.06272374
              28.19247374               14.87840873               92.15290711                0.77338970               -1.11155342               -1.22840741                4.32589906               -0.33794160               -7.08165440                7.53758588
              29.18135821               10.76903838               91.20924749                0.49907722               -1.02204736               -0.76070928                2.88913273               -0.37628099               -8.89418524               -6.17218192
              30.17203279                6.65466824               90.22716643                0.46015268               -0.71732732               -0.40758832                1.69450498               -0.31798789               -8.11393578                0.17137188
              31.16701166                2.53434501               89.29251691                0.45112819               -0.26274483               -0.00285014                0.51572969               -0.33601917               -5.33136284               -0.32960397
              32.16677790               -1.58944946               88.36100022                0.44954218                0.21541986                0.40930621               -0.66554299               -0.34301642               -4.90358491               -0.20946487
              33.17132006               -5.71463510               87.43189386                0.45211489                0.69003481                0.82780474               -1.86531380               -0.34325615               -4.85332914               -0.15387789
              34.18057859               -9.83959579               86.50062983                0.45882281                1.15076367                1.25265524               -3.09475858               -0.33377516               -5.35256642               -0.09427162
              35.19433533              -13.96327613               85.56289240                0.47025310                1.57963835                1.67133550               -4.35946982               -0.32076227               -6.36267768               -0.04380123
              36.21217136              -18.08597880               84.61458007                0.48802503                1.94162123                2.09255427               -5.65311534               -0.30717292               -8.09637025               -0.06145646
              37.23316776              -22.20944120               83.64689351                0.51283112                2.21301475                2.49924757               -6.92989508               -0.27891503               -8.76456560                0.64478803
              38.25643166              -26.33783082               82.69113270                0.76750680                2.32638994                2.92137112               -8.27338459                0.22445959               -8.51311111               -5.32798236
              32.29846468               15.86612466               91.77747622                0.51884290               -0.89990331               -1.07507580                3.76860690               -0.05229723                6.27803405               12.75388320
              33.28946564               11.76143129               90.83189515                0.07576232               -0.61325372               -0.71781387                2.33379973               -0.20881304               14.26875531              -11.37055897
              34.28619960                7.65059236               90.04508109                0.04542587               -0.18776623               -0.49401103                1.10265517               -0.54629108               20.63143982              -15.16263213
              35.28571032                3.53431651               89.23165293                0.03809573                0.08190938               -0.04969403               -0.31577266               -0.95344829               19.32532855              -22.39069498
              36.28783779               -0.58535640               88.42343451                0.03929949                0.36251731                0.40250302               -1.81544684               -1.32187937               19.36500975              -30.59975191
              37.29296066               -4.70635705               87.61449022                0.04171110                0.68617839                0.79421828               -3.36398399               -1.54881530               19.04834197              -39.93698741
              38.30156136               -8.82706924               86.80258121                0.04616021                1.06792738                1.07957260               -4.96025018               -1.53958162               18.50677547              -50.56351752
              39.31431921              -12.94656278               85.98458123                0.05278522                1.53104044                1.21526722               -6.54644765               -1.21221632               17.65515556              -62.62584414
              40.33218217              -17.06505326               85.15682821                0.06282528                2.09927027                1.18150860               -8.15013462               -0.51577957               16.61760972              -76.25923241
              41.35630462              -21.18444872               84.31907829                0.07360593                2.74418537                0.98322053               -9.71770384                0.60236689               13.42630623              -91.62655121
              42.38706587              -25.30861711               83.42886434                0.49981036                3.07612557                0.24352130              -11.13334548                2.80866659               10.71689727             -111.67823481
              36.40081453               16.85690721               91.50395028                0.48885758               -0.81002888               -0.81405924                3.47667607               -0.04461252               -0.65339352               16.82498778
              37.39271425               12.75468210               90.34975836                0.02391265               -0.62963909               -0.65600625                1.72605415               -0.30766356               17.40866897              -14.74292941
              38.38822175                8.64478802               89.55548053                0.00010000               -0.44113994               -0.41887261                0.83229712               -0.83307117               34.14211432              -29.23170056
              39.38389145                4.53335113               88.72945849                0.00010000               -0.36039404                0.06581836               -0.49847064               -1.38289927               31.12113099              -43.64566739
              40.38101387                0.41860060               87.87858784                0.00010000               -0.09174253                0.59704411               -2.26780032               -2.04617952               28.23954254              -59.97973204
              41.38205660               -3.69875074               87.00262061                0.00010000                0.44894053                1.03740421               -4.44182083               -2.51763993               25.07207242              -78.43092489
              42.38999268               -7.81800434               86.09700997                0.00010000                1.30092121                1.29099359               -6.96113315               -2.61823357               21.49037300              -99.37562638
              43.40807502              -11.93897079               85.15724366                0.00010000                2.48745169                1.28043426               -9.74532855               -2.21741503               17.55044935             -123.10316862
              44.43974172              -16.06234863               84.17849097                0.00010000                4.03519637                0.95704040              -12.65538472               -1.24338206               13.01508960             -149.82849348
              45.48877895              -20.18977679               83.14986705                0.00010000                6.06000213                0.26745960              -15.47618591               -0.16376802                6.91322532             -179.95215343
              46.56094176              -24.33296039               82.04438719                0.44779573                7.21628110               -0.62086346              -17.89299052                1.64428547                3.94404635             -211.98697917
              40.50202265               17.84984347               91.20251692                0.48431332               -0.65910820               -0.67768636                3.18397321               -0.08202950                0.00273282               16.23635230
              41.49543157               13.74831116               89.90974316                0.01625324               -0.55767478               -0.54727708                1.11973211               -0.16548842               23.35420913              -12.89231516
              42.49086915                9.64221490               89.08302178                0.00010000               -0.55959088               -0.12389476                0.38370050               -0.41541052               45.78143242              -27.65523411
              43.48423975                5.53563287               88.23164596                0.00010000               -0.59265449                0.40061504               -0.98882483               -0.71758735               42.53645027              -42.30053134
              44.47901606                1.42658449               87.34226341                0.00010000               -0.25134702                1.00903035               -3.04605734               -1.14416899               37.91400457              -58.00419808
              45.47921281               -2.68560897               86.40707447                0.00010000                0.52003362                1.59565991               -5.76425549               -1.47109513               32.42267326              -75.51364000
              46.48941674               -6.80124937               85.41895510                0.00010000                1.75511943                2.06812556               -9.06603503               -1.56631216               26.29562481              -95.27710669
              47.51431520              -10.92095409               84.37167020                0.00010000                3.43518952                2.35495148              -12.80934028               -1.37432208               19.75448379             -117.62164480
              48.55812053              -15.04591245               83.25967904                0.00010000                5.46629141                2.41342926              -16.76214446               -0.98730460               12.95918726             -142.72229131
              49.62364103              -19.17909953               82.07699062                0.00010000                7.40991342                2.27532799              -20.57455471               -0.52962352                6.25708945             -170.33740656
              50.70631879              -23.32103438               80.82194972                0.44791347                8.26777690                2.60562584              -23.73621257                0.11524626                3.51594460             -199.19041140
              44.60223856               18.84335349               90.91118410                0.48588029               -0.52055183               -0.64749941                2.95661614               -0.08829613               -0.00249904               17.14841936
              45.59703304               14.74373656               89.46881358                0.01575575               -0.48233659               -0.33456282                0.45232798               -0.04168120               29.97793133              -13.00810359
              46.59259183               10.64231012               88.62535701                0.00010000               -0.59314632                0.16292590               -0.23186594               -0.09265708               58.72339915              -26.41745712
              47.58517012                6.54136343               87.75262280                0.00010000               -0.66097466                0.76445880               -1.71595903               -0.19912299               54.71126101              -40.08356055
              48.57937234                2.43878121               86.83242125                0.00010000               -0.23507846                1.46007885               -4.06581506               -0.44687544               48.74983307              -54.60960479
              49.58046855               -1.66683754               85.85003961                0.00010000                0.73196112                2.19289306               -7.26575290               -0.68620786               41.35453254              -70.67355351
              50.59401156               -5.77664183               84.79424247                0.00010000                2.23915549                2.89374411              -11.22180062               -0.83214074               33.02493782              -88.80834209
              51.62525166               -9.89187176               83.65671292                0.00010000                4.20647526                3.51103774              -15.75008274               -0.86762680               24.23281890             -109.40144660
              52.67814107              -14.01408004               82.43213683                0.00010000                6.40283751                4.03624729              -20.55199685               -0.81414097               15.48576388             -132.66783425
              53.75330841              -18.14427023               81.11910543                0.00010000                8.44876567                4.59855198              -25.18861367               -0.63662650                7.32052839             -158.55305693
              54.84711638              -22.28084788               79.72124898                0.44811426                9.38079696                5.30270374              -29.09192239                0.07128716                4.00956320             -186.91257624
              48.69949058               19.83689348               90.62367207                0.48631675               -0.38492721               -0.65197051                2.77164921               -0.08399186                0.07793528               17.57891979
              49.69564131               15.74161991               89.02953300                0.01536347               -0.40507168               -0.07672109               -0.24766783                0.00841066               37.40928859              -13.03792177
              50.69138914               11.64547342               88.18164217                0.00010000               -0.59275512                0.49992294               -0.98412614                0.05341642               73.21482616              -25.08467400
              51.68378620                7.55092205               87.30169749                0.00010000               -0.65548113                1.18476022               -2.62836645                0.09224185               68.47119988              -37.09257158
              52.67827952                3.45578606               86.36520192                0.00010000               -0.14372566                1.98315847               -5.26523923               -0.02145749               61.23032509              -49.82590197
              53.68091169               -0.64175111               85.35215025                0.00010000                0.97643090                2.86802765               -8.88783697               -0.19636324               52.10472874              -63.94408206
              54.69780814               -4.74337449               84.24702757                0.00010000                2.67445917                3.79828130              -13.39329989               -0.37645545               41.72255042              -80.01608187
              55.73440087               -8.85073334               83.03875684                0.00010000                4.82140193                4.74240348              -18.56957148               -0.52983864               30.72193918              -98.51273978
              56.79423618              -12.96518750               81.72092714                0.00010000                7.16377296                5.70920480              -24.07338318               -0.61541747               19.75226649             -119.80756743
              57.87767633              -17.08712849               80.29238664                0.00010000                9.33318288                6.73213352              -29.41887140               -0.50655055                9.43964558             -144.17970204
              58.98089984              -21.21498030               78.75770578                0.44832488               10.32235032                7.78537699              -33.99821941                0.09581947                5.09130600             -171.81501134
              52.79110588               20.83031408               90.33815885                0.48558611               -0.24845618               -0.66463270                2.56503945               -0.08649910                0.12385122               17.71930058
              53.78862132               16.74220214               88.59007336                0.01553125               -0.33739326                0.19670204               -0.93889336               -0.03986868               45.83525210              -13.18632622
              54.78435802               12.65230858               87.75614307                0.00010000               -0.59595023                0.89708091               -1.83665261               -0.00191377               89.71293222              -23.30546396
              55.77670231                8.56505863               86.88848590                0.00010000               -0.63708336                1.68242960               -3.67216275                0.14568263               84.25924102              -33.12762201
              56.77161635                4.47844438               85.95607998                0.00010000               -0.05002399                2.58800619               -6.58004260                0.13865293               75.74576153              -43.53359441
              57.77570183                0.39052301               84.93356165                0.00010000                1.19241649                3.62039028              -10.56976058                0.03004791               64.90878811              -55.23454238
              58.79546468               -3.70067620               83.80114993                0.00010000                3.03830339                4.76052842              -15.53693318               -0.14087657               52.47179149              -68.80299974
              59.83646790               -7.79702369               82.54420249                0.00010000                5.33815969                5.98501566              -21.25004492               -0.32524939               39.12674460              -84.78246810
              60.90222787              -11.89989594               81.15313695                0.00010000                7.82511492                7.28322163              -27.33394707               -0.44204120               25.55606005             -103.74383115
              61.99297020              -16.00962756               79.62403887                0.00010000               10.12542599                8.64836239              -33.26666502               -0.37710719               12.42624338             -126.26196304
              63.10473639              -20.12514034               77.95936598                0.44859292               11.17661913               10.03463970              -38.40887092                0.15137243                6.63996994             -152.82123066
              56.87398447               21.82360083               90.05196503                0.48438362               -0.11350445               -0.67173535                2.37878905               -0.09335081                0.17313813               17.54569040
              57.87284943               17.74555395               88.14907038                0.01627926               -0.27450477                0.46988497               -1.64881730               -0.16037181               55.55489228              -13.44719692
              58.86849438               13.66341504               87.35406388                0.00010000               -0.61426833                1.35123084               -2.74538516               -0.21099294              108.73724491              -20.89185827
              59.86056406                9.58457064               86.52424784                0.00010000               -0.64530883                2.24416102               -4.78131276                0.00206824              102.48666598              -27.86634738
              60.85558820                5.50754619               85.62131385                0.00010000                0.00345855                3.24877334               -7.93216608                0.08817514               92.58863462              -35.50621232
              61.86063323                1.43065670               84.61476646                0.00010000                1.34745558                4.41543887              -12.23727794                0.05652469               79.98467505              -44.40512248
              62.88253731               -2.64816392               83.48110514                0.00010000                3.32411986                5.73262068              -17.59495654               -0.07230342               65.46574820              -55.03256910
              63.92711563               -6.73103302               82.20158660                0.00010000                5.77309574                7.17126432              -23.75662728               -0.23974551               49.63622811              -67.94091152
              64.99799923              -10.81952307               80.76127995                0.00010000                8.41314773                8.70331449              -30.31547747               -0.34940751               33.05901085              -83.89203136
              66.09537858              -14.91416124               79.14998956                0.00010000               10.84768094               10.30222009              -36.71058454               -0.29450341               16.37457372             -103.90337592
              67.21495284              -19.01428751               77.36454487                0.44911196               11.95742618               11.93500414              -42.26715262                0.18685532                8.70727867             -128.92981854
              60.94533263               22.81687937               89.76246437                0.48255066                0.02670415               -0.66362566                2.15080552               -0.09916063                0.28880255               17.29586361
              61.94559967               18.75159984               87.70513740                0.01832242               -0.21055841                0.73488717               -2.34604320               -0.30671362               66.99808626              -14.08011252
              62.94112146               14.67933320               86.98258674                0.00010000               -0.64935694                1.83648381               -3.66007884               -0.48691509              130.94768993              -17.19892803
              63.93261253               10.60994185               86.22313407                0.00010000               -0.69138319                2.80408351               -5.86121536               -0.23528723              123.51234601              -20.79395765
              64.92729380                6.54341985               85.37859525                0.00010000               -0.00350495                3.90594106               -9.21611392               -0.06710828              111.88251603              -25.51046451
              65.93254243                2.47883179               84.41658538                0.00010000                1.42072657                5.19414086              -13.79445785               -0.02200268               97.48871106              -31.39644665
              66.95570833               -1.58602379               83.31179324                0.00010000                3.52448551                6.65303149              -19.49347439               -0.09752593               81.01291028              -38.69383126
              68.00303214               -5.65359840               82.04168061                0.00010000                6.13298070                8.24676465              -26.04331501               -0.22950100               62.76871274              -47.86524704
              69.07836794               -9.72582965               80.58404242                0.00010000                8.94062148                9.93080527              -32.99908205               -0.31815421               42.88168248              -59.71947466
              70.18184457              -13.80358316               78.91648934                0.00010000               11.51790434               11.66152488              -39.74573926               -0.25443499               21.72563850              -75.84449590
              71.30872603              -17.88644026               77.02355823                0.44940950               12.68814564               13.40855134              -45.55492887                0.20559199               11.57413950              -98.70843282
              65.00256032               23.81032832               89.47144450                0.47615091                0.17010039               -0.62481757                1.91818485               -0.09833485               -0.36026099               14.87425027
              66.00426132               19.76025169               87.25205765                0.01765429               -0.10731306                0.97917368               -3.06881681               -0.44784905               80.88808120              -13.03893852
              67.00041406               15.70014472               86.65859017                0.00010000               -0.62448278                2.19862532               -4.46952615               -0.54570018              157.48901294              -10.42984284
              67.99177167               11.64065231               86.00434713                0.00010000               -0.75289820                3.27279934               -6.75936659               -0.33941300              147.10008170              -11.40069049
              68.98535610                7.58566501               85.24643788                0.00010000               -0.10674281                4.48948211              -10.28385442               -0.15361183              133.39435895              -13.51613262
              69.98963681                3.53453951               84.35883394                0.00010000                1.38304450                5.88401065              -15.11786243               -0.08604865              117.44986725              -16.38762408
              71.01301699               -0.51510329               83.31656605                0.00010000                3.63473307                7.44796283              -21.14121810               -0.11837485               99.47127451              -20.08218048
              72.06233147               -4.56609773               82.09474410                0.00010000                6.43019558                9.14850264              -28.05456247               -0.19961391               79.40201786              -24.86471086
              73.14162090               -8.62090696               80.66471769                0.00010000                9.42845045               10.93088591              -35.37179455               -0.25639887               56.55271728              -31.29101427
              74.25090048              -12.68093075               78.98598244                0.00010000               12.15789926               12.72292522              -42.40860611               -0.19574730               29.75034862              -40.64946465
              75.38477888              -16.74611648               77.00616645                0.44988994               13.38783988               14.47249543              -48.32218072                0.24662574               15.93711511              -57.86964139
              69.04351918               24.80438302               89.13427179                0.73710260                0.33071050               -0.59452973                1.53671165                0.77591574                6.65648964               12.50783528
              70.04682629               20.77118331               86.82958221                0.45535573                0.31438257                1.09316224               -3.69645263                0.20263083              101.45255870              -11.55410712
              71.04980684               16.72330571               86.42222491                0.43862025               -0.32611543                2.31609891               -4.91060767                0.15000399              186.55285598               -5.32916321
              72.04030398               12.67539784               85.88872680                0.43762830               -0.97362376                3.47455278               -7.23546025                0.34842028              171.62110251               -5.82111520
              73.03033436                8.63320949               85.24154445                0.43748611               -0.43571119                4.75444796              -10.94112837                0.55353471              156.59494410               -6.81386842
              74.03158976                4.59651200               84.45764619                0.43769371                1.18218573                6.19724917              -16.06172027                0.68159335              139.74815170               -8.21701766
              75.05397807                0.56293547               83.51374999                0.43834476                3.66268922                7.80387551              -22.43530032                0.73909130              121.12118010              -10.01043631
              76.10484354               -3.47062835               82.38509296                0.44033799                6.70474534                9.54693815              -29.72454279                0.74383647              100.44494924              -12.34800888
              77.18807298               -7.50721194               81.04093481                0.44269953                9.91478027               11.36950267              -37.40698075                0.72039332               76.67799158              -15.58130543
              78.30313915              -11.54912465               79.43454521                0.44668330               12.79785178               13.18060944              -44.75942953                0.73494584               45.59048263              -20.42597006
              79.44403002              -15.59699035               77.45126777                0.72497570               14.08908708               14.91261362              -50.77855239                1.13854406               28.18424718              -33.10056091
              29.07247327               15.33204315               93.19441662                0.76697507               -0.99462572               -1.09661908                3.96037459               -0.29858904               -7.08160676                7.53858645
              30.06252701               11.08728706               92.23696607                0.49169473               -0.77492163               -0.72113192                2.64647767               -0.20856460               -8.74761767               -6.19856162
              31.05697484                6.84140519               91.24371483                0.45770951               -0.38763736               -0.36211184                1.61377952               -0.31045981               -7.72530745                0.15901327
              32.05477427                2.59600908               90.29801955                0.45035699               -0.03939715                0.00218664                0.58801595               -0.31843170               -4.87074065               -0.34225659
              33.05618690               -1.64828677               89.35549067                0.44917948                0.31674802                0.38121109               -0.42498456               -0.32245415               -4.42271462               -0.21727941
              34.06110923               -5.89133919               88.41519969                0.45124414                0.67049760                0.76771516               -1.45220442               -0.32535498               -4.39784526               -0.14954585
              35.06959685              -10.13329520               87.47246537                0.45574820                1.02724730                1.15718224               -2.51363315               -0.32506133               -4.95027853               -0.10465217
              36.08165417              -14.37459966               86.52291030                0.46517570                1.36779979                1.53812871               -3.60612551               -0.31710695               -6.02116186               -0.04542914
              37.09695284              -18.61653197               85.56252402                0.47915317                1.65741706                1.91374020               -4.71973167               -0.29874982               -7.79055526               -0.07977939
              38.11480252              -22.86159153               84.58289942                0.49802141                1.87608889                2.28796634               -5.83253986               -0.27497960               -8.52617455                0.58830823
              39.13447462              -27.11412218               83.61437627                0.75807707                1.96721067                2.67514292               -7.03401842                0.37265421               -8.34944817               -5.20465171
              33.31424347               16.32107696               92.81364606                0.51039029               -0.84831235               -0.79379283                3.45209712                0.11910643                6.31299149               12.90582470
              34.30576035               12.08007574               91.85427300                0.07219300               -0.73671210               -0.84662437                2.13547188                0.18271426               14.38975369              -11.42222691
              35.29950923                7.83778407               91.05538750                0.04486350               -0.46622082               -0.20342453                0.95484419                0.40336712               20.65016198              -14.90162011
              36.29643593                3.59603095               90.22807092                0.03752540               -0.14363701                0.29986916               -0.41079528                0.29039700               19.13691155              -21.91073911
              37.29663649               -0.64447466               89.40506464                0.03839522                0.19619810                0.71200724               -1.85387078               -0.00051648               19.06637490              -30.05494547
              38.30035989               -4.88366204               88.58090699                0.04020573                0.56699897                1.00217147               -3.35401781               -0.30370800               18.68366462              -39.51393137
              39.30797647               -9.12172338               87.75327995                0.04368996                0.98707969                1.13731542               -4.88834329               -0.45997694               18.13073579              -50.45403907
              40.32010149              -13.35921837               86.91983852                0.04886256                1.47424065                1.07688351               -6.41066548               -0.32203187               17.28390231              -63.00013332
              41.33746128              -17.59739457               86.07642304                0.05669205                2.03731676                0.78072986               -7.91780364                0.25149303               16.24179111              -77.21940558
              42.36084782              -21.83871187               85.22331298                0.06464338                2.66352655                0.23163968               -9.42397258                1.42247364               13.15496532              -93.17538388
              43.39073181              -26.08737075               84.31943406                0.49022723                2.98839901               -1.27616053              -10.75923549                4.20216896               10.53649546             -113.58466417
              37.55685784               17.31616730               92.53744317                0.48476198               -0.73836513               -0.43668650                3.20195953               -0.04328392               -0.74016699               17.22045722
              38.54947419               13.07035457               91.36635900                0.02313526               -0.38854323               -0.92333526                1.58721394                0.71750682               17.81654214              -14.93671253
              39.54908697                8.83733670               90.56487081                0.00010000               -0.33166227               -0.16126500                1.09035669                1.56132825               34.99369882              -28.61780814
              40.54284094                4.60200647               89.72655586                0.00010000               -0.66087111                0.52363352               -0.00843341                1.20029014               31.49545908              -42.62413434
              41.53586955                0.36595337               88.85840997                0.00010000               -0.52785765                1.04995056               -1.68225274                0.61707128               28.10606616              -58.87395867
              42.53228379               -3.87129576               87.96056432                0.00010000                0.00420456                1.37140499               -3.87799180               -0.00933509               24.46077586              -77.59717435
              43.53595364               -8.11054890               87.02913436                0.00010000                0.93004678                1.42011648               -6.53080239               -0.42312419               20.45796841              -99.15962175
              44.55088472              -12.35306199               86.06042757                0.00010000                2.27612793                1.11643501               -9.55388149               -0.40490494               16.21014550             -123.83805027
              45.58147620              -16.60091737               85.05114392                0.00010000                4.11717224                0.37765040              -12.79941373                0.22746017               11.59734445             -151.73519709
              46.63322817              -20.85695874               83.99280472                0.00010000                6.71797835               -0.95926877              -15.98853005                0.85225203                5.83470800             -183.11070761
              47.71583577              -25.13964539               82.86212052                0.44497516                8.26075996               -2.86283231              -18.68044087                2.67091325                3.47966353             -216.54061604
              41.80500324               18.31234323               92.23331867                0.48040222               -0.60621580               -0.39987352                2.97100581               -0.06383549               -0.02874787               16.73564152
              42.79894108               14.06160904               90.92043816                0.01625176               -0.29596672               -0.75217487                1.01493172                1.24734512               24.10626501              -13.20148366
              43.79908390                9.83455877               90.08915072                0.00010000               -0.35580079               -0.24892093                0.92033822                2.37468635               47.23093729              -27.25517764
              44.79182506                5.60650362               89.22563498                0.00010000               -0.84018812                0.43630386               -0.08977249                2.11596084               43.36372373              -41.53398172
              45.78228014                1.37652435               88.31618650                0.00010000               -0.75748008                1.09836344               -2.02385651                1.71234710               38.01231419              -57.17596562
              46.77667546               -2.85623394               87.35335335                0.00010000               -0.04999629                1.65803255               -4.83033420                1.28001838               31.78945790              -74.91377622
              47.78128021               -7.09332105               86.33085794                0.00010000                1.28482033                2.03686222               -8.41941081                0.93532189               25.00866481              -95.19999882
              48.80237187              -11.33688967               85.24398338                0.00010000                3.23135108                2.15386974              -12.63958730                0.77057221               18.00765629             -118.34246860
              49.84590724              -15.58984156               84.08971593                0.00010000                5.71245061                1.93661877              -17.22423699                0.68039697               11.13038707             -144.47975455
              50.91662088              -19.85789724               82.86601504                0.00010000                8.18080751                1.36735719              -21.73293389                0.44613768                4.99548660             -173.34751504
              52.00952339              -24.14462740               81.57715171                0.44519049                9.29025058                1.35157263              -25.46772840                0.60762955                2.93833701             -203.65708624
              46.05704952               19.30816983               91.94004431                0.48261843               -0.48439704               -0.45556628                2.82352098               -0.06360792               -0.00617486               17.75068273
              47.05220555               15.05531108               90.47298630                0.01615741               -0.26816998               -0.47982783                0.37334037                1.55269612               31.04603992              -13.41674330
              48.05168612               10.83235828               89.62618081                0.00010000               -0.45054827               -0.11137348                0.49680029                3.00399144               60.71518237              -26.26752223
              49.04319458                6.61073254               88.74055725                0.00010000               -0.94160339                0.51125527               -0.54185898                2.87559556               55.93715868              -39.62821781
              50.03285405                2.38792064               87.79739236                0.00010000               -0.77325113                1.26474794               -2.76009063                2.58324540               49.10495686              -54.09014206
              51.02772956               -1.83813511               86.78225660                0.00010000                0.12308822                2.03420022               -6.10911003                2.21007439               40.82888723              -70.32950918
              52.03531581               -6.06981165               85.68495838                0.00010000                1.75435595                2.73554645              -10.47778469                1.80413142               31.71433454              -88.88400296
              53.06281668              -10.30998459               84.49915435                0.00010000                4.03879498                3.30685368              -15.66662692                1.36615639               22.38224622             -110.14548871
              54.11609171              -14.56218500               83.22279280                0.00010000                6.70600402                3.73316742              -21.33278277                0.84881888               13.55464712             -134.33198563
              55.19693676              -18.82961159               81.85939705                0.00010000                9.26784777                4.19181537              -26.92762794                0.24406056                6.00339452             -161.39467364
              56.30144867              -23.11261394               80.41914563                0.44528582               10.45119110                4.86811120              -31.69025575                0.52724309                3.39723068             -191.20774250
              50.30944858               20.30323191               91.65109814                0.48368791               -0.36420321               -0.54107317                2.70004073               -0.07084810                0.06466689               18.19710883
              51.30580654               16.05201248               90.02681263                0.01596707               -0.28531557               -0.16688805               -0.29308839                1.62633056               38.73893742              -13.47590448
              52.30374226               11.83233130               89.17552247                0.00010000               -0.60159645                0.16254245               -0.12637946                3.20452769               75.66908346              -25.17585467
              53.29377462                7.61672873               88.28128117                0.00010000               -1.04647827                0.78330746               -1.28070149                3.25681072               70.05013812              -36.96252150
              54.28281270                3.40181931               87.31890671                0.00010000               -0.75826861                1.62104422               -3.79480283                3.06802708               61.83529650              -49.63135803
              55.27860924               -0.81554993               86.26860197                0.00010000                0.31998143                2.58109107               -7.62431737                2.71169847               51.73138731              -63.86294318
              56.28921233               -5.03861012               85.11600145                0.00010000                2.17295506                3.58819958              -12.64663807                2.22403150               40.48103187              -80.24816955
              57.32206834               -9.27075260               83.85230932                0.00010000                4.66491436                4.60226345              -18.63062957                1.62353808               28.88641731              -99.27779929
              58.38251062              -13.51517821               82.47486124                0.00010000                7.49313434                5.64804745              -25.18292493                0.93889751               17.81359700             -121.34197714
              59.47193103              -17.77406094               80.98794551                0.00010000               10.17811615                6.79834560              -31.70297174                0.30328551                8.11814715             -146.73525851
              60.58607294              -22.04726517               79.40311163                0.44571590               11.41419071                8.07036136              -37.38594353                0.51080401                4.46921870             -175.64651414
              54.55807141               21.29734836               91.36378545                0.48285713               -0.24386465               -0.62307181                2.56223233               -0.06902146                0.14973213               18.32076828
              55.55563276               17.05197332               89.58062122                0.01619152               -0.35054899                0.15040830               -0.95329301                1.50124501               47.37759728              -13.62438980
              56.55106043               12.83560913               88.74187286                0.00010000               -0.83949846                0.54571776               -0.89217266                3.00270661               92.52051317              -23.61100471
              57.53884279                8.62639869               87.85806275                0.00010000               -1.22835889                1.24278766               -2.22657887                3.22212360               86.12750343              -33.30317903
              58.52649325                4.42034153               86.89696089                0.00010000               -0.82249149                2.18676787               -5.03400770                3.12535682               76.55992860              -43.64251224
              59.52239296                0.21348671               85.83325394                0.00010000                0.42529299                3.31890337               -9.28674210                2.78605899               64.66485580              -55.39199813
              60.53499911               -3.99804766               84.64833338                0.00010000                2.47312844                4.58962746              -14.85970261                2.26239640               51.29088063              -69.16406965
              61.57185553               -8.21793932               83.33005018                0.00010000                5.15894473                5.97329112              -21.50005105                1.61028873               37.30354981              -85.52982599
              62.63817800              -12.44922405               81.87291443                0.00010000                8.16169494                7.47673664              -28.77857768                0.92045323               23.60658103             -105.07556551
              63.73508943              -16.69364468               80.27884455                0.00010000               10.99476116                9.12877433              -36.05351382                0.32307460               11.09454996             -128.37888369
              64.85807323              -20.95120671               78.55762876                0.44621777               12.29837978               10.92285901              -42.48189770                0.52175598                6.00833789             -155.91290943
              58.79881824               22.29077047               91.07601285                0.48187664               -0.12475650               -0.67181284                2.41459059               -0.06900843                0.18098154               18.11425619
              59.79757067               18.05502065               89.13273193                0.01687700               -0.47236099                0.44126646               -1.60594025                1.25016790               57.24697609              -13.87269186
              60.78937102               13.84324566               88.33094419                0.00010000               -1.20429910                1.04109036               -1.74512540                2.51293425              111.81157935              -21.37609400
              61.77348469                9.64158448               87.48291168                0.00010000               -1.55696028                1.88203921               -3.29185821                2.83022583              104.57000578              -28.28990010
              62.75823181                5.44555467               86.54869526                0.00010000               -1.03825419                2.93867379               -6.37497630                2.77977422               93.53997040              -35.85173234
              63.75271961                1.25082814               85.49754039                0.00010000                0.38272394                4.21058455              -10.99882318                2.47092338               79.79117198              -44.73595735
              64.76588629               -2.94681757               84.30709115                0.00010000                2.63654503                5.68493130              -17.04171100                1.96747031               64.26087081              -55.46328776
              65.80545051               -7.15128677               82.96128641                0.00010000                5.53693725                7.33468229              -24.23098908                1.34780792               47.74202660              -68.61353900
              66.87662504              -11.36564348               81.44963902                0.00010000                8.74623372                9.14507390              -32.09933059                0.72889071               31.02824719              -84.95250326
              67.98037518              -15.59148545               79.76822349                0.00010000               11.75035395               11.11872627              -39.95649225                0.24496264               14.99061197             -105.47645626
              69.11163212              -19.82880799               77.92160627                0.44636401               13.12569334               13.27182082              -46.91305475                0.48934350                8.04552868             -131.10510239
              63.02819088               23.28391211               90.78448274                0.48052721               -0.00299561               -0.68966800                2.23400124               -0.08615792                0.30829552               17.81363680
              64.02816093               19.06079865               88.68210318                0.01881493               -0.67178024                0.70451333               -2.23983022                0.97405428               68.81744630              -14.49104016
              65.01475528               14.85643094               87.95047296                0.00010000               -1.75113142                1.67806589               -2.62194342                1.89587521              134.22629324              -17.78939403
              65.99313830               10.66403948               87.17102026                0.00010000               -2.09551019                2.67813187               -4.36109037                2.12682143              125.74114452              -21.34260686
              66.97284508                6.47911500               86.29296744                0.00010000               -1.44773153                3.79939437               -7.68850936                2.07539417              112.86440579              -25.96299072
              67.96418367                2.29769841               85.28333341                0.00010000                0.18091741                5.17047712              -12.64494500                1.82290384               97.20857759              -31.78639380
              68.97646342               -1.88434903               84.11796787                0.00010000                2.67269628                6.78602262              -19.10748232                1.40569977               79.63009798              -39.10278438
              70.01763760               -6.07124568               82.77725097                0.00010000                5.82455342                8.61215846              -26.77788960                0.88877417               60.64890816              -48.39526945
              71.09295449              -10.26632257               81.24385341                0.00010000                9.27577996               10.60647857              -35.14022390                0.39490255               40.63799424              -60.46518276
              72.20315319              -14.47127016               79.50228145                0.00010000               12.47753467               12.73885228              -43.43181283                0.07683852               20.21007640              -76.85178736
              73.34250519              -18.68577029               77.54543184                0.44647695               13.93519917               15.02764236              -50.69048797                0.41892845               10.84097922              -99.93014170
              67.24332200               24.27697711               90.49139986                0.47354692                0.12109246               -0.67452399                2.05566958               -0.09280289               -0.36524505               15.31595371
              68.24453293               20.06911091               88.22211300                0.01787250               -0.96371549                0.93838316               -2.89493704                0.81568462               82.87100372              -13.41677158
              69.22404769               15.87680698               87.61853879                0.00010000               -2.55979343                2.52456001               -3.39251975                1.14690132              161.00287188              -10.91782444
              70.19333706               11.69514712               86.94328063                0.00010000               -2.89834612                3.47660778               -5.24773018                1.14840898              149.38783447              -11.83846541
              71.16608077                7.52154255               86.14992587                0.00010000               -2.03476682                4.63591156               -8.79481642                1.07266977              134.23603767              -13.86638685
              72.15264172                3.35423768               85.21180267                0.00010000               -0.15681994                6.06654469              -14.07825127                0.93310011              116.86841250              -16.67056213
              73.16294437               -0.81109712               84.10529325                0.00010000                2.62789051                7.76967205              -20.95491458                0.68150605               97.67975461              -20.34662121
              74.20519953               -4.97904360               82.80875401                0.00010000                6.08015985                9.70711201              -29.09068086                0.36286423               76.82761783              -25.16911524
              75.28454757               -9.15351391               81.29887862                0.00010000                9.80800725               11.81453946              -37.91673012                0.06367081               53.88887558              -31.68485336
              76.40135968              -13.33670840               79.54287207                0.00010000               13.22316981               14.00929567              -46.57420554               -0.07326511               27.97106289              -41.13869580
              77.54901096              -17.52825515               77.49808710                0.44695012               14.76512874               16.24977658              -53.93670473                0.38087788               15.06387891              -58.29264749
              71.44206722               25.27042163               90.15075219                0.73620185                0.25775335               -0.65554842                1.74025349                0.78899009                6.87321790               12.89282384
              72.44464475               21.07956631               87.79365854                0.45408670               -1.52050584                1.04553950               -3.45715611                1.83620842              103.88126019              -11.90478728
              73.41165710               16.90692214               87.37823375                0.43786130               -3.66369256                3.01151622               -3.72567294                1.46120737              190.34481766               -5.70985532
              74.37137090               12.73357163               86.82323309                0.43757360               -3.82245970                3.84245166               -5.64641942                1.04893920              173.76057716               -6.18764117
              75.33520791                8.57183323               86.13846693                0.43748655               -2.79427776                5.02906793               -9.44570728                1.18559731              156.99660356               -7.12623138
              76.31548535                4.41902930               85.30072018                0.43761473               -0.59165407                6.47916209              -15.11576700                1.24492132              138.53950798               -8.47420494
              77.32337483                0.27104441               84.28853329                0.43809736                2.59131600                8.21415291              -22.46015429                1.23640892              118.60471713              -10.22417636
              78.36731167               -3.87710344               83.08080855                0.43927698                6.42589398               10.19401675              -31.09951004                1.15740408               97.12203785              -12.53299667
              79.45189271               -8.03003178               81.65255190                0.44132317               10.45587308               12.34821261              -40.42149304                1.03547371               73.30786881              -15.74516422
              80.57642913              -12.19108424               79.96518912                0.44442896               14.06617613               14.56241606              -49.51605641                0.96979627               43.28180768              -20.55380497
              81.73321623              -16.36077476               77.91574173                0.72325745               15.67871010               16.74803830              -57.01619175                1.45147455               26.93855772              -32.98166110
              29.96574271               15.79072158               94.23211460                0.76083691               -0.86350634               -0.95069830                3.56578218               -0.25403598               -7.06002501                7.52134062
              30.95710764               11.41045329               93.26217705                0.48560701               -0.46347710               -0.68594731                2.38689272                0.03024258               -8.56096642               -6.20861040
              31.95647317                7.03450317               92.25944202                0.45647364                0.03566807               -0.30991873                1.52022658               -0.25963390               -7.25988474                0.12754672
              32.95782101                2.66739712               91.30427723                0.44958852                0.23351490                0.01682878                0.66267225               -0.27726717               -4.32217293               -0.36526379
              33.96114346               -1.69294298               90.35250053                0.44885615                0.42837253                0.35683833               -0.16549904               -0.30331180               -3.84114579               -0.21348754
              34.96638846               -6.04904062               89.40284977                0.44983139                0.63594749                0.70403083               -1.00759946               -0.31573256               -3.84826049               -0.14481340
              35.97386241              -10.40331801               88.45035716                0.45387621                0.87324917                1.04989972               -1.88751595               -0.31181346               -4.46135897               -0.09863450
              36.98385344              -14.75804116               87.49076989                0.45999615                1.12543595                1.39584435               -2.79671162               -0.30264797               -5.59010081               -0.05360084
              37.99637113              -19.11537243               86.52018544                0.47019214                1.34692900                1.73111577               -3.73687503               -0.30581051               -7.40417158               -0.08364320
              39.01079202              -23.47850215               85.53024271                0.48512022                1.50589352                2.06404520               -4.66494121               -0.27326172               -8.21867645                0.54052017
              40.02648900              -27.85203944               84.55045233                0.74933172                1.56969832                2.39847953               -5.68931621                0.55273447               -8.11579871               -5.05256705
              34.34347063               16.78121460               93.84651816                0.50242871               -0.79513561               -0.45389149                3.11189266                0.35976445                6.32432482               13.03011698
              35.33551928               12.40359382               92.87460459                0.06874815               -0.90328607               -1.03353043                1.92489451                0.73495972               14.44617327              -11.45389074
              36.32540491                8.03140398               92.06417797                0.04403586               -0.83739344                0.20827359                0.79505893                1.76986450               20.52292526              -14.39377438
              37.31877141                3.66756541               91.22343703                0.03658490               -0.45378461                0.79536292               -0.51468705                2.08309427               18.79607824              -21.01637976
              38.31632922               -0.68937460               90.38635710                0.03707309               -0.01763827                1.14712745               -1.89236115                1.92087715               18.61207231              -29.00119032
              39.31841864               -5.04200032               89.54740987                0.03827374                0.44576625                1.29500213               -3.34174317                1.53574284               18.17259950              -38.55475141
              40.32524454               -9.39281901               88.70481434                0.04084076                0.92177633                1.22716202               -4.79798491                1.16719981               17.60902416              -49.84828221
              41.33685417              -13.74408271               87.85636792                0.04474138                1.41494908                0.90822535               -6.25923661                1.05863330               16.79043857              -62.98979043
              42.35354353              -18.09806127               86.99847214                0.05057675                1.97693691                0.25134853               -7.67921053                1.45806652               15.77890466              -77.98575172
              43.37639291              -22.45786170               86.13059884                0.05603717                2.60050521               -0.80954251               -9.11434065                2.68555619               12.77450448              -94.73721098
              44.40555363              -26.82805464               85.21367963                0.48102896                2.91607227               -3.47254663              -10.33550223                6.25142816               10.22904598             -115.64903768
              38.72817955               17.78164375               93.56798947                0.48043641               -0.65620906                0.03702838                2.90923577                0.00079711               -0.82974588               17.62616799
              39.72161746               13.38978269               92.38150264                0.02266066               -0.01403413               -1.29698185                1.43802049                2.16152141               18.37264293              -15.14932249
              40.72789886                9.03866864               91.57728767                0.00010000               -0.06779941                0.21986861                1.44501543                4.92039314               36.16175530              -27.49097499
              41.72026147                4.68330438               90.72928983                0.00010000               -0.93860655                1.16932190                0.63421365                4.85189798               32.07862482              -40.78307387
              42.70912673                0.32999957               89.84494279                0.00010000               -0.98568726                1.67286894               -0.91365251                4.43848989               28.10047342              -56.78969277
              43.70054772               -4.02314058               88.92506078                0.00010000               -0.49189641                1.82117695               -3.11250828                3.65687747               23.89846762              -75.73658906
              44.69928881               -8.37877477               87.96639392                0.00010000                0.48603202                1.58728217               -5.90184235                2.84896970               19.37522018              -98.00415654
              45.71026836              -12.73987665               86.96616603                0.00010000                2.00113231                0.87762322               -9.20260004                2.35927408               14.68777447             -123.84154806
              46.73931145              -17.11034545               85.92250270                0.00010000                4.21140762               -0.45475713              -12.87806819                2.51683594                9.87271721             -153.27896600
              47.79449652              -21.49469300               84.83009645                0.00010000                7.62959966               -2.73902273              -16.59258114                2.42885773                4.45446531             -186.34875277
              48.89190344              -25.92149037               83.67077838                0.44230464                9.74069289               -6.15732907              -19.74234419                4.18319207                2.86590724             -221.74859861
              43.12720870               18.78195516               93.26193704                0.47740555               -0.54838861               -0.05280390                2.75506242               -0.02752120               -0.05805067               17.28636472
              44.12172482               14.37765418               91.93004180                0.01651492                0.15411870               -1.03777299                0.90076106                3.20230384               25.16935035              -13.57157574
              45.13029108               10.03580135               91.10142855                0.00010000                0.13768106               -0.40403529                1.61942569                6.23616645               49.30183934              -26.45339776
              46.12447844                5.69095185               90.22985051                0.00010000               -0.93735485                0.49242546                1.06081861                6.03608492               44.67161702              -40.09338680
              47.11154398                1.34408278               89.30178628                0.00010000               -1.20739569                1.21292974               -0.70433479                5.70583812               38.47848682              -55.52675717
              48.10033052               -3.00557678               88.31046778                0.00010000               -0.62919878                1.72321206               -3.57889496                5.18882034               31.40755586              -73.45005178
              49.09896001               -7.36107337               87.25056689                0.00010000                0.76399070                1.96546878               -7.46926645                4.55791130               23.81667493              -94.31635512
              50.11561034              -11.72653025               86.11887845                0.00010000                2.98682971                1.83845883              -12.24440424                3.93553794               16.16107896             -118.42801186
              51.15869660              -16.10715641               84.91519430                0.00010000                6.02523184                1.22401935              -17.63480164                3.17839776                9.03555368             -145.88879137
              52.23611498              -20.51264216               83.64233194                0.00010000                9.20578012                0.02994201              -23.11422455                1.92410668                3.47479554             -176.44492789
              53.34281220              -24.95120122               82.31259515                0.44277923               10.66972262               -0.47361378              -27.74585733                1.32711198                2.21736342             -208.83652851
              47.53623108               19.78058767               92.96765452                0.48045907               -0.44137363               -0.24303235                2.68455521               -0.04873331               -0.02593897               18.37399936
              48.53181735               15.36902723               91.47628039                0.01676985                0.15467225               -0.65936436                0.28539600                3.71355847               32.54264483              -13.88194771
              49.53932453               11.03058793               90.63529302                0.00010000                0.04421954               -0.47685343                1.42807948                7.20684345               63.55566179              -25.81333567
              50.53270174                6.69315289               89.74178562                0.00010000               -0.97762030                0.16071386                0.93971720                7.02982561               57.83845075              -38.63751274
              51.51977212                2.35425816               88.77721943                0.00010000               -1.16107310                0.97537988               -1.09641529                6.71457180               50.01270729              -52.90485648
              52.50948028               -1.98867634               87.72785741                0.00010000               -0.41858100                1.77847341               -4.57783822                6.21953114               40.72903936              -69.27114593
              53.51140050               -6.33946539               86.58468678                0.00010000                1.27909453                2.46802453               -9.38804811                5.51651461               30.65588262              -88.27878117
              54.53506217              -10.70310747               85.34338038                0.00010000                3.87954063                2.96725501              -15.34846716                4.56297043               20.56457640             -110.33606705
              55.58899131              -15.08586507               84.00548118                0.00010000                7.09806473                3.25038673              -22.11102525                3.25943194               11.46512732             -135.68785428
              56.67702346              -19.49409416               82.58055287                0.00010000               10.32862510                3.56804951              -29.02847828                1.52881702                4.49650992             -164.32123276
              57.79556382              -23.93096264               81.08744386                0.44298320               11.85403560                4.24037560              -35.10946417                1.17014020                2.67651111             -196.17083383
              51.94935493               20.77709452               92.67767288                0.48142205               -0.33592022               -0.43864691                2.61014192               -0.05286684                0.07538900               18.81298738
              52.94599573               16.36446690               91.02367124                0.01670868                0.04736759               -0.26160912               -0.33691676                3.77191407               40.58045679              -13.95930499
              53.95030228               12.02626428               90.17911458                0.00010000               -0.22955029               -0.29605835                0.95793362                7.38507280               79.10926070              -25.04141747
              54.94140472                7.69416613               89.27608346                0.00010000               -1.13188163                0.21058223                0.40470418                7.43943538               72.43068646              -36.42442694
              55.92766465                3.36359038               88.28930587                0.00010000               -1.14800108                1.07737128               -1.93685678                7.18390843               63.11616588              -48.91377060
              56.91844470               -0.97000731               87.19966390                0.00010000               -0.19716098                2.12104856               -5.96260485                6.64214655               51.90895117              -63.20357980
              57.92372143               -5.31171288               85.99409481                0.00010000                1.74123623                3.22090447              -11.54431517                5.79538558               39.61410718              -79.91111965
              58.95326942               -9.66718515               84.66614425                0.00010000                4.55752503                4.32550852              -18.47340345                4.62299414               27.19610618              -99.56189633
              60.01487193              -14.04214868               83.21726864                0.00010000                7.92597340                5.48400203              -26.35156969                3.12388942               15.80695412             -122.58454838
              61.11178889              -18.44128117               81.65832721                0.00010000               11.25400192                6.83054724              -34.48147411                1.44391869                6.66037469             -149.31575976
              62.23995197              -22.86639371               80.00998691                0.44351054               12.81630755                8.45347373              -41.83063751                1.07729139                3.76256290             -179.96601204
              56.36042899               21.77181473               92.38940349                0.48152063               -0.23431232               -0.59529234                2.54055802               -0.06141881                0.15680462               18.88877084
              57.35808586               17.36379504               90.57100750                0.01692330               -0.15511163                0.10756263               -0.95846384                3.48569550               49.45546284              -14.08160253
              58.35732675               13.02466676               89.73829962                0.00010000               -0.69607570                0.05143865                0.29674505                6.89067129               96.38740890              -23.75863205
              59.34416435                8.69736454               88.84395432                0.00010000               -1.48515144                0.58245009               -0.42466281                7.19736042               88.85642062              -33.18756295
              60.32762373                4.37580559               87.85539983                0.00010000               -1.32689452                1.54573037               -3.08419009                7.02371728               78.11264572              -43.36197745
              61.31762646                0.05374463               86.74782681                0.00010000               -0.15688367                2.79326939               -7.59448346                6.43815938               65.03847858              -55.09915435
              62.32448605               -4.27504730               85.50395588                0.00010000                2.01656947                4.23243537              -13.82635213                5.49726723               50.55143247              -69.06073041
              63.35795785               -8.61659730               84.11420147                0.00010000                5.05395345                5.83402778              -21.55092018                4.25005744               35.68599157              -85.85956515
              64.42556512              -12.97618503               82.57756540                0.00010000                8.60945099                7.63182799              -30.33391592                2.79346212               21.63515163             -106.11292862
              65.53014687              -17.35748322               80.90296860                0.00010000               12.08848062                9.70769489              -39.43516801                1.28632667                9.65104407             -130.41406428
              66.66733473              -21.76189317               79.10972803                0.44367278               13.71878650               12.11005338              -47.77902885                1.01629959                5.30173744             -159.22740918
              60.76416593               22.76518867               92.10025684                0.47967178               -0.13083272               -0.70248211                2.41425628               -0.06561896                0.20303192               18.62002161
              61.76285761               18.36661815               90.11695157                0.01746951               -0.48098596                0.43014624               -1.53509114                2.99884470               59.47428003              -14.28642494
              62.75454621               14.02729305               89.31916137                0.00010000               -1.43222494                0.56419794               -0.48456569                5.93002374              115.94004677              -21.76902407
              63.73421311                9.70581513               88.45841067                0.00010000               -2.13936575                1.26781174               -1.43103179                6.39942600              107.51695210              -28.53438980
              64.71175890                5.39450498               87.49381432                0.00010000               -1.80761659                2.35619183               -4.40129161                6.23439933               95.23654106              -35.93794310
              65.69806078                1.08585808               86.39479000                0.00010000               -0.38750967                3.75485027               -9.34182809                5.62589713               80.22278872              -44.74424758
              66.70400871               -3.22706417               85.14027092                0.00010000                2.06737615                5.43828671              -16.13007447                4.67720041               63.50197429              -55.53886403
              67.73940830               -7.55050459               83.71696682                0.00010000                5.38091914                7.38129555              -24.51690549                3.48594874               46.05295937              -68.94078138
              68.81162709              -11.88951212               82.11929334                0.00010000                9.19076347                9.59060584              -34.02486317                2.19547745               28.97064836              -85.72569100
              69.92322357              -16.24712727               80.35085972                0.00010000               12.87353868               12.11078702              -43.85579044                0.98201362               13.48928122             -106.86647611
              71.06909786              -20.62419264               78.42628377                0.44395132               14.58742942               15.01846247              -52.87478194                0.88896711                7.30265427             -133.23839593
              65.15625765               23.75776509               91.80714440                0.47747150               -0.02992760               -0.74053640                2.27992721               -0.05355172                0.34094664               18.30172885
              66.15595837               19.37239797               89.66034079                0.01923460               -0.97636995                0.68713750               -2.09619009                2.49352504               71.14548802              -14.89937462
              67.13673025               15.03595072               88.93014788                0.00010000               -2.55087167                1.33671951               -1.30550903                4.75402295              138.51041595              -18.35260683
              68.10494094               10.72272077               88.13591226                0.00010000               -3.22307445                2.29275207               -2.47660360                5.04534354              128.79158505              -21.81838571
              69.07226876                6.42292942               87.22482506                0.00010000               -2.66136924                3.41664005               -5.73360437                4.79583868              114.54810361              -26.28124344
              70.05171356                2.12884164               86.16368648                0.00010000               -0.89380149                4.89417092              -11.06880381                4.21829597               97.50131750              -31.98265128
              71.05439273               -2.16628157               84.92964359                0.00010000                1.92056081                6.72315194              -18.36001442                3.39195017               78.63058557              -39.27785143
              72.09012477               -6.46897139               83.50612282                0.00010000                5.58523075                8.87334868              -27.32971100                2.38994094               58.66540099              -48.67800021
              73.16609735              -10.78437291               81.88123794                0.00010000                9.71714481               11.31047972              -37.44073975                1.36785889               38.30465902              -60.97488360
              74.28446767              -15.11526748               80.04785308                0.00010000               13.65737395               14.02574687              -47.80082453                0.53693392               18.53802262              -77.64175862
              75.43924483              -19.46152392               78.00974847                0.44413349               15.47771579               17.09566607              -57.17897671                0.70078222               10.00261796             -100.92837153
              69.53382915               24.75037794               91.51255789                0.47112510                0.07133300               -0.71151200                2.14200585               -0.05604526               -0.36671680               15.74288393
              70.53454248               20.38036090               89.19415891                0.01801401               -1.72626374                0.87992583               -2.66166362                2.23305316               85.33348625              -13.79399703
              71.49930387               16.05402744               88.59073978                0.00010000               -4.32005986                2.68839810               -2.02096013                3.08538288              165.45776722              -11.42086713
              72.44814128               11.75167017               87.89939252                0.00010000               -4.88745316                3.45096576               -3.34013643                2.95758696              152.42790633              -12.28023660
              73.40155481                7.46283779               87.07054155                0.00010000               -3.82517962                4.53366565               -6.87194516                2.62909542              135.68308277              -14.17885623
              74.37163769                3.18374150               86.07726891                0.00010000               -1.59470357                6.01756211              -12.61056795                2.25805426              116.73775203              -16.87431230
              75.36966074               -1.09260113               84.89746776                0.00010000                1.68303872                7.91267077              -20.41253046                1.74061017               96.12882104              -20.50190002
              76.40529846               -5.37303762               83.51293048                0.00010000                5.78098090               10.17870152              -29.95919441                1.12197632               74.23541292              -25.34880138
              77.48528035               -9.66330252               81.90638309                0.00010000               10.29073981               12.74555607              -40.64834819                0.50888671               50.99072987              -31.94792300
              78.61111326              -13.96661233               80.05449833                0.00010000               14.51730188               15.52163137              -51.45856712                0.10705013               25.94374132              -41.48298372
              79.77562639              -18.28227932               77.92743236                0.44411875               16.45131350               18.47955460              -60.93115780                0.55585677               14.03361946              -58.48106612
              73.89517083               25.74353485               91.16907686                0.73491622                0.17991045               -0.68430909                1.88221879                0.78033178                7.08938111               13.26977441
              74.89696993               21.38999648               88.76043909                0.45222336               -3.40210959                0.96355852               -3.13201438                3.55193759              106.80637059              -12.25751806
              75.82712864               17.08971868               88.34771145                0.43810658               -7.08437978                3.56912404               -2.22140723                2.86965681              195.08000847               -6.18342171
              76.75528234               12.79174009               87.77579841                0.43730883               -6.71746480                4.00699163               -3.64357023                1.90830861              176.54479320               -6.63550376
              77.69277934                8.51360274               87.05263030                0.43749441               -5.14843915                5.07649507               -7.51117617                1.99509309              157.82636096               -7.49233244
              78.65231356                4.24919288               86.15533085                0.43728217               -2.33976455                6.54513806              -13.75024362                1.98604259              137.56212906               -8.75751398
              79.64598405               -0.00802815               85.06454691                0.43798043                1.54760671                8.45729776              -22.15172584                1.90281959              116.08406694              -10.44165106
              80.68326569               -4.26539736               83.76310276                0.43844424                6.19328711               10.76402581              -32.34661112                1.72504114               93.51992375              -12.70256759
              81.76984979               -8.52946179               82.23250495                0.43968525               11.11598899               13.38407328              -43.68456897                1.48506941               69.43591184              -15.87101368
              82.90558547              -12.80483485               80.44422408                0.44213795               15.59230747               16.17774797              -55.07996438                1.32366938               40.50672724              -20.60596733
              84.08169594              -17.09193283               78.31094394                0.72214276               17.61104728               19.03464927              -64.72765111                1.89715736               25.36845015              -32.64860127
              30.87114788               16.25366285               95.26573226                0.75462539               -0.71676177               -0.78584138                3.14824762               -0.19938440               -7.02480342                7.49054669
              31.86398027               11.73825977               94.28470392                0.47944457               -0.07354602               -0.65874413                2.11312770                0.34544193               -8.34587781               -6.20546884
              32.86967696                7.23448422               93.27411936                0.45461124                0.56460192               -0.24212800                1.41445381               -0.24794490               -6.71454341                0.08206503
              33.87527230                2.75038421               92.31127299                0.44893704                0.55572356                0.03065465                0.73653740               -0.24708735               -3.67455370               -0.38565942
              34.88079143               -1.72026966               91.35218069                0.44838721                0.55075385                0.33289372                0.10170987               -0.27562604               -3.15798084               -0.20614834
              35.88628738               -6.18335564               90.39504770                0.44924843                0.58290592                0.63875688               -0.54794259               -0.28890367               -3.20291991               -0.13576424
              36.89244955              -10.64418225               89.43471505                0.45122049                0.68682531                0.94564723               -1.23525009               -0.30067082               -3.88265834               -0.07847913
              37.90002389              -15.10686774               88.46697607                0.45467782                0.84735205                1.24574260               -1.96279417               -0.30694157               -5.08813703               -0.04916033
              38.90939659              -19.57477824               87.48778652                0.46347974                1.00691027                1.53513742               -2.71990670               -0.29009492               -6.94056573               -0.08048372
              39.92016209              -24.05149338               86.48960060                0.47360906                1.11714088                1.81835510               -3.43565302               -0.24566158               -7.80850687                0.47691047
              40.93173941              -28.54162813               85.50058994                0.74209982                1.15773182                2.09505755               -4.26613152                0.72769808               -7.77085176               -4.83641594
              35.38455712               17.24580444               94.87588391                0.49558308               -0.75331167               -0.01955359                2.75505035                0.69122411                6.31391548               13.14215754
              36.37702400               12.73167233               93.89277089                0.06569370               -1.17109100               -1.31644307                1.70597732                1.49535435               14.43324728              -11.46877669
              37.36113530                8.23206294               93.07128868                0.04303161               -1.34228125                0.78912036                0.62578599                3.69381793               20.25031860              -13.57953479
              38.35017837                3.75069076               92.21777718                0.03533374               -0.81150990                1.47736496               -0.61845831                4.62411724               18.30829862              -19.61936419
              39.34490510               -0.71694073               91.36721742                0.03535606               -0.24118674                1.74999985               -1.93430617                4.68289040               18.00949238              -27.33244014
              40.34535464               -5.17696807               90.51407213                0.03595402                0.31468988                1.71350894               -3.30699924                4.23647873               17.52352395              -36.93998441
              41.35119889               -9.63472578               89.65732025                0.03769200                0.84489135                1.38988415               -4.69154698                3.62305020               16.95943251              -48.62799233
              42.36225247              -14.09441031               88.79465379                0.04034090                1.38047844                0.72321316               -6.07608252                3.19032307               16.16980337              -62.50100781
              43.37880846              -18.55942687               87.92283883                0.04444258                1.94389770               -0.42203084               -7.41797205                3.33520068               15.18149599              -78.49514493
              44.40113042              -23.03330983               87.04102617                0.04777323                2.51713388               -2.20867618               -8.74654162                4.63145106               12.28879431              -96.34863146
              45.42915114              -27.52067755               86.11272401                0.47274939                2.80207215               -6.59523769               -9.83881127                9.26576009                9.85626946             -118.02592054
              39.91323657               18.25327178               94.59562789                0.47788972               -0.56077262                0.63005185                2.60974786                0.01969279               -0.93310877               18.04765831
              40.90762885               13.71193091               93.39511941                0.02266874                0.56491620               -1.81362803                1.27919956                4.14037145               19.12906607              -15.39178848
              41.92453490                9.25026663               92.59377111                0.00010000                0.45647357                0.77112637                1.90421251                9.60886421               37.76608964              -25.73514712
              42.91675832                4.77993151               91.73924013                0.00010000               -1.12134148                2.07246646                1.42912603                9.95924987               32.99883587              -37.96135333
              43.90210807                0.31473033               90.84013692                0.00010000               -1.39781543                2.53266442                0.04352301                9.86552665               28.39214380              -53.52710176
              44.88880201               -4.14908546               89.89831416                0.00010000               -0.98776332                2.44682319               -2.12087871                8.97882165               23.59645162              -72.63187769
              45.88235280               -8.61638457               88.91109751                0.00010000               -0.01352870                1.83923827               -5.00919959                7.73430673               18.45721183              -95.68749139
              46.88853144              -13.09240348               87.87637557                0.00010000                1.63236602                0.58730259               -8.59857622                6.59396397               13.15011735             -122.93320218
              47.91500012              -17.58321886               86.79358256                0.00010000                4.27551814               -1.55845003              -12.80074335                6.05464633                7.91302761             -154.34458525
              48.97404180              -22.09566690               85.66095310                0.00010000                8.83949708               -5.19711960              -17.25281240                4.86357506                2.73741656             -189.74115407
              50.09179006              -26.67353288               84.46727363                0.44029508               11.77482646              -10.86729497              -21.12691084                6.42305717                2.04611418             -228.04513699
              44.46763270               19.25840547               94.28841992                0.47536103               -0.47961260                0.33210950                2.53127391                0.00155100               -0.09762059               17.84867776
              45.46283658               14.69539977               92.93845338                0.01713374                0.88396400               -1.39441142                0.78111063                5.84355493               26.62986423              -14.00132695
              46.48531198               10.24748547               92.12153923                0.00010000                1.10315457               -0.59305459                2.47969786               11.47497706               52.19761427              -25.16964365
              47.48489967                5.79214009               91.24685136                0.00010000               -0.70396920                0.59089143                2.44375360               11.37529769               46.69063194              -37.85731915
              48.47123260                1.33371256               90.30209981                0.00010000               -1.44268464                1.37867985                0.89183153               11.23783250               39.61903344              -52.91403545
              49.45604597               -3.12803160               89.28177545                0.00010000               -1.10147758                1.81656567               -2.00062910               10.71937067               31.66046921              -70.96294341
              50.44920305               -7.59794102               88.18147262                0.00010000                0.24600293                1.87346852               -6.15367282                9.79625213               23.12582605              -92.45988748
              51.46096603              -12.08266426               86.99909529                0.00010000                2.69808848                1.42158702              -11.51522894                8.60637606               14.55425244             -117.72990087
              52.50316482              -16.59059587               85.73701990                0.00010000                6.38749553                0.26012157              -17.88663491                6.93168460                6.87286050             -146.88206271
              53.58871594              -21.13725222               84.40373055                0.00010000               10.50897141               -1.81823040              -24.69199080                4.17174469                1.76018304             -179.72890267
              54.71334424              -25.73802345               83.02223456                0.44056228               12.46283005               -2.99447444              -30.69990697                2.39321914                1.36593428             -215.13448203
              49.03927899               20.25991397               93.99373542                0.47902510               -0.38590464               -0.03313957                2.52230900               -0.02078118               -0.03887919               18.97760791
              50.03541995               15.68404268               92.47869422                0.01762525                0.90075642               -0.86502492                0.20080221                6.58144879               34.57593698              -14.39673653
              51.05729412               11.23840554               91.65474240                0.00010000                1.13086157               -0.94945596                2.54460510               12.79549657               67.48740985              -24.99700850
              52.05803718                6.79174934               90.75935160                0.00010000               -0.51288577               -0.30342996                2.68233634               12.55978911               60.70404192              -37.02239087
              53.04703641                2.34230393               89.77546405                0.00010000               -1.15970902                0.58254717                0.87217539               12.29097443               51.86736871              -50.94238474
              54.03484300               -2.11275415               88.69069984                0.00010000               -0.70629540                1.42203402               -2.69240745               11.73671076               41.55458213              -67.36800805
              55.03291050               -6.57891520               87.49719742                0.00010000                0.92354050                2.09197017               -7.91085647               10.72967425               30.38911642              -86.85078803
              56.05331381              -11.06397174               86.19218501                0.00010000                3.76556357                2.49263221              -14.69909142                9.13746880               19.25423260             -109.84324684
              57.10822177              -15.57801643               84.78057229                0.00010000                7.57952329                2.58212326              -22.79432067                6.76210773                9.53523869             -136.66355588
              58.20490428              -20.13203151               83.27882748                0.00010000               11.64875697                2.72301810              -31.50190069                3.41491887                2.94020914             -167.40078319
              59.34119691              -24.73342237               81.71695635                0.44093285               13.62926353                3.45769337              -39.56844276                2.09394157                1.89846477             -202.13548190
              53.61895965               21.25774268               93.70330098                0.47973162               -0.29856642               -0.36870732                2.51285322               -0.02831633                0.10194135               19.38696718
              54.61597398               16.67809927               92.02007430                0.01758567                0.72778063               -0.34908778               -0.38425178                6.55898046               43.03433797              -14.47617064
              55.63351526               12.22849635               91.19468114                0.00010000                0.81115376               -0.90079192                2.23749572               12.82699363               83.79472846              -24.63571546
              56.63219706                7.78607149               90.28937525                0.00010000               -0.59798447               -0.57145603                2.35659539               12.88504866               75.92607225              -35.40345234
              57.62155557                3.34536350               89.28016958                0.00010000               -1.00988690                0.31447976                0.22754096               12.60874297               65.51260922              -47.57336536
              58.61199932               -1.09959092               88.14934987                0.00010000               -0.32707239                1.45658394               -3.94833596               11.91491832               53.20281990              -61.84177234
              59.61501412               -5.55610161               86.88511514                0.00010000                1.54086585                2.67384117              -10.06400666               10.67609504               39.74095344              -78.86234557
              60.64281664              -10.03281162               85.48284125                0.00010000                4.57263116                3.90092722              -18.01648342                8.79001190               26.20809603              -99.22304114
              61.70646675              -14.53895340               83.94782985                0.00010000                8.48018140                5.22545569              -27.50398591                6.19559514               14.12186193             -123.43195772
              62.81242026              -19.08279186               82.29831602                0.00010000               12.57690261                6.87865166              -37.79573020                3.05636124                5.25045754             -151.91717965
              63.95800480              -23.66886958               80.56649888                0.44094229               14.55845328                9.06853044              -47.61234292                1.86183718                3.04609776             -184.94835621
              58.19799948               22.25253982               93.41459662                0.47950687               -0.21535960               -0.61563428                2.48375133               -0.02140114                0.17470488               19.38635188
              59.19584589               17.67706093               91.56145195                0.01767865                0.39311486                0.09297914               -0.94568991                6.00138194               52.17156686              -14.54497495
              60.20586178               13.22038970               90.74780776                0.00010000                0.15125548               -0.62397138                1.68674712               11.82284433              101.55866569              -23.70457679
              61.19887100                8.78032022               89.84956949                0.00010000               -1.04940518               -0.35663727                1.64684785               12.25887777               92.76111283              -32.70895423
              62.18487368                4.34859352               88.83527709                0.00010000               -1.21322578                0.60035326               -0.82686278               12.05425291               80.85875410              -42.59310501
              63.17460648               -0.08362247               87.68136427                0.00010000               -0.26102926                1.98372174               -5.54951965               11.23437796               66.62318639              -54.22798273
              64.17965309               -4.52543838               86.37180634                0.00010000                1.86796778                3.64095228              -12.41997608                9.82020554               50.90868963              -68.34057750
              65.21196584               -8.98595319               84.89903177                0.00010000                5.12304105                5.53939353              -21.32264024                7.83008553               34.86851526              -85.60903380
              66.28211391              -13.47350731               83.26623611                0.00010000                9.19909212                7.75617810              -31.92560370                5.35865390               20.06202399             -106.70857930
              67.39594768              -17.99445848               81.49014119                0.00010000               13.42375970               10.45462008              -43.45846947                2.61028295                8.29605957             -132.27227265
              68.55058911              -22.55205176               79.60204818                0.44137690               15.46414274               13.76366166              -54.59459929                1.68228608                4.60251757             -162.76307568
              62.76948941               23.24543000               93.12429797                0.47731795               -0.13376664               -0.74470929                2.38461182               -0.01623661                0.25591368               19.04613398
              63.76815174               18.67995886               91.10203011                0.01800951               -0.13882767                0.42714427               -1.44400507                5.14041250               62.33149169              -14.68549396
              64.76671286               14.21601692               90.32125288                0.00010000               -0.94904782               -0.12946518                0.99185670               10.12551152              121.34554562              -22.02143430
              65.74917079                9.77893874               89.45429105                0.00010000               -2.00647724                0.31848469                0.70938750               10.83877328              111.62841540              -28.53213333
              66.72658331                5.35737057               88.46066943                0.00010000               -1.92260034                1.40846867               -2.10879930               10.61520107               98.12987665              -35.67004522
              67.71071878                0.94008351               87.31070383                0.00010000               -0.64171771                2.95944664               -7.31817956                9.70659364               81.87815246              -44.30491029
              68.71374896               -3.48328257               85.98448966                0.00010000                1.83842517                4.91677384              -14.83201004                8.24392246               63.85296304              -55.10668033
              69.74748728               -7.92202375               84.47094830                0.00010000                5.41980755                7.25919237              -24.51775962                6.34190752               45.17197939              -68.75133746
              70.82214511              -12.38382984               82.76914175                0.00010000                9.78415439               10.02986586              -35.99707160                4.17638942               27.31191587              -86.03505931
              71.94317037              -16.87369946               80.89110768                0.00010000               14.23459902               13.33572662              -48.43144124                1.98444641               12.07195860             -107.90743350
              73.10683709              -21.39359635               78.86411063                0.44140525               16.36667175               17.32827241              -60.41805912                1.41919350                6.55999477             -135.18876997
              67.32861703               24.23764564               92.83008128                0.47569697               -0.05498203               -0.77638349                2.26362273               -0.03937200                0.36569139               18.69763275
              68.32806721               19.68560381               90.64017938                0.01951187               -0.96124528                0.65869081               -1.90129868                4.25118879               74.04913127              -15.26519830
              69.30939213               15.21780040               89.92436278                0.00010000               -2.68871977                0.74045672                0.24479212                8.11713333              143.99542189              -18.84551200
              70.27429282               10.78668991               89.12148819                0.00010000               -3.66795980                1.53587469               -0.29712961                8.59425624              132.93906304              -22.16825920
              71.23603293                6.37676290               88.17829536                0.00010000               -3.24506621                2.63948100               -3.44215977                8.20796417              117.37328765              -26.38976584
              72.20939149                1.97556647               87.06195733                0.00010000               -1.46970658                4.25117791               -9.10387166                7.29429893               98.95878560              -31.88245208
              73.20663880               -2.42710290               85.75076759                0.00010000                1.49798857                6.36220624              -17.20127471                5.98872265               78.67257059              -39.09075595
              74.23935126               -6.84076934               84.23065675                0.00010000                5.53393063                8.95120885              -27.57299821                4.38490413               57.41417405              -48.56435819
              75.31731741              -11.27291000               82.49503861                0.00010000               10.30259277               12.00452308              -39.76929040                2.68373030               36.29971077              -61.08295963
              76.44540312              -15.72774394               80.54626496                0.00010000               15.07246787               15.54801906              -52.83120343                1.17192709               16.90509246              -78.03224320
              77.61876677              -20.20548631               78.40185231                0.44198264               17.33636503               19.72622065              -65.23070464                1.07467339                9.13507514             -101.49730467
              71.87278561               25.22990233               92.53423998                0.46883910                0.02351459               -0.74332355                2.13325122               -0.05129791               -0.37706522               16.07294200
              72.87302076               20.69313267               90.16887973                0.01795952               -2.24080941                0.81258876               -2.33736093                3.74970463               88.30745366              -14.10386635
              73.82796943               16.23082606               89.57811959                0.00010000               -5.54636753                2.57549799               -0.39732511                5.25146944              170.99922171              -11.91294808
              74.76209341               11.80965624               88.87647790                0.00010000               -6.30516928                3.06799346               -1.12512492                5.11946183              156.46957503              -12.70124447
              75.70186604                7.41016019               88.01248697                0.00010000               -5.08114260                4.05230972               -4.60146874                4.58102996              138.15755488              -14.41338747
              76.66047056                3.02510707               86.95959131                0.00010000               -2.60034093                5.60943408              -10.74116240                3.96105986              117.63550623              -16.94066708
              77.64985922               -1.35603844               85.69704264                0.00010000                1.02609529                7.75779946              -19.44433337                3.12694096               95.46147924              -20.47375981
              78.68099246               -5.74299957               84.20957012                0.00010000                5.64675470               10.46350020              -30.50576000                2.13499494               72.20203273              -25.31577308
              79.76279432              -10.14373938               82.48591165                0.00010000               10.90963839               13.66071062              -43.39886004                1.12163534               48.25398999              -31.97829916
              80.89918523              -14.56273907               80.51370072                0.00010000               16.05104902               17.25444312              -56.99539188                0.36945048               23.84844447              -41.56101169
              82.08381530              -18.99907194               78.27946394                0.44153265               18.46300649               21.23581842              -69.45786417                0.78565076               12.91067924              -58.26948095
              76.40113038               26.22277916               92.18839656                0.73363962                0.10071919               -0.71231613                1.92341539                0.74211922                7.27846097               13.57178187
              77.40213757               21.70185559               89.73101826                0.45104142               -5.16162146                0.87229167               -2.69091775                5.23824092              110.20821864              -12.54760815
              78.29789795               17.26931036               89.33380560                0.43748127              -10.23948267                3.84842982               -0.44372375                4.30256229              200.87443917               -6.76553816
              79.19734792               12.84804978               88.75036169                0.43708615               -9.28476280                3.83935454               -1.32663822                2.95038798              180.19487882               -7.17355360
              80.11220270                8.45780909               87.98824341                0.43710880               -7.12682993                4.76489026               -5.23511085                3.01893407              159.47533324               -7.91122509
              81.05481132                4.08775515               87.02571531                0.43748911               -3.74592201                6.26480799              -11.99869272                2.94627628              137.36595284               -9.05708572
              82.03728426               -0.27194691               85.84549877                0.43751147                0.74703895                8.40915312              -21.43985453                2.77977912              114.17396578              -10.64761753
              83.06975210               -4.63149934               84.43387633                0.43792614                6.11026836               11.15002297              -33.30312878                2.48852009               90.17757844              -12.83693181
              84.15948962               -8.99969578               82.77886052                0.43876461               11.91862934               14.40435958              -47.01579808                2.11174374               65.40356552              -15.93073550
              85.30812469              -13.38265508               80.86358983                0.44027089               17.38279442               18.00839926              -61.37457582                1.84023759               37.38830637              -20.53692032
              86.50714551              -17.78076995               78.62118871                0.72096366               19.90208249               21.83019931              -74.05280510                2.52153532               23.48427582              -32.00188307
              31.78730332               16.72022921               96.29507955                0.74938705               -0.55003281               -0.60670923                2.70350727               -0.13475442               -6.97288608                7.43787460
              32.78180299               12.07020999               95.30443960                0.47394754                0.41549543               -0.64071884                1.82240229                0.77647768               -8.09825892               -6.19054176
              33.79561323                7.44180583               94.28773110                0.45387387                1.22328058               -0.16443032                1.30057184               -0.19754599               -6.09873983                0.01477154
              34.80626860                2.84667555               93.31900798                0.44862061                0.92979560                0.05354318                0.80453117               -0.17325779               -2.94081647               -0.40987697
              35.81420914               -1.72713940               92.35453472                0.44837888                0.67635488                0.31597750                0.36262895               -0.22251773               -2.39152924               -0.19765940
              36.81979570               -6.28980477               91.39189092                0.44863621                0.50358702                0.57383043               -0.09406176               -0.24887164               -2.48336313               -0.10839239
              37.82428088              -10.85009800               90.42565216                0.44911451                0.46117632                0.83366856               -0.58949740               -0.27168634               -3.24378162               -0.05563199
              38.82901923              -15.41437980               89.45151401                0.45150894                0.53272033                1.08774347               -1.13020221               -0.27819242               -4.52251289               -0.04016467
              39.83493529              -19.98708672               88.46578730                0.45646846                0.63996171                1.33265155               -1.68430589               -0.28518620               -6.39541601               -0.07241038
              40.84181846              -24.57181508               87.46152965                0.46348711                0.70789960                1.56282530               -2.19376322               -0.25094356               -7.32561705                0.43410845
              41.84909328              -29.17303589               86.46512970                0.73526757                0.72748181                1.77791550               -2.82425599                0.89692429               -7.35768177               -4.57923321
              36.43597500               17.71416212               95.90161917                0.48904697               -0.71955383                0.49158489                2.38437236                1.12561907                6.27709498               13.22919881
              37.42877946               13.06380280               94.90872413                0.06332282               -1.52850052               -1.69727869                1.48590078                2.51259852               14.34744910              -11.47505619
              38.40540499                8.44016153               94.07669369                0.04197835               -1.98854082                1.59546541                0.44386793                6.34474429               19.83853025              -12.40854663
              39.38900864                3.84721099               93.21106786                0.03382001               -1.25904320                2.41637946               -0.71611040                8.17313131               17.65700202              -17.64516136
              40.38022412               -0.72397963               92.34767098                0.03325145               -0.51111791                2.58572715               -1.95960745                8.62045002               17.24823700              -24.96116319
              41.37878628               -5.28406646               91.48126988                0.03322301                0.18137068                2.31616540               -3.23622518                8.19693866               16.71240419              -34.57175128
              42.38385154               -9.84176132               90.61098340                0.03409656                0.79726885                1.67105237               -4.53363291                7.33274222               16.15360836              -46.67489433
              43.39473166              -14.40350237               89.73484627                0.03562572                1.34747647                0.56988040               -5.82392120                6.48837738               15.40854114              -61.40224871
              44.41080106              -18.97376020               88.85011270                0.03830419                1.87759758               -1.21657524               -7.08897738                6.26873617               14.45444067              -78.67861401
              45.43228361              -23.55618683               87.95566800                0.03988930                2.42411331               -4.02026924               -8.31499716                7.61193900               11.67943428              -98.06369631
              46.45928333              -28.15525674               87.01690341                0.46498301                2.69997192              -10.94338825               -9.29379774               13.64757858                9.34926492             -120.92861813
              41.11053434               18.73006091               95.62018442                0.47605874               -0.44787828                1.33295356                2.30374334                0.08106878               -1.04980608               18.46328156
              42.10605555               14.03626442               94.40708663                0.02338355                1.42827970               -2.48749869                1.12201928                6.80387793               20.14004454              -15.66918321
              43.13909993                9.47371514               93.61537192                0.00010000                1.39084158                1.56378329                2.45942533               15.95895656               39.93911405              -23.24755827
              44.13387238                4.89500314               92.75787235                0.00010000               -1.06021716                3.32415093                2.33907037               16.97909305               34.42699106              -34.02055444
              45.11789559                0.32457514               91.84581325                0.00010000               -1.61781112                3.72272793                1.14165491               17.51459160               29.24969448              -48.93121740
              46.10151616               -4.24348146               90.88264320                0.00010000               -1.37619774                3.34225666               -0.91784347               16.70643609               23.93162239              -68.10788967
              47.09037163               -8.81667696               89.86620993                0.00010000               -0.53652508                2.26951471               -3.80200995               15.04022060               18.12944494              -91.97983544
              48.09078566              -13.40298220               88.79419450                0.00010000                1.13114202                0.32823309               -7.61381859               13.08375891               11.95670778             -120.86312091
              49.11299447              -18.01141822               87.66648783                0.00010000                4.23840574               -2.90135956              -12.41083127               11.57396047                5.90839673             -154.78445713
              50.17555378              -22.65222047               86.48504020                0.00010000               10.35950967               -8.44538790              -17.87011876                8.66674608                0.70065199             -193.39566646
              51.32018467              -27.39190366               85.24824016                0.43824577               14.46308903              -17.41584209              -22.87369000                9.72365774                0.99199575             -235.97099991
              45.82518936               19.74082119               95.31256252                0.47400802               -0.39865712                0.75989290                2.30137245                0.07324119               -0.13176288               18.40874717
              46.82120279               15.01405283               93.94566401                0.01823642                2.03280163               -1.83964182                0.66111520                9.34447774               28.56620777              -14.49254811
              47.86584539               10.47143719               93.15102250                0.00010000                2.82638574               -0.81046429                3.46374183               18.44782986               56.12325513              -23.34896839
              48.87773050                5.91369400               92.27872558                0.00010000                0.15775817                0.75890188                3.96259367               18.56131349               49.70572016              -34.74715041
              49.86900055                1.35047493               91.31962291                0.00010000               -1.17817008                1.63827788                2.64280294               18.84801667               41.89182267              -49.24503307
              50.85416710               -3.21722133               90.27045520                0.00010000               -1.24219345                1.99352677               -0.17771453               18.52382207               33.18990594              -67.32930507
              51.84415669               -7.79637102               89.12749343                0.00010000               -0.15094966                1.82766376               -4.45355014               17.38048250               23.67542830              -89.47253845
              52.85114811              -12.39693771               87.88857387                0.00010000                2.36809310                0.96319154              -10.31948756               15.52849560               13.86228737             -116.07731432
              53.89151855              -17.03178740               86.55746160                0.00010000                6.74779303               -0.92639572              -17.80129481               12.59511322                5.09250393             -147.34425478
              54.98610397              -21.72509459               85.14849213                0.00010000               12.08021591               -4.22374138              -26.38282728                7.60518115                0.03288770             -183.28481470
              56.13312287              -26.50357358               83.69859701                0.43875248               14.70188978               -6.30164675              -34.48552036                4.00663620                0.43060412             -223.09509496
              50.56553589               20.74525877               95.01810070                0.47676610               -0.32067800                0.15757344                2.36373912                0.05416917               -0.02393903               19.58240806
              51.56232911               15.99947158               93.48029644                0.01875606                2.14397329               -1.09335342                0.11420986               10.31733118               37.22961328              -14.98907233
              52.60841535               11.45750585               92.68618512                0.00010000                3.18659062               -1.54762906                3.77184622               20.08800538               72.74229641              -23.78871864
              53.62606092                6.91018118               91.79543235                0.00010000                0.86779504               -0.89074094                4.52781796               19.82710356               64.87888657              -34.73323934
              54.62577125                2.35734070               90.79466294                0.00010000               -0.36111804                0.09175543                2.94988646               19.75747765               55.23644371              -48.12942558
              55.61883856               -2.20361092               89.67400926                0.00010000               -0.40367956                0.98570709               -0.60363390               19.29620250               44.11018201              -64.51018419
              56.61769766               -6.78012368               88.42646965                0.00010000                0.89666936                1.64011586               -6.07826547               18.03924965               31.85355900              -84.44798275
              57.63677194              -11.38371836               87.04939855                0.00010000                3.76779788                1.92224863              -13.61742299               15.68730369               19.33416708             -108.49295358
              58.69305362              -16.02994614               85.54959476                0.00010000                8.13358197                1.76678736              -23.22995756               11.86694564                8.40054830             -137.12631375
              59.79944358              -20.73669530               83.95051486                0.00010000               13.21108771                1.70780612              -34.31220031                6.20172964                1.63988575             -170.66058838
              60.95727537              -25.51793659               82.29607500                0.43890853               15.78317891                2.65604587              -45.34203072                3.44513781                1.18436310             -209.47849712
              55.31784712               21.74397266               94.72792995                0.47752274               -0.25447917               -0.33569974                2.41946720                0.05513689                0.14306922               19.93164545
              56.31530233               16.99218576               93.01598620                0.01857048                1.95243908               -0.42659252               -0.43618467               10.12444536               46.18385241              -15.04563921
              57.35689590               12.44048461               92.22386449                0.00010000                2.95677021               -1.67511822                3.60540909               19.78302987               89.95652757              -23.93258888
              58.37443773                7.89587919               91.32321536                0.00010000                1.05231558               -1.59557635                4.36794423               19.88408926               80.89613296              -33.84907463
              59.37794221                3.35231004               90.29385669                0.00010000                0.15588995               -0.69485314                2.45055028               19.69232013               69.63869812              -45.52400847
              60.37755553               -1.19750719               89.12069718                0.00010000                0.35534555                0.57209708               -1.77767685               18.94218176               56.49421290              -59.64390445
              61.38504912               -5.76356871               87.79281468                0.00010000                1.85805555                1.94451543               -8.27161841               17.31545661               41.89808959              -76.91968907
              62.41471664              -10.35849273               86.30581459                0.00010000                4.83926354                3.34166670              -17.18249069               14.56217473               26.90955270              -98.04858844
              63.48183439              -14.99645165               84.66718893                0.00010000                9.17061881                4.91388118              -28.50825253               10.50984180               13.48660743             -123.68730624
              64.59812902              -19.69093847               82.90241260                0.00010000               14.13369124                7.04874833              -41.64169181                5.34056945                4.24988578             -154.44025949
              65.76450822              -24.45045266               81.05774005                0.43892503               16.63792010               10.15850787              -55.06642778                2.96336684                2.47180125             -190.70138739
              60.07021242               22.73854477               94.43907852                0.47759468               -0.19063632               -0.66729892                2.40318378                0.03813657                0.22011406               19.80477409
              61.06830606               17.99093973               92.55209370                0.01839731                1.50850501                0.09975368               -0.92367592                9.13444638               55.59830069              -15.01347769
              62.10038252               13.42400349               91.77203456                0.00010000                2.18056083               -1.50876349                3.15226740               17.98151077              108.23409406              -23.40758882
              63.11191728                8.87826965               90.87689128                0.00010000                0.63107514               -1.63127103                3.75300504               18.61836407               98.18944137              -31.79907096
              64.11300403                4.34344363               89.83886257                0.00010000                0.08218304               -0.71121152                1.46671008               18.47814029               85.41826812              -41.22322991
              65.11356094               -0.19216898               88.63683642                0.00010000                0.59941575                0.83369984               -3.36166173               17.47855258               70.32017853              -52.61265463
              66.12499234               -4.74123337               87.25555636                0.00010000                2.36687216                2.77048404              -10.70964962               15.55291608               53.42716172              -66.78525762
              67.16089838               -9.31688503               85.68774867                0.00010000                5.53519227                5.06682108              -20.73262292               12.65220076               35.86768210              -84.52072740
              68.23569619              -13.93166852               83.93905333                0.00010000                9.96788037                7.87179204              -33.41162574                8.85181664               19.63851822             -106.59505422
              69.36025599              -18.59572033               82.03379921                0.00010000               14.99374583               11.47693807              -48.10738765                4.42334620                7.40074198             -133.72040377
              70.53557110              -23.31476644               80.01783604                0.43944760               17.53151151               16.13402473              -63.24828637                2.58457156                4.06682138             -166.36790840
              64.81381994               23.73062668               94.14794908                0.47545757               -0.12873979               -0.83845173                2.30480197                0.01355794                0.30094756               19.32730155
              65.81253254               18.99418083               92.08807147                0.01837869                0.76881280                0.46523263               -1.32239535                7.70180503               65.85244477              -15.02537903
              66.82919619               14.41030934               91.33899851                0.00010000                0.74161643               -1.09148574                2.54853821               15.20101449              128.19743539              -22.07868711
              67.82736487                9.86325376               90.47259842                0.00010000               -0.56262705               -1.05504602                2.88773575               16.28244071              117.22444648              -28.19814755
              68.81794365                5.33808581               89.45163833                0.00010000               -0.77806394               -0.00635332                0.23319684               16.10871928              102.82637948              -34.91855779
              69.81180359                0.81916681               88.24842641                0.00010000                0.14399216                1.72370462               -5.12428816               14.93056332               85.65085542              -43.23670479
              70.82082349               -3.70815903               86.84363072                0.00010000                2.31961059                4.02918571              -13.19226417               12.89146327               66.37227254              -53.93495134
              71.85819580               -8.25715631               85.22661163                0.00010000                5.84412654                6.90023275              -24.11705582               10.11910303               46.10872393              -67.77068094
              72.93770602              -12.83901581               83.39935190                0.00010000               10.57490313               10.44332566              -37.83126758                6.82718862               26.79450078              -85.57618920
              74.06969386              -17.46139971               81.38223089                0.00010000               15.82929187               14.86074739              -53.61446077                3.33717362               11.10043633             -108.28017311
              75.25429186              -22.12777217               79.21792259                0.43967422               18.45980003               20.39715550              -69.79198070                2.12277981                5.96679026             -136.63364783
              69.54337528               24.72177574               93.85241685                0.47293978               -0.07157787               -0.85525903                2.16184920                0.00628490                0.40865680               18.89492196
              70.54265950               20.00024438               91.62231482                0.01950211               -0.40226980                0.66319321               -1.64358660                6.23387214               77.53816018              -15.50814673
              71.53532988               15.40217377               90.93504372                0.00010000               -1.64349374               -0.19918402                1.89538906               11.97091466              150.78744076              -19.21146912
              72.50978963               10.85716873               90.12996967                0.00010000               -2.80322580                0.27590063                1.94178683               12.84716635              138.47355025              -22.31091858
              73.47926537                6.34331657               89.15598187                0.00010000               -2.56862935                1.32680881               -1.06697092               12.43926110              121.92739581              -26.17037799
              74.45841704                1.84230511               87.98160905                0.00010000               -1.00603181                3.10016843               -6.91799562               11.20111632              102.46052484              -31.32377979
              75.45914473               -2.66064966               86.58561809                0.00010000                1.78600927                5.56757551              -15.63551655                9.34512635               80.80026010              -38.33788381
              76.49413722               -7.17888038               84.95466285                0.00010000                5.86693106                8.72918262              -27.33895052                7.00609776               57.88940149              -47.81262519
              77.57648335              -11.72280200               83.08585213                0.00010000               11.08092994               12.61626981              -41.87628890                4.44492612               35.35089834              -60.51075744
              78.71575582              -16.29850538               80.99122901                0.00010000               16.71441377               17.31211355              -58.37425887                2.04073337               15.66294739              -77.70259314
              79.91077163              -20.90682333               78.70513438                0.43961288               19.50158045               23.03834147              -74.99592528                1.56928919                8.37937168             -101.26027160
              74.25700835               25.71352150               93.55522291                0.46662024               -0.01964008               -0.75592066                2.00198796               -0.00161113               -0.36293661               16.23642126
              75.25681194               21.00744470               91.14741169                0.01760541               -2.26591055                0.72614429               -1.90977021                5.29349646               91.75820675              -14.28942420
              76.21169013               16.40632566               90.58279328                0.00010000               -5.68232726                2.04310578                1.34619611                7.56355919              177.66568988              -12.34945036
              77.14316540               11.86877178               89.87689003                0.00010000               -6.50488204                2.16663505                1.16604555                7.66244027              161.77105302              -13.05564539
              78.08159249                7.36462199               88.97851218                0.00010000               -5.16866300                3.02743904               -2.22266393                7.00327096              142.22891254              -14.49791458
              79.03979214                2.88117018               87.86244566                0.00010000               -2.63404926                4.67490254               -8.61210030                6.12653532              120.42992021              -16.77027776
              80.02891151               -1.59680752               86.50858109                0.00010000                1.03389797                7.13784387              -18.01456453                4.92073896               96.71116176              -20.13849190
              81.06047010               -6.08257266               84.90281528                0.00010000                5.86590224               10.40659848              -30.50606736                3.47176965               71.70679373              -24.92364900
              82.14622955              -10.58669041               83.03840589                0.00010000               11.70298772               14.44138835              -45.84752524                1.95697388               46.38697896              -31.60361252
              83.29452985              -15.11515743               80.91459049                0.00010000               17.80419907               19.15769584              -62.94902223                0.74763289               22.02343260              -41.16350912
              84.50231353              -19.66700534               78.53827508                0.44003955               20.77836812               24.57016553              -79.56150264                1.08581304               11.82362769              -57.37573535
              78.95549666               26.70665733               93.20754517                0.73266707                0.02286052               -0.68641756                1.83011988                0.65982609                7.39025468               13.74292234
              79.95572527               22.01476727               90.70662074                0.44954119               -6.51113379                0.73225708               -2.12218412                6.71026061              113.97380184              -12.72726773
              80.82527399               17.44303589               90.33883698                0.43712208              -12.54915798                3.67102276                1.46169456                5.64509356              207.73309580               -7.46084862
              81.70474211               12.90050143               89.74926565                0.43726935              -10.91708014                3.17296567                1.05587512                4.19914389              184.92796762               -7.79881458
              82.60693238                8.40386535               88.94792808                0.43725902               -8.11824317                3.92433642               -2.87153534                4.29907554              162.48467901               -8.36382734
              83.54237725                3.93580316               87.91535699                0.43735386               -4.28150175                5.46329836              -10.00699989                4.17060412              138.80419637               -9.34267870
              84.52130235               -0.51789278               86.63574982                0.43738785                0.55391339                7.89147350              -20.27541908                3.91150568              113.89813088              -10.80654466
              85.55345551               -4.97074841               85.09704018                0.43682561                6.34526270               11.18242542              -33.71175626                3.49446868               88.05220527              -12.89684257
              86.64820760               -9.43397424               83.29218899                0.43770771               12.87839481               15.27161760              -50.04564964                2.96765212               61.86699542              -15.87434504
              87.81102341              -13.91535147               81.21673256                0.43865532               19.39880477               19.98059691              -68.11104824                2.57706656               34.19598303              -20.26995756
              89.03618370              -18.41542002               78.82988784                0.71990607               22.51602897               25.15853236              -84.97890888                3.38016138               21.33794658              -30.88058153
              32.71297007               17.18934112               97.31980241                0.74493938               -0.36065271               -0.40575755                2.22370003               -0.05422310               -6.89039660                7.34867460
              33.70936354               12.40587987               96.32115197                0.46986548                1.00818602               -0.63556977                1.50915777                1.32915813               -7.80653109               -6.14376288
              34.73313379                7.65685446               95.30013080                0.45237911                2.01444029               -0.06032700                1.17737419               -0.14781032               -5.42464924               -0.07032441
              35.74965235                2.95806690               94.32736362                0.44833586                1.34720559                0.08562572                0.86219402               -0.09861223               -2.14811616               -0.41558323
              36.76007790               -1.71049535               93.35943327                0.44799375                0.79251659                0.30528393                0.60021885               -0.15842373               -1.58123525               -0.17615106
              37.76550268               -6.36428140               92.39316646                0.44766258                0.39364663                0.51260250                0.32317990               -0.19433989               -1.73200032               -0.07215372
              38.76795083              -11.01595738               91.42292510                0.44785140                0.19679053                0.71759441                0.01179566               -0.22832461               -2.56983843               -0.02163717
              39.76943849              -15.67433556               90.44437202                0.44868678                0.17608980                0.91997828               -0.33461904               -0.26044275               -3.91105069               -0.00415641
              40.77147263              -20.34487724               89.45410040                0.45112680                0.24344316                1.11775635               -0.69498480               -0.27732604               -5.79528904               -0.06760170
              41.77430735              -25.03108792               88.44572533                0.45568504                0.29565239                1.29936098               -0.99841406               -0.23204413               -6.76388794                0.38136301
              42.77738568              -29.73676021               87.44410482                0.73040643                0.30783244                1.43998322               -1.41418224                1.06076624               -6.83249538               -4.27415082
              37.49588908               18.18528354               96.92357136                0.48392555               -0.69906304                1.11264712                2.00693576                1.69736161                6.20612012               13.27932435
              38.48889845               13.39952418               95.92248890                0.06220115               -2.01634550               -2.21362520                1.27099592                3.84231754               14.15422570              -11.46254423
              39.45556217                8.65625119               95.08016604                0.04119441               -2.82786595                2.70660963                0.24714790                9.93983290               19.27517855              -10.82021529
              40.43234113                3.95892316               94.20345498                0.03218538               -1.79471780                3.68979002               -0.80200820               13.07553774               16.86730894              -15.05029702
              41.41966782               -0.70744251               93.32802527                0.03082071               -0.80254201                3.73246995               -1.95009422               14.20873298               16.34636517              -21.86270089
              42.41629029               -5.35915538               92.44934763                0.03007621                0.05134264                3.19264138               -3.10924095               14.00980890               15.77607759              -31.40858889
              43.42069467              -10.00878143               91.56664760                0.03005020                0.75018514                2.17330353               -4.27837788               12.97295823               15.20497619              -43.89920728
              44.43129400              -14.66513578               90.67817536                0.03055541                1.31904386                0.54710349               -5.45795860               11.65154755               14.45356493              -59.56333798
              45.44707555              -19.33369968               89.78105928                0.03199258                1.83172000               -2.06898331               -6.64952189               10.89455988               13.53200657              -78.41643807
              46.46792840              -24.01809431               88.87472623                0.03235800                2.32950433               -6.26582203               -7.80412227               12.16672292               10.92314607              -99.89347720
              47.49366563              -28.72236038               87.92684806                0.45823832                2.57372373              -16.89431380               -8.64797038               19.96561228                8.71101575             -124.60632924
              42.31843603               19.21159406               96.64170276                0.47503252               -0.31937896                2.16902991                2.00405889                0.14659956               -1.18655566               18.89240762
              43.31524224               14.36160737               95.41755979                0.02518369                2.70477152               -3.35925850                0.98103059               10.30974420               21.42890321              -16.02209719
              44.37253146                9.71098665               94.64295962                0.00010000                2.98072820                2.67208548                3.08187676               24.47043391               42.79393412              -19.94819630
              45.37485681                5.03186270               93.78602154                0.00010000               -0.51001835                5.03569570                3.26068188               26.56199600               36.56524914              -28.91805001
              46.36233110                0.36415405               92.86297001                0.00010000               -1.39095157                5.37023602                2.23374558               28.26901668               31.07260216              -42.97996614
              47.34703778               -4.30042857               91.87995729                0.00010000               -1.44703471                4.65858061                0.38375462               27.95189656               25.52911108              -62.08740434
              48.33339040               -8.97249131               90.83505731                0.00010000               -0.98250447                3.05649625               -2.28022381               26.04666770               19.16315801              -86.70064848
              49.32738769              -13.66339349               89.72409920                0.00010000                0.44659753                0.28605913               -6.09129929               23.15920052               11.85080846             -117.35737980
              50.34232235              -18.38625691               88.54536593                0.00010000                3.94574113               -4.34441092              -11.44664655               20.25051142                4.33813214             -154.32474886
              51.40630251              -23.15640436               87.30355072                0.00010000               12.14538551              -12.51644301              -18.24370384               14.59601597               -1.54618602             -197.29333187
              52.58523006              -28.07464648               86.00979983                0.43709431               17.89275540              -26.26999103              -25.02859497               14.57983373               -0.35240837             -246.24324771
              47.19879445               20.22866414               96.33444737                0.47306810               -0.30937115                1.23003191                2.08481871                0.16612199               -0.16135648               18.98485252
              48.19570074               15.33233901               94.95167569                0.01999259                3.79605318               -2.38341615                0.54646257               13.88571561               31.02893425              -15.09635288
              49.27471552               10.70969290               94.19081407                0.00010000                5.73564594               -1.05987392                4.47645446               27.58853705               61.25413998              -20.98862548
              50.31041366                6.05963707               93.32610323                0.00010000                2.13119547                1.03660310                5.38416974               28.12747928               54.04795399              -30.77840857
              51.31733943                1.39996221               92.35495587                0.00010000                0.07799574                2.06638004                4.23041215               29.26182170               45.95475459              -44.53827268
              52.31197358               -3.26598376               91.27822116                0.00010000               -0.63732420                2.36143816                1.61264850               29.52942193               37.03330406              -62.51866174
              53.30459294               -7.94765151               90.09240161                0.00010000               -0.18649840                1.96476014               -2.47283977               28.38855773               26.75773015              -85.22417050
              54.30824361              -12.65941460               88.79270554                0.00010000                2.02518477                0.61609868               -8.52537818               25.82739809               15.35536545             -113.24478860
              55.34509664              -17.42058790               87.38099400                0.00010000                6.99973416               -2.20065582              -17.09355228               21.18927552                4.61403415             -147.05575265
              56.44823829              -22.26842317               85.87607401                0.00010000               13.83249624               -7.13796970              -27.99656062               12.88734700               -1.28613157             -187.12441538
              57.62174656              -27.24776020               84.33252416                0.43668149               17.35082719              -10.37444325              -39.30335811                6.49298743               -0.45256344             -233.36991372
              52.11440874               21.23619470               96.04101020                0.47571294               -0.24809462                0.33668159                2.22732107                0.12013824                0.00678721               20.17114726
              53.11192780               16.31393905               94.48097842                0.02023387                4.12976977               -1.34748911                0.01473773               15.08051089               40.54815748              -15.67817550
              54.19700414               11.68978917               93.73017932                0.00010000                6.76046460               -2.28488865                4.94733694               29.46784240               79.49299987              -22.21565103
              55.24713709                7.05259476               92.84990796                0.00010000                3.80921158               -1.60030046                6.12707316               29.27031675               70.74075597              -31.79975297
              56.27318837                2.40548165               91.83446178                0.00010000                1.90514207               -0.46392502                4.68487778               29.68568551               60.90587719              -44.46559158
              57.28523993               -2.25319981               90.67862716                0.00010000                1.07020111                0.53437991                1.28659151               29.61371286               49.64402202              -60.62572836
              58.29459239               -6.93319610               89.37563211                0.00010000                1.58160542                1.20347053               -4.09089340               28.26969306               36.61235981              -80.89941691
              59.31687204              -11.65107152               87.91983655                0.00010000                4.02620207                1.36405470              -12.03539008               25.06579575               22.37002879             -106.02357926
              60.37511643              -16.43027002               86.31597314                0.00010000                8.71748558                0.92149036              -23.17720775               19.32060038                9.25704392             -136.79622006
              61.49122175              -21.29916375               84.59258347                0.00010000               14.93237203                0.67708840              -37.33328327               10.33816218                1.20061567             -173.97248222
              62.67376387              -26.28213535               82.81011574                0.43754234               18.25421237                2.15509127              -52.78809199                5.45480856                0.78200452             -218.51403832
              57.04570852               22.23539777               95.75169032                0.47616132               -0.19920384               -0.37892623                2.31786619                0.09727810                0.18547683               20.38354643
              58.04371648               17.30538922               94.01135060                0.01964352                3.98540630               -0.46164717               -0.49019716               14.57627089               50.03691307              -15.65067036
              59.12541665               12.66399513               93.26678932                0.00010000                6.82055210               -2.63426320                4.84087192               28.54918940               97.72223662              -22.94601536
              60.18012752                8.02763106               92.37673413                0.00010000                4.57155325               -2.88195124                6.01076300               28.76916543               87.70932495              -31.75801397
              61.21684771                3.39068371               91.32918058                0.00010000                3.13990292               -1.95671836                4.20374965               28.85891529               76.31196109              -42.70193247
              62.24292558               -1.25529617               90.11379633                0.00010000                2.55054004               -0.52024847                0.08694430               28.24052681               63.09624352              -56.45702377
              63.26785851               -5.92358210               88.71968278                0.00010000                3.18539304                1.06182665               -6.40902914               26.29271724               47.73725872              -73.82635901
              64.30663344              -10.63213350               87.13919143                0.00010000                5.58711818                2.69533698              -15.92770329               22.51872396               30.96546718              -95.68720218
              65.37960088              -15.40215809               85.37766480                0.00010000               10.01167077                4.63493248              -29.13830303               16.54847067               15.18837948             -122.95483448
              66.50686686              -20.25488140               83.46548219                0.00010000               15.85925276                7.52394548              -45.90853106                8.57288857                4.31927213             -156.54813287
              67.69678593              -25.20465837               81.46517032                0.43742239               18.99190724               12.12714383              -64.57648494                4.52670208                2.32030958             -197.08437247
              61.97637140               23.22861617               95.46266029                0.47538705               -0.15155424               -0.83800398                2.28996034                0.08674534                0.28038752               20.04050014
              62.97485586               18.30470610               93.54297843                0.01900128                3.46873420                0.19204676               -0.89175590               12.94612321               59.70322148              -15.43198800
              64.04574608               13.63710391               92.81085310                0.00010000                6.04879800               -2.62805512                4.43741604               25.54838017              116.48105517              -22.85084081
              65.09583182                8.99495574               91.92462959                0.00010000                4.37739103               -3.28668329                5.42769278               26.50678661              105.47267773              -30.39979070
              66.13329391                4.36634728               90.86461129                0.00010000                3.42422253               -2.44017933                3.24527281               26.59373432               92.58740018              -39.12064519
              67.16431627               -0.26360478               89.61413104                0.00010000                3.19950843               -0.70635265               -1.49721562               25.52555336               77.42730072              -50.02865864
              68.19728407               -4.91195957               88.15761334                0.00010000                4.07531203                1.57693822               -8.92386077               23.07953374               59.74571447              -64.07085314
              69.24582251               -9.59716478               86.48437932                0.00010000                6.57748334                4.38909762              -19.70863312               19.08476660               40.33621081              -82.17719550
              70.32883374              -14.33757138               84.59800359                0.00010000               10.96786465                8.00028288              -34.52386842               13.56474612               21.63681314             -105.28767247
              71.46517980              -19.14868484               82.52799344                0.00010000               16.75090601               12.90743373              -53.21289577                6.88602275                7.60712172             -134.25449535
              72.66385186              -24.03959247               80.33708245                0.43783413               19.86720584               19.55453656              -74.03097383                3.80941501                3.96418020             -169.56208564
              66.89526357               24.21863769               95.17039401                0.47196268               -0.11123589               -1.01729667                2.16578713                0.09038858                0.37692855               19.39316323
              67.89415121               19.30923016               93.07558220                0.01847510                2.54355229                0.56972770               -1.17103537               10.70720124               69.97315430              -15.26119416
              68.94613461               14.61143403               92.37222364                0.00010000                4.34343398               -2.36638346                3.91635255               21.22036215              136.49289393              -21.88214903
              69.98101989                9.96189740               91.51204576                0.00010000                3.05741522               -2.93879016                4.63381548               22.87199751              124.59445827              -27.42625216
              71.00728292                5.34188012               90.46533336                0.00010000                2.53618056               -1.99328937                2.08777730               22.91634736              110.08355366              -33.50524521
              72.03174350                0.73057678               89.20821807                0.00010000                2.78631348               -0.06618026               -3.19432950               21.53630196               92.79678988              -41.27991180
              73.06300919               -3.89204333               87.72064438                0.00010000                4.10985401                2.65743118              -11.39210301               18.86888944               72.65273530              -51.68066404
              74.11394058               -8.54435155               85.98860718                0.00010000                6.97033357                6.19696390              -23.18041315               15.04868233               50.46877599              -65.57406834
              75.20241586              -13.24215243               84.01251640                0.00010000               11.63339158               10.76961233              -39.18049544               10.32771541               28.64597300              -83.84933773
              76.34660841              -17.99673272               81.81881847                0.00010000               17.61868181               16.72647154              -59.13511873                5.13924065               11.18222541             -107.42130481
              77.55478950              -22.81356764               79.46827102                0.43774676               20.81810839               24.42741201              -81.14738543                3.05108906                5.77161630             -136.94892493
              71.79699424               25.20827024               94.87331827                0.47013260               -0.07906889               -0.95676285                1.97111148                0.07732905                0.45518922               18.86153841
              72.79620355               20.31610066               92.60730765                0.01908765                1.02459244                0.69040552               -1.33301416                8.39846609               81.50466999              -15.60300266
              73.81748609               15.58977624               91.96227056                0.00010000                1.33110620               -1.56951178                3.38186457               16.28747784              158.83378685              -19.36803720
              74.82282567               10.93617994               91.16032392                0.00010000                0.27276910               -1.63250240                3.78697006               17.87404634              145.64167092              -22.12617639
              75.82294147                6.32648149               90.15695594                0.00010000                0.30700429               -0.68122194                0.89015918               17.62487072              128.93546598              -25.44269273
              76.82896576                1.73507161               88.92359742                0.00010000                1.33243626                1.26883950               -4.89502787               16.09820546              109.22771386              -30.06449582
              77.84959020               -2.85881095               87.43805725                0.00010000                3.39697476                4.15516648              -13.77994733               13.62032661               86.56985083              -36.71771713
              78.89690526               -7.47322550               85.68387774                0.00010000                6.90895130                8.02508380              -26.41388937               10.39973909               61.66150671              -46.06136841
              79.98776922              -12.12217913               83.65751284                0.00010000               12.12372840               13.00019726              -43.31753351                6.77064571               36.65674770              -58.83109667
              81.13937982              -16.81415541               81.37877978                0.00010000               18.53871269               19.26099588              -64.04098605                3.21555883               15.40178973              -76.14696297
              82.35854347              -21.55104423               78.90193380                0.43796354               21.91636516               27.11137672              -86.48062383                2.21757709                7.97296067              -99.61479207
              76.68114931               26.19950244               94.57427974                0.46337509               -0.05347855               -0.76385723                1.73253634                0.04308837               -0.33460634               16.17567792
              77.68061453               21.32303827               92.13068433                0.01686186               -1.46722116                0.63957459               -1.38505564                6.73298021               95.53687569              -14.29889678
              78.65180489               16.58004379               91.60504351                0.00010000               -3.94094816                0.91148680                2.94872294                9.93189753              185.33701798              -12.67486669
              79.60179557               11.92924735               90.89979881                0.00010000               -4.54581183                0.55711537                3.09667437               10.61011920              168.54462976              -13.26136321
              80.56088865                7.32825568               89.96803369                0.00010000               -3.13977588                1.26096231               -0.20555253                9.97848423              148.60438115              -14.31175705
              81.53900005                2.75595357               88.78734930                0.00010000               -0.85879086                3.00036506               -6.55940609                8.84560354              126.33238070              -16.20637801
              82.54371284               -1.80894000               87.33675135                0.00010000                2.31517475                5.81978464              -16.17492965                7.20850215              101.42928851              -19.30844033
              83.58530354               -6.38384988               85.59944878                0.00010000                6.75229220                9.76697557              -29.65942352                5.21216477               74.31569874              -23.95398106
              84.67875868              -10.98214849               83.56896115                0.00010000               12.72405746               14.87151190              -47.43792489                3.08525000               46.58236767              -30.56561675
              85.83978469              -15.61151281               81.25472028                0.00010000               19.70800007               21.09085209              -68.79368187                1.28870295               21.05752582              -39.97443391
              87.07291868              -20.27134011               78.68823389                0.43798963               23.31339903               28.47185688              -91.09262013                1.46979093               11.00440165              -55.37922404
              81.55078434               27.19299310               94.22499896                0.73107366               -0.04625388               -0.65093401                1.58437776                0.55340784                7.42262878               13.71992505
              82.55032180               22.32889215               91.68857457                0.44771030               -7.04346910                0.58538800               -1.43358228                7.72137127              117.90492580              -12.73573519
              83.40991496               17.60800598               91.36303949                0.43660967              -13.17528164                2.79621885                3.21424816                6.73251132              215.46576494               -8.26977074
              84.28681617               12.94732224               90.77147919                0.43712575              -10.70550115                1.80748934                3.04538384                5.68679817              190.91168332               -8.48104373
              85.19580493                8.35170074               89.93081270                0.43755285               -7.18713265                2.34450577               -0.90274519                5.87946154              167.54428983               -8.79889070
              86.14307351                3.79507892               88.82557531                0.43715471               -3.11206248                3.91253449               -8.10267414                5.70154699              143.10193368               -9.55138090
              87.13356368               -0.74241525               87.43999039                0.43705120                1.56417599                6.65247489              -18.67226791                5.33683936              116.83959281              -10.85399186
              88.17435703               -5.27788599               85.75964120                0.43664560                7.17867336               10.59638844              -33.19648597                4.78866730               88.73217980              -12.82007871
              89.27713715               -9.82474889               83.77794753                0.43630900               13.99942332               15.73995966              -52.10366911                4.11522816               59.99594556              -15.63200684
              90.45434550              -14.39233837               81.50136886                0.43723985               21.52283706               21.91744378              -74.62584447                3.61317059               31.45252039              -19.69903978
              91.70759389              -18.98160709               78.92161053                0.71908731               25.32483921               28.97330106              -97.21164299                4.54064832               19.06156785              -29.05828580
              33.64679626               17.65966480               98.33955355                0.74105757               -0.14522855               -0.18165412                1.71065886                0.04621168               -6.77091037                7.22204986
              34.64534398               12.74466087               97.33462276                0.46780141                1.70561647               -0.65167736                1.17504084                2.02573483               -7.46558490               -6.06161190
              35.68090859                7.88032887               96.31127858                0.45314291                2.93299137                0.05995334                1.03330927               -0.02059604               -4.70400118               -0.17940270
              36.70400381                3.08618117               95.33625186                0.44880759                1.79364955                0.13659489                0.89051669                0.04041385               -1.37513686               -0.40632345
              37.71678159               -1.66784642               94.36653910                0.44779660                0.88300274                0.30760306                0.78193790               -0.04184754               -0.81610120               -0.14822307
              38.72166386               -6.40361016               93.39835452                0.44688137                0.24484839                0.45810978                0.65930759               -0.10430153               -1.01928931               -0.03229002
              39.72167855              -11.13797574               92.42588808                0.44593734               -0.10204765                0.60980667                0.51574069               -0.17849601               -1.90649623                0.02933099
              40.71962291              -15.88206961               91.44482163                0.44559837               -0.20011797                0.75733123                0.35154598               -0.24220242               -3.27883688                0.04553481
              41.71767619              -20.64235651               90.45188761                0.44616438               -0.15433136                0.90020181                0.18007237               -0.28458564               -5.13580496               -0.03461962
              42.71653628              -25.42218961               89.44156137                0.44866856               -0.09959009                1.03078417                0.09210024               -0.24029565               -6.11464915                0.34365309
              43.71568439              -30.22400538               88.43684605                0.72618015               -0.08518893                1.09270486               -0.11305951                1.17598153               -6.20395365               -3.88409567
              38.56226231               18.65784826               97.94175788                0.48113878               -0.69930194                1.86841276                1.64093417                2.44422763                6.09091796               13.27362466
              39.55526930               13.73814409               96.93414405                0.06328547               -2.61599163               -2.90125904                1.07225615                5.55564559               13.82771574              -11.43767761
              40.50994248                8.88092840               96.08163665                0.04095098               -3.83868535                4.18871578                0.08086290               14.75056468               18.49254378               -8.78924738
              41.47849559                4.08754712               95.19502770                0.03051901               -2.43418536                5.39063592               -0.86473109               19.77321890               15.93468470              -11.88394459
              42.46125878               -0.66477039               94.30866909                0.02806963               -1.14050416                5.29458199               -1.86877832               22.10270580               15.32290614              -18.15842851
              43.45568551               -5.39902906               93.41908506                0.02651153               -0.10677276                4.47535403               -2.86884224               22.56199718               14.73227774              -27.56091251
              44.45912332              -10.13187767               92.52541585                0.02562169                0.68528832                3.07658989               -3.90050263               21.61735456               14.13043537              -40.29608318
              45.46939127              -14.87449630               91.62568710                0.02517544                1.28835070                0.87048230               -4.97151159               19.81967370               13.35249731              -56.82496674
              46.48489033              -19.63335450               90.71712226                0.02554769                1.77832433               -2.77457021               -6.07270258               18.26219644               12.43294998              -77.48968984
              47.50495776              -24.41188177               89.79958556                0.02515931                2.21848232               -8.86226407               -7.17272192               19.19680198                9.99624763             -101.79386239
              48.52925998              -29.21307833               88.84394400                0.45166578                2.43022223              -24.92196658               -7.89508357               29.12803800                7.93470090             -129.40100930
              43.53508915               19.69703306               97.66026560                0.47609149               -0.17123966                3.16812699                1.71233143                0.22242658               -1.34331468               19.28949049
              44.53337675               14.68663569               96.42670724                0.02874325                4.57138569               -4.47184753                0.86491573               14.86077995               23.00651527              -16.46964110
              45.62651686                9.96410318               95.67700945                0.00010000                5.58951111                4.17582924                3.71781807               35.69581846               46.43680914              -15.82454389
              46.64516697                5.19399389               94.82308598                0.00010000                0.94475104                7.33461497                3.96873396               39.49971165               39.64235016              -22.78851902
              47.64541188                0.43804522               93.89048816                0.00010000               -0.25779436                7.64940483                2.97127498               43.33109854               34.46372463              -35.91074537
              48.64001109               -4.31410308               92.89031830                0.00010000               -0.79594998                6.63823126                1.45527712               44.36063845               29.41413081              -54.75297494
              49.62949288               -9.07644394               91.82060545                0.00010000               -1.12589407                4.52242212               -0.59612266               42.75733497               22.93341877              -79.79567606
              50.61749321              -13.86465997               90.67236852                0.00010000               -0.45936487                0.84627342               -3.88349557               38.94338906               14.26059832             -112.03770813
              51.62030559              -18.69784792               89.43755490                0.00010000                3.13514757               -5.50775789               -9.48635749               34.03827540                4.25603338             -152.44764406
              52.68019616              -23.59943489               88.12016613                0.00010000               14.01663490              -17.23669404              -17.96786602               23.96483135               -3.64135950             -201.21533223
              53.90063828              -28.72244471               86.74766826                0.43551395               22.04421275              -37.91047140              -27.62071101               21.79458357               -2.01239426             -259.77300714
              48.58750559               20.72121080               97.35425889                0.47272547               -0.20908155                1.72028508                1.88904722                0.28193626               -0.17689985               19.54970571
              49.58541477               15.64870714               95.95659326                0.02265209                6.44975320               -3.02012661                0.43797250               19.69902818               34.00867027              -15.85524336
              50.71650065               10.96444498               95.24055159                0.00010000               10.45665071               -1.34428001                5.34306889               39.41806130               67.68708710              -18.18466660
              51.79454778                6.23423942               94.38640897                0.00010000                5.97385328                1.47806638                6.23109696               40.75996613               60.08234059              -26.13936023
              52.83597771                1.48821771               93.40423116                0.00010000                3.14198251                2.78794662                4.97935131               43.46269248               52.76082206              -39.01581085
              53.85738743               -3.26626444               92.30270817                0.00010000                1.44245966                3.12012080                2.71941591               45.04453258               44.81904009              -56.66256540
              54.86482691               -8.04142923               91.07803664                0.00010000                0.61377975                2.55253798               -0.60991924               44.39680945               34.54454517              -79.64472031
              55.86966303              -12.85757083               89.71806631                0.00010000                1.78019273                0.69920622               -6.10850916               41.21289295               21.33890283             -108.91687291
              56.90043076              -17.74350965               88.21559056                0.00010000                6.95940749               -3.23467106              -15.35094184               34.30485870                7.27824897             -145.54982034
              58.00885118              -22.75661565               86.58856092                0.00010000               15.53702680              -10.30591159              -29.15333294               21.06695185               -1.28015323             -190.97947159
              59.21117130              -27.97128776               84.91252985                0.43546311               20.23201194              -14.92094061              -45.47176378               10.39342142               -0.94574166             -246.61132430
              53.68573519               21.73143876               97.06264712                0.47494681               -0.16120541                0.43913483                2.09150295                0.21596487                0.04603475               20.67900999
              54.68412313               16.62623315               95.48059119                0.02211716                7.18053135               -1.57673990               -0.08832980               21.06528204               44.46891668              -16.46996709
              55.82934581               11.93721758               94.78513186                0.00010000               12.62352213               -3.17772303                5.77082192               41.33892573               87.76921447              -20.39726098
              56.93659357                7.22355522               93.91797381                0.00010000                9.29118881               -2.41210742                6.81352741               41.41358770               78.66623829              -28.37101670
              58.01516959                2.49380415               92.88836050                0.00010000                6.69775503               -1.00479096                5.19900979               42.79428179               69.95632909              -40.04176975
              59.07054868               -2.25170066               91.69974109                0.00010000                4.67829400                0.20564505                2.14823286               43.61967181               60.01168770              -55.67203088
              60.10873547               -7.02539318               90.34465178                0.00010000                3.66414065                0.96760540               -2.48914309               42.52985538               47.14190656              -75.96431703
              61.14383149              -11.85067584               88.80869075                0.00010000                4.83560521                1.03956445              -10.03056968               38.46163870               31.01430908             -101.96745673
              62.20544757              -16.76254134               87.08605061                0.00010000                9.27409062                0.29654307              -22.29971706               30.20015943               14.29237067             -135.04532659
              63.32931330              -21.80555312               85.20384919                0.00010000               16.62016832               -0.03477200              -40.26796255               16.49177860                2.79262125             -176.77424754
              64.53785094              -27.02086352               83.24031317                0.43603754               20.85376394                2.60904650              -62.40306574                8.48730173                1.19438346             -229.16265010
              58.80223609               22.72999350               96.77428727                0.47442271               -0.12945014               -0.53938369                2.20046615                0.19032072                0.26217358               20.66483952
              59.80094159               17.61717235               95.00618226                0.02083283                7.18605062               -0.40823920               -0.55406163               20.04757860               54.46828195              -16.26510257
              60.94595710               12.90089052               94.32068193                0.00010000               13.26456903               -3.78326143                5.55570762               39.39157878              107.00397573              -21.76782898
              62.06623297                8.18599727               93.44343062                0.00010000               11.05810647               -4.42965026                6.51585759               39.91252190               96.68507055              -29.18738665
              63.16711923                3.46812189               92.37793168                0.00010000                9.13726176               -3.44631014                4.53624898               40.59660943               86.58427748              -39.05387935
              64.24897820               -1.26215154               91.12243607                0.00010000                7.36399826               -1.77316101                0.77444667               40.41786063               74.85157252              -52.07012650
              65.31439920               -6.02207712               89.66463410                0.00010000                6.35328785                0.08905713               -5.02941934               38.31474369               59.73227286              -69.17668587
              66.37604396              -10.83677954               87.98726052                0.00010000                7.24560160                2.04155761              -14.31710072               33.39495944               41.04015574              -91.51476469
              67.45931123              -15.73757879               86.08442287                0.00010000               11.04824878                4.51338864              -29.02389337               24.94196073               21.43180625             -120.42251549
              68.59700894              -20.75731109               83.98424198                0.00010000               17.61134565                8.57033018              -50.24350497               13.12391127                6.63061354             -157.35620940
              69.81153814              -25.91910683               81.76621035                0.43623581               21.45292048               15.58773397              -76.52523160                6.76171239                3.10350012             -203.29097588
              63.91518390               23.72065108               96.48487773                0.47228104               -0.10062243               -1.10807625                2.15056122                0.17903053                0.38380167               20.07789736
              64.91417768               18.61806837               94.53425858                0.01950359                6.65842811                0.37276914               -0.86391737               17.50628380               64.29947555              -15.80056806
              66.04835246               13.86155235               93.86078288                0.00010000               12.67174858               -3.98208095                5.10068356               34.67636258              126.10674582              -22.04957504
              67.16761265                9.13496221               92.98544514                0.00010000               11.34490605               -5.34814407                5.86966278               36.16184681              114.84975340              -28.46468754
              68.27525058                4.42487795               91.90376803                0.00010000               10.07461241               -4.62428166                3.56133317               36.70985465              103.32750213              -36.11484775
              69.36910490               -0.28716388               90.60689210                0.00010000                8.72038834               -2.68731373               -0.79436761               35.74800879               89.67704320              -46.15881362
              70.44965835               -5.02361204               89.07707914                0.00010000                7.90637249               -0.00695477               -7.55840829               32.82045376               72.21804385              -59.71124934
              71.52723235               -9.80984469               87.29357601                0.00010000                8.75799894                3.43217223              -18.23074014               27.54969057               50.82082815              -77.89848372
              72.62481833              -14.67227357               85.24857596                0.00010000               12.30436086                8.10334939              -34.77174121               19.84005740               28.15163856             -101.91357504
              73.77331956              -19.63414652               82.96954129                0.00010000               18.59291722               14.83494706              -58.25288845               10.18697692                9.99891617             -132.84932899
              74.99667667              -24.70910885               80.53721657                0.43634392               22.33571110               24.37524064              -87.06036068                5.46781460                4.75193258             -171.19798503
              69.01098213               24.70783197               96.19126482                0.46931826               -0.08161313               -1.27651516                1.98227254                0.14539549                0.45281810               19.19385680
              70.01016600               19.62462773               94.06465077                0.01826941                5.58041927                0.75069191               -1.01466902               14.15199299               74.45696942              -15.36158705
              71.12259051               14.82124890               93.41732556                0.00010000               10.79891567               -3.97795937                4.63876448               28.25217717              145.96785383              -21.37453446
              72.22614431               10.07903439               92.56527473                0.00010000               10.04259537               -5.40350278                5.15734749               30.73561847              133.90389433              -26.08222509
              73.32344242                5.37563625               91.49339388                0.00010000                9.31420291               -4.65577784                2.54996019               31.22592017              120.76892572              -31.18847843
              74.41242837                0.68410219               90.18453982                0.00010000                8.50233298               -2.54760802               -2.30484062               29.74563157              104.93058671              -38.08211308
              75.49348908               -4.02221622               88.61578866                0.00010000                8.16354659                0.62505377               -9.84964272               26.41823959               84.92031608              -47.87042459
              76.57569930               -8.76813610               86.76300336                0.00010000                9.34625611                4.94476783              -21.58763989               21.36919217               60.67688629              -61.54485690
              77.68041420              -13.57551180               84.61574199                0.00010000               13.09422271               10.82024422              -39.42018949               14.87109437               34.85234450              -80.08024707
              78.83758375              -18.46061215               82.19952852                0.00010000               19.52024439               18.84000319              -64.29224017                7.49804372               13.32342046             -104.40237430
              80.07081909              -23.43160202               79.59497488                0.43637276               23.32353360               29.50134011              -94.35620813                4.26331888                6.38850187             -135.05167002
              74.08450030               25.69512078               95.89183908                0.46657367               -0.06996929               -1.12388025                1.68280471                0.12238892                0.49956379               18.46946603
              75.08380060               20.63308221               93.59565454                0.01817912                3.72445246                0.77860553               -0.98103346               10.67460398               85.67861802              -15.45364873
              76.15898935               15.78199316               93.00268101                0.00010000                7.20685321               -3.45947525                4.25356917               21.02677218              167.80462598              -19.21283306
              77.22793767               11.02689216               92.20570907                0.00010000                6.78559209               -4.33225721                4.48896865               23.73463666              154.55618819              -21.43225700
              78.29470119                6.33176239               91.17378505                0.00010000                6.69661657               -3.55530860                1.58702094               23.88395011              139.19676630              -23.94665554
              79.36187000                1.66188396               89.88370849                0.00010000                6.77801223               -1.45187309               -3.73953835               22.12101858              120.79225503              -27.77520265
              80.43026143               -3.01111096               88.31001915                0.00010000                7.30208885                1.86533786              -11.97396306               18.95377186               98.12446877              -33.83232307
              81.50791178               -7.71094934               86.42638507                0.00010000                9.22274153                6.53601760              -24.58445075               14.70586274               71.08550590              -42.82895956
              82.61471626              -12.45586868               84.21950146                0.00010000               13.57294372               12.85371833              -43.35293295                9.78970417               42.15324545              -55.46034850
              83.77937065              -17.25734645               81.71040929                0.00010000               20.46032666               21.16884748              -68.99232125                4.78052555               17.09942981              -72.66250381
              85.02392280              -22.11908204               78.97552190                0.43637113               24.45521452               31.86677343              -99.39137410                3.05420367                8.31665999              -95.72503285
              79.13750705               26.68535437               95.58987364                0.45952980               -0.07213584               -0.77516965                1.32549573                0.09943308               -0.27676446               15.79504545
              80.13678569               21.64019984               93.11971058                0.01564528                0.59044795                0.55949302               -0.78565896                7.93438404               99.32530359              -14.05474924
              81.14931601               16.75205940               92.64176774                0.00010000                0.71410623               -1.01723294                3.98223654               12.24423637              193.61150113              -12.79568270
              82.15106782               11.99238925               91.93882351                0.00010000                0.84068069               -1.96861794                3.96363595               13.98677906              176.86891296              -13.17837172
              83.16612962                7.30453008               90.97440113                0.00010000                2.33271393               -1.47164422                0.67314780               13.58481771              158.05373280              -13.66609864
              84.19772209                2.65506473               89.73125754                0.00010000                3.96340926                0.32197859               -5.21378915               12.19643423              136.85389613              -15.02750487
              85.24539781               -1.98490946               88.18508250                0.00010000                5.84260887                3.48301257              -14.17988494               10.06432041              111.75240667              -17.73455539
              86.31457427               -6.63741575               86.30962681                0.00010000                8.86037979                8.17072501              -27.64656971                7.43511105               82.39596794              -22.12489758
              87.42260540              -11.31843744               84.08964739                0.00010000               14.09166767               14.56407750              -47.29547524                4.59315719               50.79933906              -28.53635535
              88.59640763              -16.03723520               81.53871686                0.00010000               21.63844696               22.73585121              -73.52532234                2.06055261               21.96086185              -37.59194416
              89.85537434              -20.79426655               78.71642267                0.43644210               25.89667171               32.78715167             -103.59443523                1.94731098               10.87418761              -51.77245476
              84.17679801               27.67961739               95.23923272                0.72943919               -0.10147608               -0.57369783                1.16533318                0.39456446                7.30248248               13.45228544
              85.17578325               22.64427207               92.67794909                0.44600767               -6.25566727                0.40722301               -0.63635012                8.00131200              121.58201313              -12.52834986
              86.05168467               17.76164851               92.40312194                0.43644327              -11.02903426                0.95891071                4.36555544                7.39925231              223.58504576               -9.15202876
              86.95520257               12.98751980               91.81017333                0.43746583               -7.39813039               -0.48694477                3.92344294                7.44752516              198.17924210               -9.14215928
              87.90372206                8.30232951               90.92987318                0.43704357               -2.99821702               -0.22005747               -0.09855659                7.79943024              175.43229099               -9.11409479
              88.89523823                3.66832353               89.75330351                0.43691750                1.01531283                1.32587998               -6.87977627                7.56260223              151.83020468               -9.57603282
              89.92402832               -0.94145071               88.26230446                0.43653999                4.74518742                4.34587479              -16.81098866                7.07013278              125.23474976              -10.69358905
              90.99014197               -5.54753483               86.43311046                0.43605015                9.11852693                8.98809131              -31.31150281                6.39994933               94.69888846              -12.52953822
              92.10639885              -10.16458713               84.25011561                0.43584996               15.31344197               15.38503056              -52.11143037                5.62461546               61.82018008              -15.13787858
              93.29641081              -14.80262943               81.72421567                0.43538595               23.52664334               23.46057669              -79.64083804                5.06272504               30.15404256              -18.73329643
              94.57693172              -19.46333901               78.88565498                0.71814121               28.05209073               33.09275391             -110.00981496                6.08477987               16.98292043              -26.28322678
              34.58741346               18.12937346               99.35401558                0.73767477                0.09133560                0.06705269                1.15774224                0.17532259               -6.59356566                7.03673114
              35.58832682               13.08560504               98.34465279                0.46482770                2.50056023               -0.69189102                0.82645644                2.88355816               -7.07271759               -5.93475976
              36.63742467                8.11255027               97.32079698                0.45385273                3.92811374                0.21851070                0.89370306                0.04965919               -3.99783430               -0.23401731
              37.66688909                3.23238875               96.34517395                0.44870951                2.21142739                0.20213870                0.86651774                0.19782676               -0.72832491               -0.36308176
              38.68165321               -1.59771979               95.37507203                0.44704711                0.94394141                0.31596511                0.86013310                0.10268416               -0.22656233               -0.10109988
              39.68576792               -6.40638828               94.40635262                0.44586155                0.08502952                0.40508807                0.85167905                0.00679185               -0.45377992                0.01718363
              40.68335380              -11.21442630               93.43323991                0.44402011               -0.39528479                0.50058271                0.85088915               -0.10362318               -1.32375116                0.07752432
              41.67786222              -16.03515582               92.45140294                0.44255425               -0.56685071                0.59738119                0.85304399               -0.20310161               -2.66042098                0.09904702
              42.67201679              -20.87603894               91.45770185                0.44238543               -0.54031508                0.68781722                0.86579790               -0.27344087               -4.43357582                0.01195494
              43.66705592              -25.74026323               90.44756734                0.44357172               -0.46397769                0.76869214                0.98412480               -0.23238480               -5.38574864                0.28984153
              44.66273724              -30.62863801               89.44184363                0.72359948               -0.43186868                0.74352437                0.97955983                1.25307538               -5.46552784               -3.44506472
              39.63293510               19.13004399               98.95639004                0.47994814               -0.73611073                2.77547003                1.30020281                3.42786435                5.91037582               13.16397688
              40.62557400               14.07868613               97.94393402                0.06775419               -3.42028502               -3.79198542                0.92210367                7.74966339               13.37099436              -11.41563653
              41.56452940                9.11473537               97.08178329                0.04158180               -5.07858035                6.15152841               -0.05083845               21.15941247               17.51897112               -6.32282319
              42.52400239                4.23441014               96.18616035                0.02886795               -3.12304146                7.61611460               -0.86488908               28.90202487               14.87640845               -8.36943700
              43.50206857               -0.59456014               95.29064970                0.02494711               -1.49066487                7.40484323               -1.65324628               33.29862596               14.21382687              -14.27649090
              44.49418909               -5.40233740               94.39197078                0.02245697               -0.26836181                6.36385501               -2.46846352               35.22874251               13.56756591              -23.45951170
              45.49670134              -10.20942047               93.48863754                0.02074727                0.62242191                4.67003415               -3.35064289               34.99050785               12.90620342              -36.07969675
              46.50663753              -15.02918200               92.57874513                0.01950163                1.25673760                1.93144757               -4.31354529               32.90238414               12.08879887              -53.04762999
              47.52183609              -19.86916077               91.65960523                0.01906311                1.71970396               -2.88195728               -5.32384821               30.21171569               11.13522336              -75.49339377
              48.54103161              -24.73257631               90.73127179                0.01831018                2.09033399              -11.47115637               -6.37813947               30.21320204                8.87536120             -103.50794738
              49.56364277              -29.62120277               89.76894639                0.44605411                2.26111603              -35.50272323               -7.00350670               42.49938801                6.98125262             -135.72790310
              44.75868646               20.18488286               98.67594938                0.47881225               -0.00577558                4.36163734                1.43382662                0.37087786               -1.49989601               19.62835388
              45.75862870               15.00976534               97.43485811                0.03498559                7.31012267               -5.86679710                0.79670170               20.73527101               24.84516415              -17.08392043
              46.90488891               10.23558083               96.71731598                0.00010000                9.77982025                6.15708952                4.27327960               50.45289278               50.88594543              -10.99982418
              47.95422510                5.38471105               95.86539622                0.00010000                3.97421839               10.37759492                3.97311327               56.95873788               44.05507262              -16.11863130
              48.98437328                0.55037707               94.92239551                0.00010000                2.54889981               10.81668969                2.63200820               64.51829326               40.38675571              -28.49468611
              50.00520310               -4.27911118               93.90906283                0.00010000                1.28176423                9.68397676                1.55334694               68.44785596               37.30119881              -46.78825226
              51.01000856               -9.12102562               92.82313486                0.00010000               -0.47764477                7.24141134                0.71018228               68.30043463               31.75446717              -71.50702927
              51.99565021              -13.99652686               91.64642928                0.00010000               -1.51815750                2.75538565               -1.08752686               63.90888705               21.91153931             -104.46878296
              52.97964541              -18.93367809               90.35563878                0.00010000                1.38558778               -5.54596209               -5.96257032               56.25857123                8.02759057             -148.14148779
              54.02336196              -23.96968636               88.94419340                0.00010000               15.51662499              -21.95596756              -16.21517230               38.98249698               -4.50209613             -204.29172430
              55.28997791              -29.33869248               87.45738561                0.43463068               26.66159498              -52.57144099              -30.70769255               32.66194317               -3.88847550             -277.61631451
              49.99058771               21.21727673               98.37222831                0.47359077               -0.10062680                2.24318278                1.69424107                0.44508797               -0.17911600               20.06579807
              50.98958144               15.96135019               96.96043514                0.02656457               10.40269188               -3.74073136                0.34242426               27.03965622               37.38348087              -16.81362672
              52.19864155               11.23787716               96.29767545                0.00010000               17.93997330               -1.69336088                5.72233192               54.53643716               75.40188966              -15.17370132
              53.34838091                6.44196204               95.45072517                0.00010000               12.88075595                2.17208667                5.54607561               57.34522989               68.37074024              -21.27645524
              54.45625667                1.62177365               94.45454289                0.00010000                9.30839947                4.02843292                3.60521575               62.77772440               63.82183212              -33.14768454
              55.53454890               -3.20865787               93.33260948                0.00010000                6.19345210                4.63714289                1.87941300               66.88066996               59.10438573              -50.07898888
              56.58012571               -8.06459225               92.08020323                0.00010000                3.14594218                4.09728557                0.13787895               67.65279416               50.45764153              -72.69157895
              57.59746774              -12.97407429               90.67053536                0.00010000                2.00206500                1.84559995               -3.50155088               64.23107108               35.82466212             -102.52660319
              58.62016701              -17.98008001               89.07397516                0.00010000                6.41140971               -3.31653877              -12.18821849               54.42693116               16.72860834             -141.77496726
              59.72569594              -23.17169566               87.29300735                0.00010000               16.73634280              -13.03217028              -29.14863974               33.84490414                2.16826394             -193.77988020
              60.95489387              -28.67263159               85.42308888                0.43477378               22.91979295              -19.01881872              -53.58877148               16.64369148               -0.21682378             -262.98118953
              55.27944130               22.22974652               98.08284026                0.47367743               -0.06199047                0.45936119                1.93424017                0.34913445                0.12774382               21.10360939
              56.27882139               16.93495071               96.47921182                0.02450231               11.77822528               -1.74652062               -0.19132589               28.45365579               48.73359375              -17.40290580
              57.51500580               12.20171362               95.84559576                0.00010000               21.92059098               -4.24448214                5.68312656               56.14041584               97.33443755              -18.60597661
              58.71723321                7.42815278               94.98617850                0.00010000               18.77709332               -3.27750150                5.36100475               56.87151967               89.17237666              -24.71751111
              59.89054767                2.63094573               93.93844198                0.00010000               15.59745915               -1.37875314                3.01422928               59.93750215               83.94939061              -34.99122904
              61.02918240               -2.18636833               92.72159182                0.00010000               11.89665976                0.24040810                0.57147041               62.43400405               77.86375643              -49.55591569
              62.12848087               -7.03907991               91.32584925                0.00010000                8.32884982                1.25245372               -2.38683172               62.21536365               66.99505135              -69.20154853
              63.19575939              -11.95961486               89.71922516                0.00010000                6.86622697                1.33801179               -8.12011263               57.46255447               49.46790068              -95.40274786
              64.26580541              -17.00000886               87.86997880                0.00010000                9.85261127                0.34731325              -20.28334008               46.01868146               27.39795596             -130.45992115
              65.39281162              -22.23032977               85.78722422                0.00010000               17.94590931                0.19989873              -42.49530402               25.64678622                8.73951293             -177.41965746
              66.62472359              -27.71906885               83.56205442                0.43487229               23.19119731                5.26251484              -74.83333120               13.12735811                3.46300853             -240.08466320
              60.58716202               23.22646396               97.79569964                0.47316796               -0.04745575               -0.82749726                2.06044952                0.28780313                0.35902814               20.80816325
              61.58668746               17.92641978               96.00026937                0.02220315               12.05428893               -0.23622370               -0.63063544               26.63211896               59.10312811              -16.92721092
              62.82824780               13.15298752               95.37790347                0.00010000               23.49458651               -5.11224152                5.06275831               52.58404370              117.37040189              -20.56522398
              64.05657919                8.37641201               94.50705129                0.00010000               22.06400102               -6.21674490                4.60043664               53.69097988              108.16463315              -26.21086937
              65.26952782                3.59419859               93.41990556                0.00010000               19.83377126               -5.11788031                1.98789915               55.37937971              101.80793880              -34.44681647
              66.45325462               -1.20384971               92.12928527                0.00010000               16.40758530               -3.12582359               -1.06004985               56.08109314               94.13792434              -46.11450470
              67.59767952               -6.03954317               90.61909439                0.00010000               12.71965877               -0.91296082               -5.14881418               54.15079163               81.14795211              -62.27694893
              68.70764779              -10.94731405               88.85284942                0.00010000               10.67880092                1.43687831              -12.72378147               48.06961425               61.06301653              -84.38591157
              69.81125554              -15.97313375               86.79718693                0.00010000               12.50219288                4.64234295              -27.64583350               36.48560943               35.87168582             -114.42231933
              70.95769165              -21.16769769               84.46061209                0.00010000               19.18318296               10.46859048              -53.74420639               19.47291769               13.31805597             -154.75528299
              72.19491920              -26.56738129               81.93466569                0.43522734               23.72275514               21.33760724              -91.06544327                9.97245804                5.73321009             -206.92106806
              65.88528572               24.21319657               97.50567152                0.47007536               -0.03455078               -1.54552437                2.00099320                0.22226731                0.50656195               19.86887369
              66.88494021               18.93022623               95.52570008                0.01999915               11.57043652                0.70913434               -0.86597212               22.84073075               68.93837430              -16.09217319
              68.11669445               14.09946879               94.91286678                0.00010000               23.24507662               -5.54711553                4.42088271               45.51057870              136.52203383              -21.08203158
              69.34984174                9.30381788               94.04202285                0.00010000               23.08512656               -7.82115249                3.82414921               47.77848003              126.48335784              -25.93361900
              70.57839698                4.52858812               92.93583795                0.00010000               21.73521382               -7.30525303                1.04017500               49.05829276              118.73163081              -31.96095208
              71.78454602               -0.24888480               91.59824368                0.00010000               18.82820336               -5.20160814               -2.48550449               48.43892960              109.12009886              -40.57347629
              72.95496105               -5.05733912               90.00644518                0.00010000               15.30981174               -2.14243309               -7.49046372               45.16399701               93.77108714              -53.02713985
              74.09074225               -9.93087730               88.11976451                0.00010000               13.04700898                1.96281522              -16.47802853               38.50271498               70.93483238              -70.64346859
              75.21590123              -14.90716200               85.90256877                0.00010000               14.28876307                7.92254345              -33.34994566               28.08006995               42.55523161              -94.97475879
              76.37651752              -20.02095796               83.36293567                0.00010000               20.38193664               17.10247389              -61.90462548               14.54987928               16.49974583             -127.54267642
              77.62353996              -25.29231671               80.59587524                0.43495659               24.70224438               30.72374594             -101.88158151                7.70150515                7.22457110             -168.88968571
              71.15754804               25.19555347               97.21003947                0.46555262               -0.03181775               -1.70729151                1.76872523                0.20834422                0.54020634               18.64450164
              72.15722986               19.94060247               95.05528882                0.01783804               10.36598429                1.08708158               -0.88253362               18.02427560               78.82158267              -15.27120569
              73.36486772               15.04204521               94.46499893                0.00010000               21.28997965               -5.91956921                3.97503380               36.31080564              155.94257409              -20.51446190
              74.58302945               10.21998896               93.61519271                0.00010000               21.92643132               -8.49159326                3.24972199               39.95259869              145.18963869              -23.98857730
              75.80339635                5.44809353               92.51633257                0.00010000               21.24654997               -8.10234964                0.32082910               41.13047846              135.77487452              -27.65958249
              77.00796045                0.69211813               91.16212125                0.00010000               18.97778064               -5.91326824               -3.61125623               39.67726904              123.84993236              -33.22990725
              78.18295196               -4.08239183               89.52365153                0.00010000               15.97822603               -2.37060626               -9.36192855               35.71330327              105.85806544              -41.94407229
              79.32752497               -8.90805775               87.55685439                0.00010000               13.99928171                2.72245788              -19.40532841               29.30498793               80.13783062              -54.89077850
              80.46293760              -13.81468288               85.22411261                0.00010000               15.31594810               10.09352563              -37.57075948               20.66591101               48.61701539              -73.16592914
              81.63384393              -18.82564821               82.53297366                0.00010000               21.43646032               20.71820649              -67.50138572               10.53034864               19.32851059              -97.79573434
              82.89166680              -23.95290637               79.58114685                0.43498916               25.78228680               35.26620120             -108.59576427                5.82975864                8.54396127             -129.21641833
              76.39935461               26.17905074               96.90697436                0.46196701               -0.04206280               -1.37718839                1.34836767                0.21131748                0.57672791               17.65832771
              77.39893398               20.95196787               94.58768698                0.01677601                8.20847287                0.95231305               -0.64964473               13.00116518               89.56260951              -15.01505533
              78.56352407               15.98107740               94.04734195                0.00010000               17.19557076               -5.91780034                3.79863110               26.10362041              176.97035799              -18.58936726
              79.74284540               11.13398602               93.25010330                0.00010000               18.26766542               -7.93866477                2.92069745               30.44873536              165.16393908              -19.96322896
              80.92887738                6.36654113               92.18869636                0.00010000               18.28656815               -7.46239757               -0.18193865               31.24983780              153.45018829              -21.34095646
              82.10857676                1.63284984               90.84880666                0.00010000               17.02628083               -5.31548373               -4.53577156               29.30718854              138.76703867              -24.08563237
              83.26940299               -3.10475125               89.19857799                0.00010000               15.02781485               -1.67622949              -10.96091017               25.40808800              117.98931422              -29.25902672
              84.40913306               -7.87642814               87.19218872                0.00010000               13.87034561                3.74922648              -21.85450893               20.02963973               89.45276563              -37.58677349
              85.54680991              -12.70529149               84.79045418                0.00010000               15.81074619               11.55965700              -40.91564040               13.62760676               54.96817103              -49.71790182
              86.72534798              -17.60659383               81.99893335                0.00010000               22.39207758               22.42450700              -71.53989330                6.83407598               22.52353579              -66.41510599
              87.99465146              -22.58699268               78.91410632                0.43530285               26.93034756               36.79920472             -112.80934145                4.12631418               10.12257396              -88.65290638
              81.61594014               27.16800970               96.60078966                0.45556866               -0.07136344               -0.78650554                0.81704900                0.16623459               -0.21255990               14.98656029
              82.61522650               21.95964873               94.11497115                0.01387172                4.44909222                0.49401330               -0.17387587                8.74091809              102.57882106              -13.46129140
              83.70492198               16.92368920               93.68468824                0.00010000                9.56569640               -3.94102064                3.79509978               14.37172528              201.71646229              -12.55014191
              84.80654043               12.06121566               92.97907153                0.00010000               11.23036510               -5.61032903                2.75514017               17.79803730              186.63151846              -12.56820516
              85.92952928                7.29884558               91.98149664                0.00010000               12.94280847               -5.40331949               -0.67756485               17.85179928              171.23499674              -12.29154333
              87.06539660                2.58580846               90.68307352                0.00010000               13.54312083               -3.66917571               -5.56797818               16.19537835              153.52294793              -12.97485033
              88.20039170               -2.11591642               89.05315365                0.00010000               13.16307062               -0.29898544              -12.70430265               13.50835276              130.17201294              -15.15598572
              89.32865801               -6.83307322               87.04651738                0.00010000               13.26318583                5.04920418              -24.39669754               10.19086408               99.25699125              -19.14837119
              90.46565542              -11.58348974               84.62305164                0.00010000               16.17843157               12.84242968              -44.25318746                6.57703937               62.22945261              -25.19275660
              91.65222664              -16.37715807               81.78421383                0.00010000               23.46676910               23.42959492              -75.36695053                3.15532305               26.57507615              -33.65090508
              92.93499080              -21.21692228               78.61634519                0.43540354               28.27641546               37.06282235             -116.09751245                2.50969086               12.22323036              -46.14368311
              86.81940125               28.16332063               96.24830562                0.72744986               -0.13284094               -0.46890722                0.59067013                0.19886184                6.96506473               12.75661428
              87.81807285               22.96184813               93.67584757                0.44427635               -3.50048081                0.21994047                0.20874552                7.23145212              124.29918087              -11.93819024
              88.74939164               17.90225699               93.45035060                0.43580770               -4.72115368               -2.14322141                4.26353031                7.44353078              231.19786705              -10.01389143
              89.72364977               13.02177944               92.84994805                0.43691875                0.59644662               -3.94362289                2.71388971                9.52182163              206.58597214               -9.61743303
              90.76132057                8.25847474               91.92884157                0.43769335                6.17982784               -4.03708357               -1.48114689               10.06347308              186.85316589               -9.12741875
              91.84724633                3.55946632               90.68797979                0.43738284                9.85655780               -2.63421335               -7.24300947                9.72468795              166.62161383               -9.27212302
              92.95845173               -1.11073096               89.10377062                0.43678806               11.66386639                0.51854673              -15.25342458                9.06048361              141.74915887              -10.21148716
              94.08052366               -5.77544406               87.13341115                0.43576104               13.19919081                5.76291636              -27.82535952                8.30096716              109.51424046              -11.95333799
              95.22243554              -10.44844290               84.73571892                0.43487970               17.06816633               13.50468400              -48.64868497                7.55011907               70.81027735              -14.40151216
              96.42188698              -15.13800193               81.90855210                0.43476136               25.09690744               23.91561420              -80.93978147                7.10136701               32.31214636              -17.40562666
              97.72437369              -19.84573624               78.72141423                0.71742170               30.24867090               37.11860425             -121.94789626                8.16485852               15.89652008              -22.52756898
              35.53365055               18.59565051              100.36270840                0.73388335                0.34576796                0.35434903                0.53971738                0.34840051               -6.29431594                6.71771890
              36.53710823               13.42740319               99.35115188                0.46503588                3.33900965               -0.77771529                0.49151317                3.92003959               -6.56131060               -5.70911049
              37.60043074                8.35367590               98.32915264                0.45668682                4.90270168                0.42770391                0.74184513                0.24365983               -3.44433360               -0.25018296
              38.63516226                3.39694673               97.35358221                0.44820942                2.53204640                0.29893803                0.73149218                0.46452548               -0.45774911               -0.29387592
              39.65107167               -1.50102377               96.38374176                0.44594262                0.96290559                0.34000720                0.77013459                0.29284430               -0.00976772               -0.05928743
              40.65442038               -6.37450281               95.41538810                0.44398172               -0.04592337                0.35733042                0.84631617                0.15302314               -0.18178776                0.05031342
              41.65015320              -11.24722051               94.44290586                0.44276133               -0.62339120                0.38539626                0.95375466                0.01847125               -0.93346541                0.12136497
              42.64195255              -16.13477305               93.46188251                0.44083536               -0.86564618                0.42978096                1.08494435               -0.11048231               -2.13097266                0.13944950
              43.63284028              -21.04592418               92.46920356                0.43971748               -0.86365128                0.47648729                1.25205301               -0.22864446               -3.71860830                0.06688564
              44.62467953              -25.98380167               91.46124386                0.43990215               -0.75095172                0.51348952                1.55385730               -0.21497014               -4.57257387                0.24859497
              45.61782125              -30.94711218               90.45643725                0.72072238               -0.68582797                0.39338104                1.71680606                1.24040787               -4.59329981               -2.91227079
              40.70538187               19.59919400               99.96776194                0.48131138               -0.80859367                3.90556792                0.99252831                4.72436600                5.61750877               12.84936055
              41.69729593               14.41962604               98.95258612                0.07718471               -4.36431467               -4.94735152                0.86980222               10.52820721               12.67026031              -11.39597111
              42.61809558                9.35795294               98.08061988                0.04334287               -6.50692909                8.72693243               -0.10503914               29.67884899               16.31933096               -3.47434191
              43.56715735                4.39993611               97.17772991                0.02716294               -3.91853447               10.50548601               -0.67891038               41.52250006               13.74942552               -5.15592854
              44.53972489               -0.49762370               96.27560417                0.02125480               -1.90541851               10.26410359               -1.23265847               49.37715488               13.00215287              -11.24683202
              45.52904898               -5.37092951               95.36971579                0.01777252               -0.46259248                9.19979957               -1.88737493               54.25662442               12.24056585              -20.13240800
              46.53047304              -10.24336655               94.45840299                0.01545566                0.55752904                7.45351508               -2.61109704               55.87584174               11.47769317              -31.94853954
              47.54019956              -15.13047524               93.53941620                0.01370589                1.22975548                4.44736006               -3.43139866               54.17373794               10.60388852              -48.34699481
              48.55506815              -20.04115930               92.61064530                0.01270269                1.64621332               -1.45617139               -4.32591194               50.10307317                9.61799558              -71.83267570
              49.57312383              -24.97866678               91.67202277                0.01178665                1.92338438              -13.16016316               -5.32374258               48.08544068                7.54036309             -104.34439808
              50.59353583              -29.94317837               90.70387386                0.44120589                2.04120065              -49.09006575               -5.88684191               62.48199635                5.82005967             -144.14156599
              45.98727378               20.67376187               99.68894213                0.48362582                0.16396544                5.82209451                1.12785494                0.57581692               -1.65418742               19.83241172
              46.98891344               15.32845616               98.44264128                0.04503941               11.32119370               -7.57725749                0.81661545               28.23969990               26.81857867              -17.91697451
              48.21369766               10.52821454               97.76247504                0.00010000               16.61377290                8.73691220                4.56956495               69.73765603               56.70384628               -5.66294539
              49.32118890                5.60705645               96.90254825                0.00010000                9.78913655               14.39959614                2.09684074               80.69907764               50.64295337              -10.03912009
              50.40948039                0.70425830               95.94312832                0.00010000                8.20534121               15.34206216               -0.33243360               94.66209449               51.35070503              -22.20771230
              51.48529572               -4.19050682               94.92138524                0.00010000                5.88676925               14.52781531               -0.54521850              104.11786583               52.19228991              -39.54651804
              52.52721577               -9.09815021               93.83480910                0.00010000                1.89621725               12.26956765                0.31505132              107.51308972               49.34268734              -62.51671570
              53.52322006              -14.04582585               92.65061798                0.00010000               -2.20612473                7.47882373                1.15316540              103.76436910               39.69615926              -94.14029651
              54.48309328              -19.07504761               91.31830349                0.00010000               -1.74063287               -2.60948541               -0.71845666               92.81418534               21.21667511             -139.35739657
              55.48840741              -24.24700494               89.79586268                0.00010000               15.66955409              -24.82886456              -11.29172922               63.80565101               -0.78469592             -203.84213713
              56.79648436              -29.92891350               88.13351441                0.43383179               30.80769531              -69.62009943              -34.42281687               49.46594018               -4.90372221             -300.09864175
              51.40750961               21.71563589               99.38814371                0.47470037                0.01276411                2.81388724                1.40189052                0.65815767               -0.15009430               20.49722956
              52.40763725               16.26808089               97.96344175                0.03190092               16.33694007               -4.50576797                0.31561341               36.20906788               40.78119133              -18.00715085
              53.73424841               11.53269118               97.35499823                0.00010000               29.87289457               -2.16722616                4.76658895               73.76086831               84.62781346              -12.57797348
              55.00509514                6.68792803               96.49733048                0.00010000               24.81408176                3.29112145                1.18621123               79.12661804               80.36250772              -16.88631972
              56.23053005                1.80921755               95.47633547                0.00010000               20.43598350                6.21792983               -2.08062227               89.04812311               82.55154829              -27.62481750
              57.41381481               -3.08037320               94.34029643                0.00010000               15.27619065                7.55060282               -2.70536146               97.39640368               83.88081725              -43.17270182
              58.53605386               -7.99797520               93.08079422                0.00010000                8.92847619                7.49174486               -2.21527367              101.16309103               79.24578046              -64.22930140
              59.59238434              -12.98089877               91.64803529                0.00010000                3.82385385                5.23904944               -2.57462073               98.52330346               65.05511784              -92.99974773
              60.61253094              -18.09334901               89.97182619                0.00010000                5.53592015               -0.99519628               -8.08718557               85.39845238               40.18907828             -133.34262792
              61.70310274              -23.47524407               88.00558812                0.00010000               16.70704105              -13.72730360              -27.00050211               54.06945905               14.04841920             -192.47799734
              62.94667176              -29.33558036               85.84075442                0.43393153               24.35690187              -20.26100493              -64.70117006               27.01468863                4.53024139             -280.62829247
              56.89554693               22.73003961               99.10133193                0.47356308                0.04925755                0.38448072                1.70702391                0.46849882                0.23930428               21.41536258
              57.89603950               17.23834081               97.47676467                0.02744846               18.67604777               -1.79705106               -0.28562495               37.39967402               52.68787221              -18.46254210
              59.26906788               12.48487002               96.89879439                0.00010000               36.55776916               -5.51880757                3.38868885               74.34364430              108.10966230              -17.17860657
              60.62719489                7.67287888               96.02519391                0.00010000               34.48381008               -4.09962455               -0.45795070               76.30876406              103.49936636              -20.94882663
              61.95874409                2.82861690               94.94864508                0.00010000               30.66108258               -1.37139806               -3.95072129               81.90701666              105.92871209              -29.13629593
              63.24041654               -2.03949477               93.71117050                0.00010000               24.61295368                0.96398544               -5.09114974               87.09004166              106.61131118              -41.76250353
              64.45100316               -6.94831531               92.29691515                0.00010000               17.43217050                2.48815823               -5.61097173               88.80950647              100.27454349              -59.56013618
              65.58905995              -11.94104486               90.64628850                0.00010000               11.72022337                2.79308182               -7.97626372               84.00955979               83.34720356              -84.34071789
              66.68540763              -17.09495153               88.68038381                0.00010000               11.14839935                1.73669312              -17.37551284               68.79725967               55.30852055             -119.67518262
              67.81202794              -22.52155101               86.35394311                0.00010000               18.60215442                2.35579395              -42.83643421               39.18032468               23.72760210             -171.33233247
              69.05745071              -28.33413360               83.74364654                0.43416017               24.54227789               12.21156757              -90.58669541               20.31291042               10.13554534             -246.07803204
              62.40027720               23.72332550               98.81549626                0.47105598                0.05231226               -1.31754367                1.87295481                0.36699098                0.48889330               20.80321537
              63.40080032               18.23213987               96.99356955                0.02389045               19.31530133                0.14323248               -0.71539314               34.43499622               63.11157191              -17.62486517
              64.78658323               13.42231503               96.42193710                0.00010000               39.33616113               -6.60268795                2.10868236               68.35990794              128.25010269              -19.57468769
              66.18752354                8.60593554               95.53543936                0.00010000               39.72303995               -8.23652359               -1.73477376               70.32941510              122.81383027              -22.71737338
              67.58104402                3.78178959               94.41768966                0.00010000               37.25121586               -6.96925010               -5.18149988               73.39446209              124.13152720              -28.52944982
              68.93254786               -1.06109350               93.10123507                0.00010000               31.63750310               -4.59873139               -6.71642162               75.52407444              123.33699837              -37.97479780
              70.21379409               -5.94821203               91.56165781                0.00010000               24.33319438               -2.01983300               -8.18692818               74.43062342              115.02877420              -52.08402326
              71.41921175              -10.92503713               89.73278489                0.00010000               17.75940947                0.71629163              -12.28781080               67.51711679               95.63942204              -72.45851233
              72.56898228              -16.05861515               87.53150620                0.00010000               15.33397745                4.81285546              -24.51209004               52.21265625               64.29650747             -101.86030012
              73.72589130              -21.42812819               84.90935785                0.00010000               20.45564326               13.20946937              -54.13808296               28.26231079               28.32211311             -144.26515536
              74.97809514              -27.09134901               81.94490148                0.43436471               25.22038428               30.03749358             -107.12546380               14.56983009               12.33095450             -202.25459596
              67.88525801               24.70368874               98.52489759                0.46731797                0.04918919               -2.19531720                1.85677318                0.30218859                0.64317335               19.44751579
              68.88574990               19.24120545               96.51693914                0.02072136               18.86061810                1.25384215               -0.92151656               28.99826929               72.74723815              -16.33107914
              70.26247037               14.35281626               95.94920054                0.00010000               39.42793634               -7.29152663                1.14766084               58.09489159              146.94855513              -20.02447788
              71.67430863                9.50814841               95.06192812                0.00010000               41.55959947              -10.73765734               -2.55844412               61.37477695              140.70560739              -22.60051733
              73.09366236                4.68923190               93.92457153                0.00010000               40.32955087              -10.61016948               -5.89593552               63.56747720              140.38726294              -26.31142801
              74.48089965               -0.13146939               92.55718201                0.00010000               35.49484511               -8.49827154               -7.75892429               63.58081602              137.52147663              -32.79092286
              75.80355927               -4.98871197               90.92726987                0.00010000               28.44528773               -5.25092234              -10.01264302               60.34367652              126.88372035              -43.26930896
              77.04980540               -9.92671903               88.96401544                0.00010000               21.45962720               -0.66693725              -15.38784625               52.44003154              104.81631955              -59.08708490
              78.23275181              -14.99869442               86.58157704                0.00010000               18.01013043                6.59496777              -29.40902814               38.85051830               70.27488963              -82.20006359
              79.41000801              -20.25736162               83.73144878                0.00010000               22.12685723               18.78018354              -61.27490566               20.32695605               30.81206323             -114.95583659
              80.67528895              -25.73338372               80.49958494                0.43461832               26.52809429               37.85937720             -116.47743748               10.76062938               13.36348524             -158.31282032
              73.33128754               25.67941916               98.22663932                0.46257912                0.03506460               -2.30757965                1.59260531                0.24733577                0.65716716               17.77368527
              74.33163818               20.25721671               96.04700009                0.01742753               17.51252850                1.59466625               -0.84309954               22.30003213               82.20746957              -15.00782648
              75.68153811               15.27648450               95.49682623                0.00010000               37.34826320               -8.11498749                0.71196189               45.37377481              165.51844905              -19.26053210
              77.07860345               10.39118239               94.63026917                0.00010000               40.52366311              -12.21998237               -2.80731482               50.43275555              158.55385140              -20.86935644
              78.49201137                5.56958620               93.49981046                0.00010000               40.17523044              -12.47263560               -6.07158582               52.45489565              156.25815732              -22.60057058
              79.88210806                0.76894107               92.11231469                0.00010000               36.19529425              -10.46557833               -8.28047609               51.18064062              150.89172238              -26.39579652
              81.21591725               -4.05323048               90.42855009                0.00010000               29.79433861               -6.85408221              -11.21233557               46.78947165              137.60160679              -33.47169681
              82.47799483               -8.93837588               88.37489680                0.00010000               23.03589893               -1.28143842              -17.52663021               39.09000942              112.75796268              -44.85094416
              83.67663523              -13.92671579               85.86432681                0.00010000               19.45624472                7.47643359              -32.65959576               28.02172999               75.23297224              -61.76745419
              84.86711972              -19.05252452               82.84950080                0.00010000               23.43583511               21.02364401              -65.62605483               14.43677713               32.85370523              -85.61044480
              86.14535193              -24.33416147               79.42305960                0.43424040               27.82322127               40.30226106             -121.52001436                7.87327505               14.20657470             -116.94568011
              78.73460962               26.65753714               97.91880644                0.45735263                0.00755935               -1.78324248                1.07950186                0.23643019                0.66315042               16.36242901
              79.73468521               21.27309878               95.58266164                0.01497526               15.06852871                1.27983533               -0.45611829               15.29023573               92.33078279              -14.22860285
              81.03598019               16.19051651               95.07865363                0.00010000               32.75884148               -8.92182949                0.85302650               31.43283713              185.38309045              -17.29895033
              82.38986204               11.26374876               94.26412302                0.00010000               36.45107026              -12.50010030               -2.48447712               37.87745046              177.36223031              -17.32708029
              83.76500160                6.43977919               93.17014628                0.00010000               36.87335490              -12.55160972               -5.79543057               39.51432385              172.46771070              -17.28524797
              85.12732914                1.65921904               91.79299306                0.00010000               34.08320274              -10.62732431               -8.46690974               37.44215939              164.13348445              -18.73628876
              86.44666565               -3.12579362               90.09080094                0.00010000               28.88808844               -6.99956610              -12.07525832               32.89550572              148.04943710              -22.76912802
              87.70509091               -7.95234780               87.98929489                0.00010000               23.03347003               -1.16148593              -19.16783089               26.42245711              120.52437669              -29.98055109
              88.90733505              -12.84916575               85.40118865                0.00010000               20.05491590                7.95792409              -35.06410301               18.41609153               80.30856599              -40.99025266
              90.10618922              -17.83688874               82.27961143                0.00010000               24.43466472               21.63262376              -68.55112588                9.46615643               35.23530771              -56.57820513
              91.39602835              -22.92733850               78.71933507                0.43438545               28.98391216               40.48566716             -124.36294047                5.46623908               15.27669141              -77.50214006
              84.10489287               27.64375431               97.60621462                0.45058225               -0.04293412               -0.89097041                0.30878854                0.22620105               -0.12079747               13.62729286
              85.10446353               22.28281342               95.11623306                0.01147593               10.73260001                0.53283174                0.32337937                8.96651396              104.49334331              -12.41299393
              86.31954487               17.09804791               94.71766973                0.00010000               24.12131259               -8.02352804                1.38204054               16.19641529              208.67726942              -11.64615600
              87.58688978               12.14118039               93.99392632                0.00010000               28.36413473              -10.51653317               -1.85763383               21.95375505              197.59843847              -11.04460473
              88.88682757                7.31855400               92.96084983                0.00010000               30.48171339              -10.73439542               -5.46133806               22.64831225              188.60849949               -9.88825186
              90.19652405                2.55639459               91.61989798                0.00010000               29.92833207               -9.30752522               -8.77546540               20.68182553              177.08042296               -9.84406533
              91.48539421               -2.19322180               89.93099645                0.00010000               26.66460263               -6.05603920              -13.10290751               17.44571503              158.44781406              -11.44882974
              92.72981610               -6.96160560               87.82169286                0.00010000               22.20518991               -0.40206627              -20.89752406               13.45260335              128.65616273              -14.88798339
              93.92949800              -11.76755731               85.20458364                0.00010000               20.23997513                8.56069096              -37.41666353                9.09309739               86.10708442              -20.32276150
              95.13461560              -16.61987204               82.03137785                0.00010000               25.30391178               21.87351197              -71.26865332                4.69391991               38.53925286              -27.99139614
              96.43557624              -21.52444812               78.39447243                0.43440352               30.09606365               40.16550130             -126.62721768                3.19786830               17.05682598              -38.72733642
              89.46101541               28.63971774               97.25104613                0.72486600               -0.12935213               -0.40365724               -0.03926188                0.01602210                6.32796316               11.51931922
              90.45972189               23.28375541               94.68212400                0.44145482                2.02630577                0.09419938                0.95204131                5.04224706              125.11390170              -10.86180647
              91.50154153               18.03004595               94.48839255                0.43553092                7.43545751               -6.80019534                2.01911650                6.68279986              237.19995486              -10.63771429
              92.60843104               13.05341810               93.86445112                0.43660087               15.06060556               -8.77622926               -1.68494969               11.90639248              215.92978914               -9.55725103
              93.80275364                8.22509128               92.90025024                0.43734793               22.21552050               -9.34627240               -6.03181708               12.57512948              202.27017386               -8.62076504
              95.05274145                3.47306853               91.60844332                0.43720722               25.54132476               -8.33260534              -10.19445550               12.02145629              188.29660675               -8.46573819
              96.31358014               -1.24691440               89.95723597                0.43658760               24.78685159               -5.36926005              -15.22721526               11.14570991              168.34042119               -9.34934795
              97.54847848               -5.96038912               87.87660327                0.43542132               21.69416557                0.12164718              -23.58512439               10.31436185              137.27041123              -11.11010251
              98.74746345              -10.67795193               85.27714191                0.43445115               20.42399733                8.96053823              -40.66685851                9.84507534               92.76793006              -13.52568590
              99.95695843              -15.39941850               82.10542004                0.43404085               26.08372095               22.04535429              -75.15172268                9.93045535               42.19927101              -16.24331722
             101.26913787              -20.12402848               78.44669705                0.71695938               31.21794350               40.04196445             -130.53816188               10.89516497               18.37172306              -18.33233712
              36.48464017               19.05362076              101.36480993                0.73082190                0.60161878                0.71767015               -0.09964273                0.59303246               -5.62032284                6.00244092
              37.49065636               13.76855435              100.35448305                0.46542653                4.07337469               -0.92770367                0.24396204                5.09605778               -5.89755345               -5.13894039
              38.56610767                8.60461213               99.33563388                0.45748574                5.62443143                0.73140074                0.37357526                0.44953022               -3.55591671               -0.04907914
              39.60314499                3.57821583               98.35980379                0.44647457                2.67721507                0.41097038                0.34473310                0.72403924               -0.93941771               -0.24250134
              40.61965197               -1.38263035               97.39047472                0.44381847                0.99115399                0.37470029                0.46844259                0.43471749               -0.40965655               -0.04449216
              41.62296807               -6.31403739               96.42327894                0.44165660               -0.07309388                0.30546971                0.62898273                0.30520570               -0.41774926                0.06498625
              42.61819009              -11.24299326               95.45231501                0.43998631               -0.70115015                0.26987591                0.80602141                0.16663023               -0.97161987                0.15873937
              43.60894507              -16.18743420               94.47310183                0.43850805               -0.99534125                0.25768315                0.99528583                0.02322113               -1.91121208                0.19434053
              44.59828327              -21.15758469               93.48274291                0.43770392               -1.02871542                0.26704784                1.22118965               -0.14013068               -3.14493859                0.13263456
              45.58837076              -26.15684914               92.47864449                0.43678338               -0.88993984                0.27660529                1.62009072               -0.18464383               -3.75130980                0.21848170
              46.58048447              -31.18175666               91.47617975                0.71867094               -0.78862894                0.06454102                1.88297384                1.09497849               -3.60029900               -2.28070553
              41.77563691               20.06079746              100.97624061                0.48857269               -0.95156493                5.37642802                0.60745806                6.52619765                4.96368727               12.00437809
              42.76612126               14.75927732               99.96133007                0.09398653               -5.49323368               -6.39920658                0.99109383               14.09698362               11.52696031              -11.22071642
              43.66577223                9.61192613               99.07968251                0.04601449               -8.10573192               12.16657255                0.23833758               41.79997059               15.05218893               -0.45195478
              44.60400662                4.58232553               98.17258215                0.02494434               -4.78232389               14.30561226               -0.07011504               59.62382134               12.48077025               -4.01561687
              45.57012575               -0.37888334               97.26599653                0.01656641               -2.39025167               14.40609317               -0.57985237               73.97950963               11.48330779              -11.29777705
              46.55620158               -5.31098270               96.35422328                0.01235214               -0.67854787               13.67076041               -1.16045299               83.64944476               10.59362253              -19.34594126
              47.55655480              -10.24029450               95.43641560                0.01009222                0.51357049               12.46210524               -1.77903911               88.77824009                9.85337832              -29.52385102
              48.56647299              -15.18485737               94.51011716                0.00846028                1.25173155                9.97411561               -2.41191971               89.12571068                9.02878403              -43.86741457
              49.58158943              -20.15491422               93.57308699                0.00718237                1.60686535                3.77888904               -3.09215931               84.56126144                8.04751184              -66.18166896
              50.59861030              -25.15408309               92.62479694                0.00600150                1.73761711              -11.16226576               -3.92134495               78.89446692                6.13393101             -102.62749109
              51.61634177              -30.18111125               91.65120955                0.43771469                1.77314689              -64.78946044               -4.43146657               94.10296105                4.51691337             -155.49080711
              47.21820442               21.16114932              100.69850648                0.49460412                0.32629443                7.70170356                0.29939637                1.00973231               -1.85638584               20.05469685
              48.22146736               15.64057022               99.45119042                0.06159281               18.04272229               -9.60967684                1.31134869               37.95118737               28.51855400              -19.26823780
              49.57905886               10.84794358               98.80870728                0.00010000               28.24817650               11.90361080                2.72339247               95.76473498               63.35448375               -1.01537712
              50.78643089                5.86432807               97.90733304                0.00010000               20.67457628               19.96322267               -6.43657829              114.39175734               66.49412855               -6.97613157
              51.99255039                0.90549152               96.91574684                0.00010000               18.54686159               22.13219424               -7.80363262              139.46228363               74.49770846              -20.04057670
              53.15736812               -4.04062219               95.89815846                0.00010000               13.75395880               22.45427638               -6.91283145              157.61311208               80.56205010              -35.23878453
              54.26762957               -8.99375116               94.82943588                0.00010000                7.43554346               21.45050886               -4.67025064              167.67089800               81.67488979              -54.51856446
              55.30607899              -13.98795189               93.66949259                0.00010000               -0.44476773               17.75588034               -1.30980567              167.64046873               75.59325267              -81.50234031
              56.25873421              -19.08200691               92.34126965                0.00010000               -5.68109331                7.29506656                2.08217158              154.63318760               55.84452743             -123.28906808
              57.19245713              -24.38009446               90.71835882                0.00010000               12.89328984              -21.26264755               -2.04082774              107.17934185               19.59823256             -192.84848577
              58.51660001              -30.47754587               88.76892927                0.43349222               32.41428805              -85.71091613              -37.62105987               78.19607546                0.32757952             -326.85390056
              52.83698975               22.21483153              100.40026612                0.47820247                0.13609964                3.47759482                0.79722381                0.98309810               -0.04391365               21.30669678
              53.83835075               16.56708378               98.96674741                0.04011379               26.01596644               -5.24990787                0.46853708               47.44079141               43.06972723              -19.84190571
              55.35730908               11.84999835               98.39300723                0.00010000               49.79715377               -2.83704795               -1.98922877               98.21085782               96.78425149              -10.35446367
              56.83429382                6.98158999               97.47444939                0.00010000               45.35063026                5.33696504              -11.87483187              108.23505734              105.24966222              -12.96630863
              58.26432169                2.06376054               96.41293045                0.00010000               38.67063385               10.06870516              -13.79601751              124.35538877              117.81281032              -21.86365523
              59.60770650               -2.86189717               95.27850225                0.00010000               29.64903873               12.90325745              -12.87858308              139.03627811              126.19249153              -34.78849083
              60.85730246               -7.81128433               94.03589775                0.00010000               19.99158123               14.13024645              -10.63383699              148.16907904              126.93243106              -52.24367058
              62.00753813              -12.82973976               92.61904294                0.00010000               10.45466424               12.83865345               -8.08166969              148.77136264              117.10327131              -76.75075165
              63.06639575              -18.00901288               90.91223145                0.00010000                6.50989823                6.44071950               -7.98351099              132.79953590               90.49687446             -113.30197942
              64.13773609              -23.57933604               88.75299731                0.00010000               15.43851770               -9.03258453              -22.77471308               86.26635576               48.24299373             -175.01846901
              65.37516610              -29.89532957               86.12906548                0.43338978               23.74300091              -13.36153450              -79.51114390               44.97202830               20.74069794             -287.24460901
              58.53336189               23.23070122              100.11698073                0.47489599                0.17544869                0.20655330                1.35754925                0.67726228                0.37790358               22.09295455
              59.53511638               17.53557206               98.47349932                0.03230238               29.77039635               -1.66678862               -0.34029393               48.23143553               54.68369488              -20.06079770
              61.12876982               12.79120262               97.91336954                0.00010000               60.11267357               -6.94553667               -4.79245136               96.47831348              119.40859363              -16.16583121
              62.73736985                7.97106737               96.97701949                0.00010000               59.71877521               -4.81298277              -14.37561385               99.92362055              127.73671109              -16.48873874
              64.32314532                3.10686562               95.85942755                0.00010000               53.78843536               -0.80386972              -16.00114455              108.42082732              140.70881941              -21.60293983
              65.81313855               -1.78255704               94.61976882                0.00010000               43.78542103                2.62699978              -15.18170034              117.51540401              148.83999527              -31.10776915
              67.19885374               -6.71114623               93.21362981                0.00010000               33.30481259                4.98529861              -13.46683605              123.03904725              148.32405851              -45.17568773
              68.47923481              -11.73117882               91.55969988                0.00010000               23.27337317                5.77642618              -12.39054130              120.05017138              136.01399802              -65.52272655
              69.66432120              -16.95319252               89.52246854                0.00010000               16.24330607                4.87399490              -15.91943680              101.23248279              106.21401471              -96.45432532
              70.80410093              -22.56074615               86.93049554                0.00010000               19.18532158                7.44147860              -37.90789159               59.07092503               57.68149134             -147.36626574
              72.04802764              -28.74477656               83.75032051                0.43370325               24.39267081               26.34589815             -105.59644578               31.36120557               26.44817852             -232.27984429
              64.24079331               24.21896260               99.83315874                0.47145762                0.16847537               -1.98486971                1.68157035                0.51375046                0.65435887               21.07514904
              65.24247806               18.53374801               97.98596151                0.02731180               30.52933679                0.73010217               -0.85030449               43.62953330               64.84650123              -18.74642132
              66.85138004               13.71108762               97.42007712                0.00010000               63.73125864               -8.35562619               -6.80132868               86.67445396              138.60418025              -18.28741309
              68.51710323                8.88533033               96.47235581                0.00010000               66.74913011              -10.70448274              -15.69257062               89.39042936              145.42712339              -18.00385024
              70.18636264                4.04768315               95.31627556                0.00010000               62.94615991               -9.33134289              -17.04594072               93.65277610              156.82257678              -20.58849186
              71.77602643               -0.80935717               93.99495684                0.00010000               54.01712729               -6.66129178              -16.36704108               97.99385796              163.42839242              -26.95512328
              73.26670519               -5.71157835               92.45535583                0.00010000               43.72807094               -3.92356750              -15.26786561               99.10471126              161.23657232              -37.50819959
              74.65058785              -10.71421124               90.60709320                0.00010000               32.69537685               -1.17760403              -15.48447584               92.67860134              146.83175159              -53.62685649
              75.92061273              -15.91153299               88.30694513                0.00010000               23.00753871                3.46043187              -21.34954102               73.66746221              113.90145701              -78.40034221
              77.11073862              -21.43050647               85.37785043                0.00010000               22.49191517               15.02642549              -46.79527925               40.68856703               60.84980899             -117.75393994
              78.37045103              -27.36841161               81.79215641                0.43388096               25.97124065               40.40226651             -118.11359426               21.53497191               27.67761375             -178.39860094
              69.91406608               25.19100382               99.54280698                0.46709668                0.15159424               -3.09221356                1.77777711                0.37585517                0.77121606               19.19452184
              70.91558203               19.55017411               97.50726975                0.02301110               29.83052451                2.04877148               -1.09266386               36.09002765               74.08649912              -16.88523143
              72.51067657               14.62409009               96.93581999                0.00010000               63.65004386               -9.18530712               -7.82623092               72.36955971              156.10918584              -18.37578733
              74.18858290                9.75697772               95.99085396                0.00010000               69.01058862              -14.24617008              -16.01988740               76.50838446              161.41812140              -17.87402709
              75.89088835                4.92023876               94.81791924                0.00010000               67.18471557              -14.85878905              -17.23638339               79.36953710              170.60568155              -18.77459980
              77.53227721                0.08421713               93.44306520                0.00010000               59.74568431              -13.11258360              -16.81694336               80.55862495              175.04689503              -22.66021615
              79.08580203               -4.78961758               91.80619232                0.00010000               50.02421262              -10.18892480              -16.30644019               78.33743882              170.81843546              -30.15889576
              80.53276147               -9.75473090               89.81200759                0.00010000               38.40818212               -5.80724231              -17.45534511               70.09766771              154.15794151              -42.34409214
              81.85396567              -14.88398389               87.31438821                0.00010000               27.09947106                2.09447070              -24.60823283               53.34467868              118.41359380              -61.25072875
              83.07475089              -20.26021764               84.13743755                0.00010000               25.02858395               17.22433587              -51.46439689               28.43496431               62.30148040              -90.33158346
              84.35453735              -25.93673123               80.26632649                0.43350684               27.97864654               42.84207494             -123.79108468               15.26012502               28.09303394             -133.09127810
              75.52996984               26.15711833               99.24189157                0.45999160                0.12225001               -3.21398987                1.57127789                0.30256730                0.80225065               16.90183732
              76.53119234               20.57472344               97.03842683                0.01820888               28.09988914                2.39943647               -1.01277029               27.01917817               83.11008925              -14.88950454
              78.09196762               15.52738147               96.47923817                0.00010000               60.99649551              -10.49175989               -7.92658788               55.23657069              173.32506955              -17.17197302
              79.75112225               10.60040693               95.55904641                0.00010000               67.72731764              -16.65952268              -15.37684227               61.65701756              177.08194874              -16.24176061
              81.44651398                5.75050737               94.39490085                0.00010000               67.29665093              -18.02209818              -16.66184938               64.32287167              183.76627793              -15.78674782
              83.09705527                0.92839115               92.99651173                0.00010000               61.29440086              -16.68381752              -16.66602144               63.62251762              185.66446004              -17.70659453
              84.67240199               -3.91535685               91.29940482                0.00010000               52.49261204              -13.64812929              -16.77035220               59.47703177              179.10888188              -22.60634537
              86.14690751               -8.83035609               89.20632178                0.00010000               41.02955200               -8.40521628              -18.63427745               51.10923462              160.12511214              -31.24906788
              87.49299303              -13.86964357               86.57092070                0.00010000               29.26388686                0.93152531              -26.51905445               37.65176766              121.88453038              -44.84422938
              88.73218525              -19.08601975               83.22045257                0.00010000               26.78438370               17.00913320              -53.90848234               19.76151490               63.40854539              -65.39098512
              90.02868071              -24.51157011               79.15074657                0.43363593               29.64954597               41.41414565             -126.17759090               10.75499627               28.36527752              -94.98912723
              81.08490721               27.12672403               98.92856440                0.45294222                0.07952313               -2.44012300                1.04673420                0.31975371                0.79058845               14.79946712
              82.08570244               21.59816284               96.57856461                0.01361290               25.24086419                1.86015248               -0.57367088               17.49883919               92.66421394              -13.30591856
              83.58972450               16.41425490               96.06440248                0.00010000               55.64474585              -12.31771537               -7.07837597               36.72154604              191.64724426              -14.89838724
              85.19859736               11.42378727               95.20041375                0.00010000               62.98185284              -18.02057281              -13.80242736               45.48743750              193.39664240              -13.11805748
              86.84936155                6.55979680               94.07278775                0.00010000               63.59972107              -18.97653968              -15.41411707               47.79835740              197.02012738              -11.61241177
              88.47059178                1.75054078               92.67946846                0.00010000               59.23641771              -17.74571313              -16.09187095               45.87131056              195.97349445              -11.97791510
              90.03408991               -3.06258016               90.95707283                0.00010000               51.93205502              -14.79855962              -16.90843694               41.08875500              186.97358307              -14.72020314
              91.50923288               -7.92283523               88.80883210                0.00010000               41.42873912               -9.38925920              -19.42689184               33.92566733              165.75606122              -20.23249411
              92.86266469              -12.86535338               86.08917212                0.00010000               30.13374190                0.18726752              -27.82664335               24.39596699              125.33468968              -29.05726934
              94.11190772              -17.92003497               82.62791084                0.00010000               27.90366528               16.16125698              -55.44525868               12.89213673               64.80768703              -42.25614371
              95.42073800              -23.10844831               78.42684751                0.43346234               30.88302748               39.63695603             -127.28044739                7.22153851               28.86755061              -61.32383593
              86.59348730               28.10831587               98.60696543                0.44552087                0.01509610               -1.13400152                0.05764375                0.30593954                0.04172816               11.74255681
              87.59363826               22.61192649               96.12143873                0.00867549               20.36434112                0.73336450                0.43507956                8.50066554              103.93609355              -10.93301731
              89.00077412               17.28102717               95.71232905                0.00010000               46.08454213              -13.30989142               -5.44030359               17.47040531              213.11626742               -9.59363528
              90.51532910               12.23999547               94.94191885                0.00010000               53.74767481              -16.71012280              -11.48939371               26.08699531              211.08266737               -8.23455571
              92.07572761                7.37097657               93.87226988                0.00010000               56.07646733              -17.62690897              -13.92416189               27.34258571              210.18932780               -6.27031202
              93.63685845                2.57347689               92.50756421                0.00010000               54.59127424              -16.87399511              -15.57383085               25.16481702              206.05988392               -5.81539474
              95.16755310               -2.21132804               90.79109550                0.00010000               49.56678147              -14.38083970              -17.19120498               21.56960647              194.91935535               -6.91397290
              96.62819407               -7.01814127               88.62856690                0.00010000               40.52795105               -9.23158512              -20.29284456               17.11114387              171.85024038               -9.65512330
              97.97811212              -11.86589822               85.87471837                0.00010000               30.24644207                0.06401135              -29.15074659               12.08296719              129.50984735              -14.10236375
              99.23312292              -16.76279461               82.35884077                0.00010000               28.59130198               15.45411535              -56.90133095                6.57383869               66.93593817              -20.53093383
             100.54993816              -21.71883099               78.08380083                0.43304098               31.68152430               39.58080414             -128.48507649                3.82216922               29.83371320              -30.06556551
              92.08380477               29.10404400               98.24752039                0.72229555               -0.08003105               -0.42718726               -0.46969757               -0.08963964                5.29996968                9.61366619
              93.08300446               23.61283013               95.69488840                0.43933184               11.36294249                0.09036404                1.27607509                1.13727371              122.80818431               -9.17072951
              94.31106362               18.14805707               95.49073293                0.43535329               27.36917015              -13.29700985               -3.81945637                4.86668412              240.73392839              -10.28650081
              95.63038786               13.08958481               94.81624906                0.43657734               37.58341151              -15.04106625              -10.05851159               14.46595378              227.19758974               -8.75383680
              97.06273185                8.20725862               93.80820523                0.43725505               46.29024384              -16.37179527              -13.66476138               14.87422670              221.39432911               -7.25503000
              98.55619274                3.41306087               92.48409068                0.43705405               49.71841752              -16.04160167              -16.31575931               14.06065030              215.27072781               -7.12504989
             100.05710020               -1.35019696               90.79922631                0.43647284               47.49166018              -13.88689161              -18.52182695               12.92831979              203.43993100               -8.17505315
             101.50602594               -6.10746693               88.66170866                0.43544508               39.59385871               -8.93256592              -21.78118668               12.08937685              179.49672309              -10.26904820
             102.84897737              -10.86407315               85.92238175                0.43414896               29.51456593                0.18250691              -30.60206236               11.91223854              135.22892210              -12.85256482
             104.09631726              -15.61095267               82.40551765                0.43329554               28.01383810               15.18419441              -58.50325035               13.68148051               69.90015334              -15.53941365
             105.40925414              -20.31683223               78.11065099                0.71670646               31.29368753               40.19987572             -129.88665565               15.34364114               30.94367291              -18.13882258
              37.44189786               19.49283797              102.36071554                0.72418550                0.64353477                1.27470364               -0.44974759                1.06712083               -3.76628512                4.04365387
              38.44833321               14.11093035              101.35603112                0.46001788                4.10469016               -1.24260010                0.06407726                6.19395717               -4.61834391               -3.53972019
              39.52399166                8.86459706              100.33662415                0.45705551                5.65999334                1.12433822               -0.55446282                1.17004364               -4.18503654               -0.03125238
              40.56153308                3.76654000               99.36047687                0.44450489                2.77058646                0.55545324               -0.26949034                1.01485100               -1.77430193               -0.21757004
              41.57940339               -1.25295724               98.39311062                0.43925049                1.13460128                0.41058775                0.00732039                0.75306279               -1.08452546               -0.06762228
              42.58422510               -6.23509177               97.42796776                0.43826811                0.07472620                0.23639165                0.26428493                0.66324165               -0.95885037                0.06797599
              43.58089792              -11.21224692               96.45902629                0.43691376               -0.54623477                0.12824705                0.45683708                0.58362425               -1.27529506                0.14591828
              44.57330041              -16.20491690               95.48178822                0.43614721               -0.82495322                0.07026038                0.61010415                0.49470785               -1.85166589                0.18549784
              45.56439885              -21.22395965               94.49362736                0.43571581               -0.85419598                0.06402268                0.75666802                0.35297335               -2.52966168                0.15042193
              46.55621649              -26.27173694               93.49364568                0.43521546               -0.68270632                0.08060062                1.04309722                0.20502899               -2.65664646                0.13279149
              47.55074473              -31.34278588               92.49409673                0.71750917               -0.54717596               -0.29581521                1.27700255                0.92552082               -2.29225085               -1.52327651
              42.83447670               20.50558501              101.97991110                0.50411110               -1.00834587                7.89961592               -0.09705879                9.43595064                3.38623309                9.36297270
              43.82439324               15.09850435              100.97240800                0.11539571               -6.32947094               -8.66281382                1.39148440               18.55029723                9.27302690               -9.66821373
              44.70788728                9.87584044              100.08538664                0.04560466               -9.69672510               16.49926133                1.62276775               58.71216148               12.44852152               -0.35300509
              45.63045873                4.77209453               99.17632761                0.02082278               -6.00686852               19.95632868                0.90779127               92.89035141                9.74249205              -10.98046715
              46.58774991               -0.24885136               98.26400712                0.01000271               -2.99781880               20.47350458                0.17198912              116.21916771                8.58681869              -17.40557354
              47.57050236               -5.23272786               97.34650673                0.00576889               -0.80515903               20.77651454               -0.49709384              131.82547447                7.85789362              -24.07562487
              48.57164673              -10.21096445               96.42282221                0.00448892                0.68007462               21.21216326               -1.08124943              141.84975380                7.38949608              -32.23353689
              49.58410385              -15.20421430               95.49117780                0.00392128                1.48459404               21.00592302               -1.54320377              146.87979837                6.90866874              -43.78039943
              50.60133861              -20.22331942               94.54880211                0.00304587                1.67880203               17.19931124               -1.91955090              146.00010552                6.19418215              -62.20779545
              51.61767989              -25.27093094               93.59359587                0.00166877                1.48551344                1.97809589               -2.32335101              138.70356696                4.60680361              -96.84947320
              52.63104887              -30.34574403               92.61524453                0.43440382                1.33689832              -80.05307797               -2.49931023              150.07620597                3.14186361             -169.44228698
              48.44477820               21.65083029              101.69493006                0.50990286                0.43055192               10.88552813               -1.98328820                0.64398156               -1.46043914               17.90398199
              49.44908372               15.93767407              100.46886825                0.08195984               28.99332557              -12.47852387                2.84844185               49.78247260               27.41026989              -18.13428525
              51.02464471               11.19458229               99.81694289                0.00010000               54.74740934               17.25496032              -24.01610370              134.11683386              117.19212178                6.00871560
              52.54403191                6.16566657               98.77381668                0.00010000               44.19822104               29.34104380              -24.31850565              171.08184993              131.21167292               -7.74197435
              53.90860913                1.15651286               97.78705567                0.00010000               31.94078865               33.85575445              -23.49006253              210.48777199              146.34322468              -17.51289046
              55.18284768               -3.81956148               96.78312861                0.00010000               24.03851521               36.74872355              -22.41826498              239.98392344              153.13680012              -27.62310667
              56.38937944               -8.78800365               95.74140408                0.00010000               17.02018355               39.19609552              -21.35742569              259.86390510              156.87738717              -39.68570117
              57.52325135              -13.78479844               94.62442186                0.00010000                8.08690816               39.90466033              -19.37165349              269.10212206              156.78024833              -56.47126822
              58.55111760              -18.87997343               93.35994693                0.00010000               -3.52694574               34.13659662              -15.05178619              261.98994372              145.73954781              -83.55183191
              59.45271244              -24.23217502               91.75504613                0.00010000                7.53887213                4.15903830               -9.22019204              188.47873393              101.66470403             -133.34186980
              60.70189504              -30.94384744               89.38109321                0.43304393               24.91826071              -85.80598733              -29.96143388              127.74778307               55.21409730             -290.21599669
              54.27366877               22.72329557              101.40408819                0.47901452                0.26219247                4.40878953               -0.15726138               -0.17168930                0.15315849               19.83216276
              55.27629069               16.84893387               99.97281249                0.04562099               44.42813437               -5.98816613                0.82859903               62.09424793               39.10768185              -19.33595288
              57.16223145               12.22093965               99.31521366                0.00010000               90.69372369               -3.00493931              -30.23808376              131.95282079              137.26130849               -8.80561058
              59.09016517                7.35891540               98.25983385                0.00010000               81.02509712                8.97655577              -29.86379420              144.95816328              159.91916120               -7.92116831
              60.78273340                2.42826373               97.20041512                0.00010000               61.22660847               16.83500664              -27.82514919              168.24466082              178.72289771              -13.64265745
              62.31469734               -2.49775338               96.08272477                0.00010000               47.57141955               22.07283729              -25.60149287              191.24301209              187.59834599              -21.54524967
              63.73416179               -7.42704254               94.86811748                0.00010000               37.17093651               25.83582561              -23.51289111              208.99030638              191.09867893              -32.12894795
              65.05811607              -12.40612109               93.48640190                0.00010000               27.71761369               27.26243933              -21.00783634              218.18524370              188.11881704              -47.18832829
              66.28851406              -17.54058749               91.81215597                0.00010000               19.65062599               23.06108545              -18.58127983              205.30727936              170.02535334              -70.36626052
              67.45112859              -23.18775017               89.55009386                0.00010000               16.04176542                6.92227890              -20.87991958              138.19085333              121.02768178             -114.30854434
              68.60934937              -30.06186378               86.25053154                0.43317330               15.82207849               15.05130131              -76.17638600               74.83210365               79.76606754             -224.13725365
              60.19006782               23.73900608              101.12848291                0.47137536                0.32567796               -0.21466663                0.85170872               -0.40502967                0.44282730               20.28434691
              61.19332460               17.81791075               99.46995879                0.03264340               48.18258857               -1.27464240               -0.30881605               61.49993472               50.27675248              -19.22901852
              63.15371959               13.13448350               98.80294536                0.00010000              102.12732457               -9.34116697              -33.59498673              121.86640056              154.35614235              -12.37286619
              65.23587109                8.34519769               97.73768163                0.00010000               98.82257734               -6.34456719              -32.42544583              123.42159451              175.02020060               -9.30473838
              67.13017114                3.49321299               96.62862219                0.00010000               81.35715482               -0.83678332              -29.79065574              134.44293583              193.73207266              -11.06230037
              68.86301419               -1.37810474               95.40753649                0.00010000               67.36910667                3.71305251              -27.06400066              149.14189916              202.30059681              -16.16211573
              70.47755327               -6.27128714               94.02757843                0.00010000               56.87434955                6.80520029              -24.81055307              161.53912283              205.01677201              -24.02748074
              72.00050118              -11.23954966               92.39847767                0.00010000               48.06694962                7.81195616              -22.94326680              164.93384171              200.23646023              -35.65310149
              73.43889226              -16.41875172               90.36199507                0.00010000               36.86523059                6.10229156              -22.55378151              146.67801695              179.85200758              -54.35756014
              74.73780579              -22.09372945               87.59578528                0.00010000               25.39360367                9.88005821              -31.02636811               89.12389562              125.63287058              -88.37718579
              75.94676434              -28.64282141               83.63171763                0.43323345               20.89585466               44.32683877              -92.23395304               49.77510699               82.28033795             -162.59320962
              66.10775884               24.71900224              100.84912767                0.46734745                0.30531256               -3.00798689                1.49168864               -0.47167319                0.67766271               18.89705663
              67.11081197               18.82344102               98.97656346                0.02697937               48.22568440                1.65623768               -1.04940757               54.81281720               59.99737471              -17.60490388
              69.07227253               14.03411631               98.28591053                0.00010000              104.45278014              -10.41720173              -34.35491897              107.79666614              168.32467092              -13.86227293
              71.19986757                9.23202406               97.22158794                0.00010000              106.13110029              -14.06102131              -33.17492355              108.10562359              187.00539370              -10.38673428
              73.19489453                4.41152806               96.07677085                0.00010000               93.10839386              -12.90491867              -30.37485291              113.39386128              203.57278268              -10.51659421
              75.06203545               -0.42349233               94.77389425                0.00010000               81.57473148              -10.40619385              -27.66677326              121.40418446              210.99055118              -13.43987065
              76.82638916               -5.29093853               93.25630050                0.00010000               72.11110146               -8.23258694              -25.64741237              127.35213391              212.65755263              -19.00676876
              78.50425748              -10.24988197               91.42309537                0.00010000               62.49325131               -6.66398987              -24.39307987              124.83320172              206.69234185              -27.92418115
              80.07625419              -15.41854166               89.10451538                0.00010000               47.67093598               -3.44664225              -25.41783590              104.82172099              184.43260309              -42.44699974
              81.45767620              -20.99014900               85.97345227                0.00010000               31.33906285                9.35670082              -35.74963323               60.47541002              127.33809017              -67.45668532
              82.70303545              -27.17532700               81.58262960                0.43292145               24.53592520               44.45109870              -97.74502122               33.11257126               82.89736637             -116.42502908
              71.97175679               25.67884634              100.56045313                0.46279007                0.27100793               -4.36518766                1.75793937               -0.45592494                0.76683223               16.76788903
              72.97446687               19.85103550               98.49508586                0.02272159               46.46565405                3.23453681               -1.41038981               44.64872628               69.10080972              -15.47957335
              74.90106987               14.92613947               97.79267592                0.00010000              102.30524687              -11.48268799              -33.42224172               88.40445718              181.18097210              -13.53291941
              77.02057181               10.06397726               96.74153037                0.00010000              107.62474425              -18.76183345              -32.51988177               90.68436586              197.66006333              -10.20582367
              79.05356476                5.23511461               95.57984386                0.00010000               98.64963307              -20.62726641              -30.01770169               94.23856023              211.88427504               -9.46921314
              80.99356447                0.41377139               94.22084315                0.00010000               89.87104125              -19.90508716              -27.68157590               97.89021757              217.74152054              -10.96931203
              82.85098558               -4.43593888               92.60114106                0.00010000               81.56019355              -18.26496832              -26.09863627               98.76474170              218.18356870              -14.75941864
              84.62476834               -9.37282945               90.61490853                0.00010000               71.23040676              -15.51498909              -25.40071831               92.64890158              210.94259602              -21.37595918
              86.27559372              -14.48768456               88.08941239                0.00010000               53.96654966               -8.99213163              -27.06831755               74.50874444              187.05367028              -32.24834558
              87.70409934              -19.90659543               84.70216084                0.00010000               35.18890213                6.96657497              -37.79223155               41.58368418              128.03020250              -50.17972590
              88.97937176              -25.75379944               80.02376324                0.43294686               27.52724264               39.04309867              -99.07277740               22.73130078               82.74593428              -83.39299403
              77.75426203               26.63169849              100.25806488                0.45692439                0.22313428               -4.51968560                1.68533408               -0.42346501                0.80427313               14.23317833
              78.75649337               20.88813176               98.02674469                0.01746460               43.65789444                3.64665029               -1.42246414               32.52143010               78.09709382              -13.14090577
              80.62741992               15.80446255               97.33829448                0.00010000               97.40431848              -13.33407897              -31.17375408               65.73308482              193.84901459              -12.38812532
              82.70457974               10.85678739               96.32273233                0.00010000              105.12258480              -22.27310445              -30.65498009               71.16789961              208.00901679               -8.98590599
              84.72987161                5.99898274               95.16657347                0.00010000               99.31567765              -25.24763464              -28.79325702               74.72016039              219.70483296               -7.69013347
              86.69089329                1.17840592               93.77899426                0.00010000               92.92066138              -25.25815667              -27.14230996               75.68644202              223.82757765               -8.23480128
              88.58828484               -3.65623790               92.09314305                0.00010000               85.90439490              -23.79747416              -26.15569158               73.36002051              222.84759340              -10.66813339
              90.40898119               -8.56018175               90.00221125                0.00010000               75.59551081              -20.32066729              -25.94935338               66.05990510              214.26567018              -15.35815455
              92.10019506              -13.59838429               87.33394572                0.00010000               57.32417841              -12.32121257              -27.93568350               51.43603186              188.91960891              -23.12695107
              93.55546476              -18.85081751               83.77133115                0.00010000               37.59372153                4.30978077              -38.57237778               28.22437479              128.49412120              -35.62333305
              94.85206949              -24.39446503               78.89950778                0.43313049               29.66047276               33.34649761              -98.93773114               15.44195986               82.60892505              -57.95732983
              83.45042095               27.58845263               99.93974112                0.44853376                0.17104590               -3.60245146                1.24754622               -0.32247280                0.80882218               11.72802269
              84.45213141               21.92396851               97.57118822                0.01134779               39.83274925                2.98487675               -1.04471638               19.61668316               87.65622830              -10.97224282
              86.24707594               16.65945789               96.93708611                0.00010000               89.86391037              -16.23089032              -27.63256771               41.42584230              207.40778316              -10.51851308
              88.24940962               11.61851517               95.98807447                0.00010000               98.96367504              -24.80667107              -27.64778029               50.73632957              218.69856184               -6.63911781
              90.22634944                6.73016192               94.86186394                0.00010000               95.65521636              -27.06262274              -26.85124998               54.25951163              227.51691709               -5.17545438
              92.16251394                1.90860825               93.47115564                0.00010000               91.52121155              -27.14707234              -26.18364990               53.29762679              229.62917741               -5.09148057
              94.05677367               -2.91188836               91.75263221                0.00010000               86.27994477              -25.87084253              -25.95678975               49.33213675              227.13461722               -6.51506880
              95.88811284               -7.77924280               89.60075705                0.00010000               76.90882217              -22.37014331              -26.24291313               42.59981965              217.24918743               -9.59361495
              97.59495011              -12.73410881               86.84465579                0.00010000               58.82773650              -14.22149643              -28.44174751               32.40345081              190.62794861              -14.74278177
              99.06466757              -17.82039981               83.17070625                0.00010000               39.02779498                2.13599866              -38.95810657               17.80132360              129.04392049              -22.73125748
             100.37550601              -23.08686949               78.17372612                0.43277352               31.08384406               29.24510581              -98.57689839                9.86607674               82.66590598              -36.91493932
              89.07678082               28.55964946               99.60736749                0.44053055                0.10409578               -1.87857460                0.25207093               -0.08912479                0.29967325                8.51153987
              90.07782178               22.94782929               97.12493466                0.00497538               34.23046398                1.47364943               -0.04099560                7.03684553               98.73246967               -8.14633182
              91.76139010               17.47984474               96.60886366                0.00010000               78.53902596              -19.59748582              -22.49292838               18.03040896              223.19777819               -6.48806457
              93.64860230               12.36065397               95.76413844                0.00010000               88.17893307              -24.44171094              -23.77540947               28.16932300              230.50734461               -3.76131218
              95.52496876                7.45773028               94.68236659                0.00010000               87.51469078              -26.10209675              -24.49320761               30.56298348              235.10937524               -2.34984498
              97.39889611                2.63546448               93.30842136                0.00010000               86.89049333              -26.55468227              -25.20667121               28.66179740              235.25869539               -2.05538514
              99.26277863               -2.17365475               91.58717235                0.00010000               84.21509609              -25.73943698              -25.84162175               25.24690070              231.45958182               -2.68974107
             101.08319803               -7.00758462               89.41583597                0.00010000               76.33212296              -22.64054034              -26.56169798               20.89925986              220.35361444               -4.37532515
             102.78942109              -11.88281422               86.62156871                0.00010000               59.05269360              -14.81105853              -28.94270394               15.63849364              192.76581047               -7.11030429
             104.26425191              -16.80809753               82.89335123                0.00010000               39.64546416                0.84196369              -39.36927028                8.76379950              130.03283885              -10.98954349
             105.58233037              -21.80956291               77.82477090                0.43300988               31.80784637               27.31821194              -98.60911539                4.96539290               82.86064044              -18.16909944
              94.67227879               29.55088114               99.24165218                0.71924831                0.03942480               -0.87683168               -0.36225935               -0.19416777                3.48538820                6.43691891
              95.67267303               23.95344150               96.70764550                0.43689226               26.12903259                0.56122045                0.79280929               -4.68352283              115.54644661               -6.25367894
              97.19485944               18.26750817               96.41200342                0.43518034               58.11187540              -21.23365730              -17.05372531                2.15890655              246.32001711              -10.23042177
              98.83491054               13.12968095               95.66328089                0.43571716               68.39695822              -23.09730188              -19.80643583               15.66141526              241.85661093               -6.45712594
             100.56279860                8.20811999               94.62695501                0.43612301               76.61121900              -24.96102937              -22.89791741               16.17466693              242.21264968               -5.65618506
             102.36713492                3.37751461               93.28212813                0.43620274               82.09810866              -25.79498669              -25.04310750               15.08402647              241.39344537               -5.94981847
             104.20476077               -1.42667710               91.58679943                0.43572157               82.40612948              -25.30223541              -26.36247738               13.71980404              237.77100516               -7.35091487
             106.01525751               -6.23205361               89.44097954                0.43554326               75.17360623              -22.44689885              -26.96249112               13.02330362              226.58354205               -9.97434481
             107.70823290              -11.03032998               86.66510066                0.43443446               57.57173715              -14.75157622              -28.68298157               13.30583457              197.33105984              -13.98517423
             109.16669225              -15.80356054               82.93535504                0.43330028               38.47558674                0.45369924              -39.32672928               14.73527152              132.31889707              -15.77992665
             110.47774463              -20.54050525               77.84896394                0.71667416               31.10523801               26.90576657              -98.61635658               15.84695552               84.26568823              -19.53464275
              38.41868331               19.89610273              103.35581498                1.00000000                0.36975681                1.77396694               -0.49005644                0.85879203               -2.32649376                2.17492109
              39.42238088               14.46500620              102.35576459                1.00000000                2.96389388               -1.19302832               -0.02665312                2.89050668               -4.15875066               -1.25289863
              40.47796119                9.10646211              101.32454463                1.00000000                4.43958029                1.80851813               -1.20795207               -2.85597651               -4.67057800                2.94582820
              41.51117248                3.94216295              100.35441399                1.00000000                2.62546936                0.72134335               -0.60628862               -0.70554592               -1.73223424                1.19469335
              42.53047058               -1.12577580               99.39062113                1.00000000                1.33514530                0.48359271               -0.24894894               -0.47469502               -1.18574922                0.59966278
              43.53787539               -6.14975582               98.42856464                1.00000000                0.41965735                0.20997795                0.05968824               -0.42764927               -1.09343996                0.10527134
              44.53886372              -11.16766674               97.46145175                1.00000000               -0.02823555                0.03236981                0.24254618               -0.55638617               -1.36645585               -0.20809527
              45.53731068              -16.20250340               96.48530391                1.00000000               -0.15155731               -0.05955994                0.35156890               -0.72737249               -1.77774653               -0.36373271
              46.53583258              -21.26492576               95.49787627                1.00000000               -0.12711106               -0.04639332                0.42489153               -0.85727189               -2.14650185               -0.41464071
              47.53476846              -26.35409369               94.49950643                1.00000000               -0.10476100                0.16206940                0.58607504               -0.52605288               -1.95262612               -0.35332642
              48.53373736              -31.45451780               93.50171981                1.00000000               -0.10311020               -0.24356711                0.76230787                0.17202497               -1.47939945               -1.22283805
              43.85836776               20.91384240              102.97429943                1.00000000               -1.22615055                9.94745715               -0.56116658               15.04514866                3.87513916                5.97702603
              44.84610626               15.45307592              101.98915976                1.00000000               -7.37723570               -9.37630846                1.67517555               21.79919684                9.06322377               -6.92311017
              45.71082305               10.12454729              101.11213787                1.00000000              -11.29351409               31.59143810                2.67512303              131.81460724               10.37248806              -24.93728671
              46.62023598                4.94937638              100.19073797                1.00000000               -6.95700197               34.19097035                1.44103576              184.19459667                6.84264656              -28.94436820
              47.57168301               -0.12093987               99.26943631                1.00000000               -3.28458042               37.23007504                0.54291957              214.12999799                6.07048210              -34.44262780
              48.55454437               -5.14765605               98.34428140                1.00000000               -0.60046807               41.02267327               -0.22253267              234.07385769                5.67191597              -40.43139285
              49.55967365              -10.16734304               97.41479061                1.00000000                1.20610496               46.74531439               -0.80315924              248.47886872                5.55127628              -48.59607806
              50.57866647              -15.20309900               96.47925308                1.00000000                2.16906769               54.49510250               -1.19247174              259.38918919                5.45152962              -60.05068963
              51.60305500              -20.26538969               95.53469598                1.00000000                2.28187410               62.42641746               -1.41061338              267.88471669                5.12548123              -77.08914429
              52.62430395              -25.35247300               94.57832992                1.00000000                1.64133560               67.53319245               -1.52659540              273.91363434                3.98877418             -106.43177877
              53.63588171              -30.45695347               93.60122334                1.00000000                1.15777655              -23.13175034               -1.40211893              281.30447387                2.77262682             -177.72190427
              49.64111925               22.09505187              102.65884072                1.00000000                0.65406743               13.20397704               -3.60893430               10.45464324                4.56595879               15.56323126
              50.64765993               16.27748003              101.50815925                1.00000000               98.84168075              -13.69008673                3.92910003               75.32558259                3.33484531              -16.31142269
              53.61795287               11.73829087              100.32838521                1.00000000              139.64458226               28.16681919              -48.85576870              222.65965828              154.97099927              -11.82375778
              55.44055157                6.62598235               99.42096292                1.00000000               64.60750449               45.49626460              -35.28537601              270.38872217              195.52998594              -19.64664490
              56.91010296                1.61882570               98.44594559                1.00000000               41.26020697               53.51403710              -34.11100809              324.44604974              201.59089460              -24.41915760
              58.26575571               -3.32930236               97.44979316                1.00000000               32.68905463               61.52229975              -33.33354460              364.29202734              206.10789237              -29.86453844
              59.56388405               -8.23276045               96.40228737                1.00000000               27.86927031               71.36527053              -33.91167154              396.63131362              209.06377960              -36.93321370
              60.82314112              -13.11260135               95.28205952                1.00000000               23.95084276               82.77684323              -34.23623415              423.17862712              211.88630482              -46.79863428
              62.04290091              -18.01639741               94.04023393                1.00000000               19.07319013               92.35017265              -31.97129985              445.46636780              211.77310350              -63.34690461
              63.20460492              -23.00342984               92.53395498                1.00000000               16.29434370               82.31134597              -22.10911461              379.74274050              181.66258213              -89.27203188
              64.36878778              -29.91715281               90.16970060                1.00000000               16.41828589               -8.58727926              -21.13926155              305.31422227              130.26383557             -247.11481582
              55.70260432               23.17792194              102.39712089                1.00000000                0.67745978                4.81484012               -0.69672939               11.04259450                1.51340439               19.22134646
              56.70937892               17.17927418              100.98331939                1.00000000              105.64547870               -6.51196526                1.05068973               86.42453877               12.86505522              -19.00778128
              59.81551389               12.68788367               99.78824555                1.00000000              171.90483334               -8.26212209              -52.69681070              150.51222235              160.02094987               -7.65136813
              62.14747558                7.85930167               98.87717351                1.00000000              110.01874122                9.86180784              -38.26603385              161.65013284              209.14013734               -4.58399089
              64.01588872                2.94934087               97.85642746                1.00000000               77.22477425               19.52190920              -34.39876593              192.06586149              217.78047610               -7.00884325
              65.69197107               -1.91721005               96.76647239                1.00000000               62.98550981               26.61667634              -31.62523792              225.25300201              223.18799673              -10.51088402
              67.27559891               -6.74003763               95.56563993                1.00000000               56.69524526               32.64407897              -30.24775429              255.70059337              225.76440367              -15.54294009
              68.82587597              -11.54756214               94.19888622                1.00000000               56.38059685               36.58335124              -28.75156819              282.40288167              225.52428687              -23.20535318
              70.40321085              -16.41838624               92.54060586                1.00000000               64.70190906               34.18471394              -27.15501137              293.12344496              218.29531379              -36.22192583
              72.11991415              -21.70624608               90.33539892                1.00000000               58.32006196               12.58907863              -21.46949446              231.60590241              170.12515215              -63.04893103
              73.56961209              -28.62869906               86.60553776                1.00000000               44.96979348               29.42070009              -64.49937802              170.40379809              123.04015638             -169.88648485
              61.85926667               24.19134868              102.13401491                1.00000000                0.69223085               -0.64942150                0.55319990               10.43273767                0.25069402               18.52784045
              62.86618897               18.14724072              100.46732300                1.00000000              104.44515802               -1.13756597               -0.26357909               83.89817650               22.65918208              -17.98430392
              65.94816983               13.57304843               99.24146980                1.00000000              177.29540271              -12.18860360              -56.14755592              141.66564336              172.50440193               -8.90684800
              68.41209703                8.82321851               98.32851057                1.00000000              128.98810419               -9.27773836              -40.91710580              137.75453320              218.72982560               -5.61372615
              70.52793191                4.00926389               97.26361444                1.00000000              102.40486126               -3.16056384              -36.50077520              153.47179661              227.27498911               -5.77735786
              72.46019425               -0.79696883               96.07848881                1.00000000               89.01580472                1.28744057              -32.90476826              176.75969873              232.40822209               -8.12896078
              74.30824800               -5.57987887               94.71741875                1.00000000               84.46765565                3.73806327              -31.01596789              200.55453573              234.18676003              -12.02079055
              76.14954737              -10.38093433               93.10083455                1.00000000               87.79028720                2.92182048              -29.76431241              217.87597876              232.60332688              -18.12119754
              78.06405375              -15.33270313               91.07139291                1.00000000               94.87442092               -3.47520281              -29.06021611              214.24915501              222.97282995              -28.49601377
              80.04703579              -20.75164827               88.30996818                1.00000000               77.88579753               -8.98848304              -28.58171011              153.17181893              172.63542653              -49.41893998
              81.62176970              -27.32873880               83.90564145                1.00000000               57.47339137               26.98706251              -72.60761736              104.31252692              127.06786370             -107.00582766
              67.99947498               25.16493351              101.86299251                1.00000000                0.61677197               -3.69621424                1.38648459                9.20246489               -0.63030214               16.79067006
              69.00564270               19.15652286               99.96497336                1.00000000               98.66869991                2.15803449               -1.15901025               73.91822728               32.98238430              -16.10486855
              71.97284897               14.44411160               98.73297874                1.00000000              173.03540440              -13.60003347              -55.29317844              122.84528620              182.25184364               -7.70520338
              74.46635078                9.67374690               97.80885734                1.00000000              136.63315079              -18.57508228              -41.27306058              119.22685996              225.43830964               -5.23042796
              76.70551199                4.88612960               96.70877850                1.00000000              117.49785079              -18.41060072              -36.79923427              127.80605098              232.69994710               -4.84230840
              78.81630780                0.10853876               95.44162137                1.00000000              108.25715654              -17.16501458              -33.22728817              142.71051052              237.10868900               -6.24964699
              80.87065512               -4.66527636               93.94240758                1.00000000              105.99560062              -17.08848134              -31.38929230              157.47477634              238.30710745               -9.09374099
              82.93621981               -9.48912573               92.11923161                1.00000000              109.41263862              -19.02158160              -30.38637667              164.55903792              236.00527534              -13.76644193
              85.05890789              -14.48789030               89.79858841                1.00000000              112.15831963              -21.28390028              -30.59269626              152.34215044              225.44667818              -21.85341651
              87.17938620              -19.88601574               86.66285776                1.00000000               87.55679022              -15.50213858              -31.05945033              102.64503939              174.10437970              -36.00543610
              88.81004370              -26.08895781               81.83725599                1.00000000               63.06574931               20.36347594              -74.53736089               66.92987028              128.14064743              -72.40160570
              74.06013726               26.11742439              101.57796577                1.00000000                0.52381680               -5.12198019                1.75126341                7.75873807               -1.05233431               14.48809168
              75.06537543               20.19040141               99.47906195                1.00000000               91.38571218                3.96400511               -1.60239117               59.54426471               43.56132552              -13.81319920
              77.88785151               15.30104776               98.26737516                1.00000000              164.46203991              -15.44514120              -52.53007625               98.07133758              191.74788218               -6.36995371
              80.35461623               10.45171686               97.34045633                1.00000000              138.07047822              -24.98010991              -40.10740427               97.83384615              230.91394448               -4.37156591
              82.64926107                5.64105187               96.21756521                1.00000000              125.55970959              -28.57224873              -36.22786527              104.34253618              237.01849888               -3.89341372
              84.86581042                0.85973088               94.88943368                1.00000000              120.30734731              -29.75780640              -33.14094652              113.40145407              240.55731434               -4.80184308
              87.05540802               -3.92164850               93.28421959                1.00000000              119.87658193              -30.74671496              -31.69214705              120.71924622              241.17022049               -6.87679140
              89.26334206               -8.76136596               91.30399322                1.00000000              122.61893758              -31.71209848              -31.09153112              120.92328952              238.29748505              -10.44849505
              91.50778677              -13.75838114               88.77302186                1.00000000              121.88310105              -29.97678482              -31.63905324              107.15161639              227.09929009              -16.38872708
              93.70100408              -19.06169104               85.38159292                1.00000000               92.92322345              -19.05080395              -32.05679205               69.70156296              175.28292892              -26.20219885
              95.36625124              -24.92146929               80.28487094                1.00000000               66.52471570               13.41391115              -73.88923025               44.74528879              129.01574950              -50.03018682
              80.00869569               27.06249391              101.27559825                1.00000000                0.42089317               -5.27212611                1.75333712                6.23351497               -1.11870362               11.85701994
              81.01290463               21.23580296               99.00997755                1.00000000               83.21322916                4.50632995               -1.67671372               42.44107267               54.64936730              -11.30246264
              83.67296028               16.13520878               97.85576309                1.00000000              153.50594822              -18.38661529              -48.25313876               68.57420710              201.35249925               -4.70657935
              86.08302359               11.17414471               96.94594681                1.00000000              135.56942124              -30.10590348              -37.67855144               73.63251959              236.00801621               -2.91417771
              88.38434870                6.31468462               95.81903571                1.00000000              128.20068309              -35.02786415              -34.75377629               80.32977922              240.83364493               -2.51993441
              90.64703725                1.51338263               94.45366553                1.00000000              126.08940891              -37.02234037              -32.53287311               85.58506774              243.47715957               -3.18423987
              92.90613688               -3.28021066               92.77629098                1.00000000              127.21904972              -38.26311723              -31.68520626               87.75112470              243.46866322               -4.71140434
              95.19141825               -8.12336770               90.68733472                1.00000000              129.80642124              -38.34831453              -31.48765307               84.58178280              240.03950764               -7.31956356
              97.50226530              -13.08742599               88.01220703                1.00000000              127.25436830              -34.47254342              -32.17386907               72.69117855              228.29053972              -11.53840457
              99.73650561              -18.26703182               84.44900501                1.00000000               96.11203298              -21.74945762              -32.23261428               46.47290622              176.09333126              -18.26364213
             101.42450596              -23.82067958               79.17199194                1.00000000               68.80003521                7.47295348              -72.75158336               29.72348019              129.54234101              -34.09952514
              85.83818945               28.01198187              100.95351532                1.00000000                0.32925659               -4.29291479                1.37742016                4.63715142               -0.80765340                9.17335332
              86.84148202               22.28052801               98.55767029                1.00000000               74.14022279                3.83698033               -1.35179357               23.76102200               66.84685077               -8.81198596
              89.32099391               16.93331545               97.51175112                1.00000000              140.31543788              -22.94301041              -42.53349910               36.08181996              211.88119024               -2.27887399
              91.64779078               11.84959879               96.64745815                1.00000000              129.78124105              -34.22909448              -34.06163266               48.80643035              241.03869704               -0.86844513
              93.91661873                6.94049459               95.53576275                1.00000000              126.23081420              -37.78980138              -32.61011890               55.94843878              244.44379491               -0.79823214
              96.17240706                2.11928407               94.15579546                1.00000000              126.52810563              -39.59929680              -31.53601791               58.13919591              246.09802581               -1.44415565
              98.44718084               -2.68691084               92.43793703                1.00000000              129.48929951              -40.95397126              -31.46951742               56.77884650              245.44963633               -2.60364394
             100.76219305               -7.52833225               90.28397384                1.00000000              132.90468108              -41.12512813              -31.67832108               52.42652952              241.52802772               -4.40903372
             103.10527446              -12.44783201               87.52033717                1.00000000              130.07613730              -37.05615936              -32.43186212               44.26499109              229.27117842               -7.18945608
             105.36371580              -17.49668019               83.84874871                1.00000000               98.13709551              -24.01012224              -32.19575457               28.49468424              176.65344141              -11.50552060
             107.06801637              -22.77201022               78.45530954                1.00000000               70.43005773                3.16143959              -71.84165799               18.45728103              129.90711996              -21.53274380
              91.56434644               28.97663561              100.61200684                1.00000000                0.24450482               -2.38844299                0.46393517                2.75751703               -0.38224075                6.03660932
              92.56679148               23.31254257               98.12061882                1.00000000               63.05897297                2.09034201               -0.43158345                4.09065409               81.42015248               -5.87495742
              94.82552589               17.67634857               97.26247048                1.00000000              124.25907861              -29.80731709              -34.63931778                6.89274570              223.70317171                1.54574743
              97.05197306               12.48956282               96.46641066                1.00000000              120.40531536              -34.37206964              -29.77277791               24.36588685              246.33383833                1.52399412
              99.23363220                7.55888859               95.38240573                1.00000000              119.26267727              -36.77682559              -29.99608657               30.16763747              247.71735045                0.84003797
             101.43722660                2.72139670               94.00343079                1.00000000              122.78489623              -38.63165548              -30.49905701               29.68157454              248.42591553               -0.03512458
             103.68933013               -2.09929009               92.27426306                1.00000000              128.18217009              -40.47792894              -31.29092858               26.96105504              247.35025751               -0.86154706
             106.00087000               -6.94587026               90.09733294                1.00000000              133.32914723              -41.44543573              -31.85030278               23.39717030              242.84725850               -1.90431439
             108.35591307              -11.82854918               87.29586429                1.00000000              131.48537515              -39.15042680              -32.57044152               19.72923023              230.35531946               -3.15424839
             110.63057751              -16.74723426               83.57145536                1.00000000               99.41992796              -25.69393109              -32.18958663               13.31072585              177.42027167               -5.40195521
             112.34431163              -21.75745079               78.11161853                1.00000000               71.37341242                0.80495230              -71.31523699                8.94503314              130.21444262              -10.63807171
              97.22152588               29.96421301              100.24027520                1.00000000                0.20562681               -1.24226022               -0.13769767                1.53012844                1.97164753                4.16002238
              98.22358214               24.32233485               97.71074458                1.00000000               53.01513499                0.97922828                0.30990793              -15.67312891              100.56007245               -4.09808820
             100.28182858               18.33716911               97.14965843                1.00000000              101.44931706              -33.91794578              -26.23449960              -12.37860443              244.16570181               -4.31511186
             102.25256849               13.16215740               96.42012034                1.00000000              100.31545102              -32.74054147              -24.31605474               13.44899153              251.79521716               -1.38138743
             104.28813760                8.20495808               95.35024688                1.00000000              108.58243723              -35.39305143              -27.67081358               14.67521740              250.68930895               -3.53207577
             106.42421723                3.34665096               93.98322853                1.00000000              118.27656504              -37.47457380              -29.88996050               13.62768800              251.79472535               -5.10659114
             108.65366890               -1.49646942               92.27197677                1.00000000              126.75891602              -39.71793330              -31.48226621               11.23928101              251.85232776               -7.20786115
             110.95939555               -6.35724096               90.12245884                1.00000000              132.37770872              -41.13707048              -31.85207008                9.13399858              248.25107157              -10.00614620
             113.30122307              -11.23084054               87.34872212                1.00000000              129.97181863              -40.22913620              -31.63785424               11.86510749              234.12522862              -14.76527342
             115.55883192              -16.01055882               83.61898306                1.00000000               98.30635106              -26.33245527              -31.63719724               16.57191038              178.69405415              -15.94705731
             117.26735009              -20.75591117               78.13832386                1.00000000               70.85181698                0.15396210              -71.06400765               17.76861081              130.89462585              -18.87005851
         1          2         13         12        122        123        134        133  
         2          3         14         13        123        124        135        134  
         3          4         15         14        124        125        136        135  
         4          5         16         15        125        126        137        136  
         5          6         17         16        126        127        138        137  
         6          7         18         17        127        128        139        138  
         7          8         19         18        128        129        140        139  
         8          9         20         19        129        130        141        140  
         9         10         21         20        130        131        142        141  
        10         11         22         21        131        132        143        142  
        12         13         24         23        133        134        145        144  
        13         14         25         24        134        135        146        145  
        14         15         26         25        135        136        147        146  
        15         16         27         26        136        137        148        147  
        16         17         28         27        137        138        149        148  
        17         18         29         28        138        139        150        149  
        18         19         30         29        139        140        151        150  
        19         20         31         30        140        141        152        151  
        20         21         32         31        141        142        153        152  
        21         22         33         32        142        143        154        153  
        23         24         35         34        144        145        156        155  
        24         25         36         35        145        146        157        156  
        25         26         37         36        146        147        158        157  
        26         27         38         37        147        148        159        158  
        27         28         39         38        148        149        160        159  
        28         29         40         39        149        150        161        160  
        29         30         41         40        150        151        162        161  
        30         31         42         41        151        152        163        162  
        31         32         43         42        152        153        164        163  
        32         33         44         43        153        154        165        164  
        34         35         46         45        155        156        167        166  
        35         36         47         46        156        157        168        167  
        36         37         48         47        157        158        169        168  
        37         38         49         48        158        159        170        169  
        38         39         50         49        159        160        171        170  
        39         40         51         50        160        161        172        171  
        40         41         52         51        161        162        173        172  
        41         42         53         52        162        163        174        173  
        42         43         54         53        163        164        175        174  
        43         44         55         54        164        165        176        175  
        45         46         57         56        166        167        178        177  
        46         47         58         57        167        168        179        178  
        47         48         59         58        168        169        180        179  
        48         49         60         59        169        170        181        180  
        49         50         61         60        170        171        182        181  
        50         51         62         61        171        172        183        182  
        51         52         63         62        172        173        184        183  
        52         53         64         63        173        174        185        184  
        53         54         65         64        174        175        186        185  
        54         55         66         65        175        176        187        186  
        56         57         68         67        177        178        189        188  
        57         58         69         68        178        179        190        189  
        58         59         70         69        179        180        191        190  
        59         60         71         70        180        181        192        191  
        60         61         72         71        181        182        193        192  
        61         62         73         72        182        183        194        193  
        62         63         74         73        183        184        195        194  
        63         64         75         74        184        185        196        195  
        64         65         76         75        185        186        197        196  
        65         66         77         76        186        187        198        197  
        67         68         79         78        188        189        200        199  
        68         69         80         79        189        190        201        200  
        69         70         81         80        190        191        202        201  
        70         71         82         81        191        192        203        202  
        71         72         83         82        192        193        204        203  
        72         73         84         83        193        194        205        204  
        73         74         85         84        194        195        206        205  
        74         75         86         85        195        196        207        206  
        75         76         87         86        196        197        208        207  
        76         77         88         87        197        198        209        208  
        78         79         90         89        199        200        211        210  
        79         80         91         90        200        201        212        211  
        80         81         92         91        201        202        213        212  
        81         82         93         92        202        203        214        213  
        82         83         94         93        203        204        215        214  
        83         84         95         94        204        205        216        215  
        84         85         96         95        205        206        217        216  
        85         86         97         96        206        207        218        217  
        86         87         98         97        207        208        219        218  
        87         88         99         98        208        209        220        219  
        89         90        101        100        210        211        222        221  
        90         91        102        101        211        212        223        222  
        91         92        103        102        212        213        224        223  
        92         93        104        103        213        214        225        224  
        93         94        105        104        214        215        226        225  
        94         95        106        105        215        216        227        226  
        95         96        107        106        216        217        228        227  
        96         97        108        107        217        218        229        228  
        97         98        109        108        218        219        230        229  
        98         99        110        109        219        220        231        230  
       100        101        112        111        221        222        233        232  
       101        102        113        112        222        223        234        233  
       102        103        114        113        223        224        235        234  
       103        104        115        114        224        225        236        235  
       104        105        116        115        225        226        237        236  
       105        106        117        116        226        227        238        237  
       106        107        118        117        227        228        239        238  
       107        108        119        118        228        229        240        239  
       108        109        120        119        229        230        241        240  
       109        110        121        120        230        231        242        241  
       122        123        134        133        243        244        255        254  
       123        124        135        134        244        245        256        255  
       124        125        136        135        245        246        257        256  
       125        126        137        136        246        247        258        257  
       126        127        138        137        247        248        259        258  
       127        128        139        138        248        249        260        259  
       128        129        140        139        249        250        261        260  
       129        130        141        140        250        251        262        261  
       130        131        142        141        251        252        263        262  
       131        132        143        142        252        253        264        263  
       133        134        145        144        254        255        266        265  
       134        135        146        145        255        256        267        266  
       135        136        147        146        256        257        268        267  
       136        137        148        147        257        258        269        268  
       137        138        149        148        258        259        270        269  
       138        139        150        149        259        260        271        270  
       139        140        151        150        260        261        272        271  
       140        141        152        151        261        262        273        272  
       141        142        153        152        262        263        274        273  
       142        143        154        153        263        264        275        274  
       144        145        156        155        265        266        277        276  
       145        146        157        156        266        267        278        277  
       146        147        158        157        267        268        279        278  
       147        148        159        158        268        269        280        279  
       148        149        160        159        269        270        281        280  
       149        150        161        160        270        271        282        281  
       150        151        162        161        271        272        283        282  
       151        152        163        162        272        273        284        283  
       152        153        164        163        273        274        285        284  
       153        154        165        164        274        275        286        285  
       155        156        167        166        276        277        288        287  
       156        157        168        167        277        278        289        288  
       157        158        169        168        278        279        290        289  
       158        159        170        169        279        280        291        290  
       159        160        171        170        280        281        292        291  
       160        161        172        171        281        282        293        292  
       161        162        173        172        282        283        294        293  
       162        163        174        173        283        284        295        294  
       163        164        175        174        284        285        296        295  
       164        165        176        175        285        286        297        296  
       166        167        178        177        287        288        299        298  
       167        168        179        178        288        289        300        299  
       168        169        180        179        289        290        301        300  
       169        170        181        180        290        291        302        301  
       170        171        182        181        291        292        303        302  
       171        172        183        182        292        293        304        303  
       172        173        184        183        293        294        305        304  
       173        174        185        184        294        295        306        305  
       174        175        186        185        295        296        307        306  
       175        176        187        186        296        297        308        307  
       177        178        189        188        298        299        310        309  
       178        179        190        189        299        300        311        310  
       179        180        191        190        300        301        312        311  
       180        181        192        191        301        302        313        312  
       181        182        193        192        302        303        314        313  
       182        183        194        193        303        304        315        314  
       183        184        195        194        304        305        316        315  
       184        185        196        195        305        306        317        316  
       185        186        197        196        306        307        318        317  
       186        187        198        197        307        308        319        318  
       188        189        200        199        309        310        321        320  
       189        190        201        200        310        311        322        321  
       190        191        202        201        311        312        323        322  
       191        192        203        202        312        313        324        323  
       192        193        204        203        313        314        325        324  
       193        194        205        204        314        315        326        325  
       194        195        206        205        315        316        327        326  
       195        196        207        206        316        317        328        327  
       196        197        208        207        317        318        329        328  
       197        198        209        208        318        319        330        329  
       199        200        211        210        320        321        332        331  
       200        201        212        211        321        322        333        332  
       201        202        213        212        322        323        334        333  
       202        203        214        213        323        324        335        334  
       203        204        215        214        324        325        336        335  
       204        205        216        215        325        326        337        336  
       205        206        217        216        326        327        338        337  
       206        207        218        217        327        328        339        338  
       207        208        219        218        328        329        340        339  
       208        209        220        219        329        330        341        340  
       210        211        222        221        331        332        343        342  
       211        212        223        222        332        333        344        343  
       212        213        224        223        333        334        345        344  
       213        214        225        224        334        335        346        345  
       214        215        226        225        335        336        347        346  
       215        216        227        226        336        337        348        347  
       216        217        228        227        337        338        349        348  
       217        218        229        228        338        339        350        349  
       218        219        230        229        339        340        351        350  
       219        220        231        230        340        341        352        351  
       221        222        233        232        342        343        354        353  
       222        223        234        233        343        344        355        354  
       223        224        235        234        344        345        356        355  
       224        225        236        235        345        346        357        356  
       225        226        237        236        346        347        358        357  
       226        227        238        237        347        348        359        358  
       227        228        239        238        348        349        360        359  
       228        229        240        239        349        350        361        360  
       229        230        241        240        350        351        362        361  
       230        231        242        241        351        352        363        362  
       243        244        255        254        364        365        376        375  
       244        245        256        255        365        366        377        376  
       245        246        257        256        366        367        378        377  
       246        247        258        257        367        368        379        378  
       247        248        259        258        368        369        380        379  
       248        249        260        259        369        370        381        380  
       249        250        261        260        370        371        382        381  
       250        251        262        261        371        372        383        382  
       251        252        263        262        372        373        384        383  
       252        253        264        263        373        374        385        384  
       254        255        266        265        375        376        387        386  
       255        256        267        266        376        377        388        387  
       256        257        268        267        377        378        389        388  
       257        258        269        268        378        379        390        389  
       258        259        270        269        379        380        391        390  
       259        260        271        270        380        381        392        391  
       260        261        272        271        381        382        393        392  
       261        262        273        272        382        383        394        393  
       262        263        274        273        383        384        395        394  
       263        264        275        274        384        385        396        395  
       265        266        277        276        386        387        398        397  
       266        267        278        277        387        388        399        398  
       267        268        279        278        388        389        400        399  
       268        269        280        279        389        390        401        400  
       269        270        281        280        390        391        402        401  
       270        271        282        281        391        392        403        402  
       271        272        283        282        392        393        404        403  
       272        273        284        283        393        394        405        404  
       273        274        285        284        394        395        406        405  
       274        275        286        285        395        396        407        406  
       276        277        288        287        397        398        409        408  
       277        278        289        288        398        399        410        409  
       278        279        290        289        399        400        411        410  
       279        280        291        290        400        401        412        411  
       280        281        292        291        401        402        413        412  
       281        282        293        292        402        403        414        413  
       282        283        294        293        403        404        415        414  
       283        284        295        294        404        405        416        415  
       284        285        296        295        405        406        417        416  
       285        286        297        296        406        407        418        417  
       287        288        299        298        408        409        420        419  
       288        289        300        299        409        410        421        420  
       289        290        301        300        410        411        422        421  
       290        291        302        301        411        412        423        422  
       291        292        303        302        412        413        424        423  
       292        293        304        303        413        414        425        424  
       293        294        305        304        414        415        426        425  
       294        295        306        305        415        416        427        426  
       295        296        307        306        416        417        428        427  
       296        297        308        307        417        418        429        428  
       298        299        310        309        419        420        431        430  
       299        300        311        310        420        421        432        431  
       300        301        312        311        421        422        433        432  
       301        302        313        312        422        423        434        433  
       302        303        314        313        423        424        435        434  
       303        304        315        314        424        425        436        435  
       304        305        316        315        425        426        437        436  
       305        306        317        316        426        427        438        437  
       306        307        318        317        427        428        439        438  
       307        308        319        318        428        429        440        439  
       309        310        321        320        430        431        442        441  
       310        311        322        321        431        432        443        442  
       311        312        323        322        432        433        444        443  
       312        313        324        323        433        434        445        444  
       313        314        325        324        434        435        446        445  
       314        315        326        325        435        436        447        446  
       315        316        327        326        436        437        448        447  
       316        317        328        327        437        438        449        448  
       317        318        329        328        438        439        450        449  
       318        319        330        329        439        440        451        450  
       320        321        332        331        441        442        453        452  
       321        322        333        332        442        443        454        453  
       322        323        334        333        443        444        455        454  
       323        324        335        334        444        445        456        455  
       324        325        336        335        445        446        457        456  
       325        326        337        336        446        447        458        457  
       326        327        338        337        447        448        459        458  
       327        328        339        338        448        449        460        459  
       328        329        340        339        449        450        461        460  
       329        330        341        340        450        451        462        461  
       331        332        343        342        452        453        464        463  
       332        333        344        343        453        454        465        464  
       333        334        345        344        454        455        466        465  
       334        335        346        345        455        456        467        466  
       335        336        347        346        456        457        468        467  
       336        337        348        347        457        458        469        468  
       337        338        349        348        458        459        470        469  
       338        339        350        349        459        460        471        470  
       339        340        351        350        460        461        472        471  
       340        341        352        351        461        462        473        472  
       342        343        354        353        463        464        475        474  
       343        344        355        354        464        465        476        475  
       344        345        356        355        465        466        477        476  
       345        346        357        356        466        467        478        477  
       346        347        358        357        467        468        479        478  
       347        348        359        358        468        469        480        479  
       348        349        360        359        469        470        481        480  
       349        350        361        360        470        471        482        481  
       350        351        362        361        471        472        483        482  
       351        352        363        362        472        473        484        483  
       364        365        376        375        485        486        497        496  
       365        366        377        376        486        487        498        497  
       366        367        378        377        487        488        499        498  
       367        368        379        378        488        489        500        499  
       368        369        380        379        489        490        501        500  
       369        370        381        380        490        491        502        501  
       370        371        382        381        491        492        503        502  
       371        372        383        382        492        493        504        503  
       372        373        384        383        493        494        505        504  
       373        374        385        384        494        495        506        505  
       375        376        387        386        496        497        508        507  
       376        377        388        387        497        498        509        508  
       377        378        389        388        498        499        510        509  
       378        379        390        389        499        500        511        510  
       379        380        391        390        500        501        512        511  
       380        381        392        391        501        502        513        512  
       381        382        393        392        502        503        514        513  
       382        383        394        393        503        504        515        514  
       383        384        395        394        504        505        516        515  
       384        385        396        395        505        506        517        516  
       386        387        398        397        507        508        519        518  
       387        388        399        398        508        509        520        519  
       388        389        400        399        509        510        521        520  
       389        390        401        400        510        511        522        521  
       390        391        402        401        511        512        523        522  
       391        392        403        402        512        513        524        523  
       392        393        404        403        513        514        525        524  
       393        394        405        404        514        515        526        525  
       394        395        406        405        515        516        527        526  
       395        396        407        406        516        517        528        527  
       397        398        409        408        518        519        530        529  
       398        399        410        409        519        520        531        530  
       399        400        411        410        520        521        532        531  
       400        401        412        411        521        522        533        532  
       401        402        413        412        522        523        534        533  
       402        403        414        413        523        524        535        534  
       403        404        415        414        524        525        536        535  
       404        405        416        415        525        526        537        536  
       405        406        417        416        526        527        538        537  
       406        407        418        417        527        528        539        538  
       408        409        420        419        529        530        541        540  
       409        410        421        420        530        531        542        541  
       410        411        422        421        531        532        543        542  
       411        412        423        422        532        533        544        543  
       412        413        424        423        533        534        545        544  
       413        414        425        424        534        535        546        545  
       414        415        426        425        535        536        547        546  
       415        416        427        426        536        537        548        547  
       416        417        428        427        537        538        549        548  
       417        418        429        428        538        539        550        549  
       419        420        431        430        540        541        552        551  
       420        421        432        431        541        542        553        552  
       421        422        433        432        542        543        554        553  
       422        423        434        433        543        544        555        554  
       423        424        435        434        544        545        556        555  
       424        425        436        435        545        546        557        556  
       425        426        437        436        546        547        558        557  
       426        427        438        437        547        548        559        558  
       427        428        439        438        548        549        560        559  
       428        429        440        439        549        550        561        560  
       430        431        442        441        551        552        563        562  
       431        432        443        442        552        553        564        563  
       432        433        444        443        553        554        565        564  
       433        434        445        444        554        555        566        565  
       434        435        446        445        555        556        567        566  
       435        436        447        446        556        557        568        567  
       436        437        448        447        557        558        569        568  
       437        438        449        448        558        559        570        569  
       438        439        450        449        559        560        571        570  
       439        440        451        450        560        561        572        571  
       441        442        453        452        562        563        574        573  
       442        443        454        453        563        564        575        574  
       443        444        455        454        564        565        576        575  
       444        445        456        455        565        566        577        576  
       445        446        457        456        566        567        578        577  
       446        447        458        457        567        568        579        578  
       447        448        459        458        568        569        580        579  
       448        449        460        459        569        570        581        580  
       449        450        461        460        570        571        582        581  
       450        451        462        461        571        572        583        582  
       452        453        464        463        573        574        585        584  
       453        454        465        464        574        575        586        585  
       454        455        466        465        575        576        587        586  
       455        456        467        466        576        577        588        587  
       456        457        468        467        577        578        589        588  
       457        458        469        468        578        579        590        589  
       458        459        470        469        579        580        591        590  
       459        460        471        470        580        581        592        591  
       460        461        472        471        581        582        593        592  
       461        462        473        472        582        583        594        593  
       463        464        475        474        584        585        596        595  
       464        465        476        475        585        586        597        596  
       465        466        477        476        586        587        598        597  
       466        467        478        477        587        588        599        598  
       467        468        479        478        588        589        600        599  
       468        469        480        479        589        590        601        600  
       469        470        481        480        590        591        602        601  
       470        471        482        481        591        592        603        602  
       471        472        483        482        592        593        604        603  
       472        473        484        483        593        594        605        604  
       485        486        497        496        606        607        618        617  
       486        487        498        497        607        608        619        618  
       487        488        499        498        608        609        620        619  
       488        489        500        499        609        610        621        620  
       489        490        501        500        610        611        622        621  
       490        491        502        501        611        612        623        622  
       491        492        503        502        612        613        624        623  
       492        493        504        503        613        614        625        624  
       493        494        505        504        614        615        626        625  
       494        495        506        505        615        616        627        626  
       496        497        508        507        617        618        629        628  
       497        498        509        508        618        619        630        629  
       498        499        510        509        619        620        631        630  
       499        500        511        510        620        621        632        631  
       500        501        512        511        621        622        633        632  
       501        502        513        512        622        623        634        633  
       502        503        514        513        623        624        635        634  
       503        504        515        514        624        625        636        635  
       504        505        516        515        625        626        637        636  
       505        506        517        516        626        627        638        637  
       507        508        519        518        628        629        640        639  
       508        509        520        519        629        630        641        640  
       509        510        521        520        630        631        642        641  
       510        511        522        521        631        632        643        642  
       511        512        523        522        632        633        644        643  
       512        513        524        523        633        634        645        644  
       513        514        525        524        634        635        646        645  
       514        515        526        525        635        636        647        646  
       515        516        527        526        636        637        648        647  
       516        517        528        527        637        638        649        648  
       518        519        530        529        639        640        651        650  
       519        520        531        530        640        641        652        651  
       520        521        532        531        641        642        653        652  
       521        522        533        532        642        643        654        653  
       522        523        534        533        643        644        655        654  
       523        524        535        534        644        645        656        655  
       524        525        536        535        645        646        657        656  
       525        526        537        536        646        647        658        657  
       526        527        538        537        647        648        659        658  
       527        528        539        538        648        649        660        659  
       529        530        541        540        650        651        662        661  
       530        531        542        541        651        652        663        662  
       531        532        543        542        652        653        664        663  
       532        533        544        543        653        654        665        664  
       533        534        545        544        654        655        666        665  
       534        535        546        545        655        656        667        666  
       535        536        547        546        656        657        668        667  
       536        537        548        547        657        658        669        668  
       537        538        549        548        658        659        670        669  
       538        539        550        549        659        660        671        670  
       540        541        552        551        661        662        673        672  
       541        542        553        552        662        663        674        673  
       542        543        554        553        663        664        675        674  
       543        544        555        554        664        665        676        675  
       544        545        556        555        665        666        677        676  
       545        546        557        556        666        667        678        677  
       546        547        558        557        667        668        679        678  
       547        548        559        558        668        669        680        679  
       548        549        560        559        669        670        681        680  
       549        550        561        560        670        671        682        681  
       551        552        563        562        672        673        684        683  
       552        553        564        563        673        674        685        684  
       553        554        565        564        674        675        686        685  
       554        555        566        565        675        676        687        686  
       555        556        567        566        676        677        688        687  
       556        557        568        567        677        678        689        688  
       557        558        569        568        678        679        690        689  
       558        559        570        569        679        680        691        690  
       559        560        571        570        680        681        692        691  
       560        561        572        571        681        682        693        692  
       562        563        574        573        683        684        695        694  
       563        564        575        574        684        685        696        695  
       564        565        576        575        685        686        697        696  
       565        566        577        576        686        687        698        697  
       566        567        578        577        687        688        699        698  
       567        568        579        578        688        689        700        699  
       568        569        580        579        689        690        701        700  
       569        570        581        580        690        691        702        701  
       570        571        582        581        691        692        703        702  
       571        572        583        582        692        693        704        703  
       573        574        585        584        694        695        706        705  
       574        575        586        585        695        696        707        706  
       575        576        587        586        696        697        708        707  
       576        577        588        587        697        698        709        708  
       577        578        589        588        698        699        710        709  
       578        579        590        589        699        700        711        710  
       579        580        591        590        700        701        712        711  
       580        581        592        591        701        702        713        712  
       581        582        593        592        702        703        714        713  
       582        583        594        593        703        704        715        714  
       584        585        596        595        705        706        717        716  
       585        586        597        596        706        707        718        717  
       586        587        598        597        707        708        719        718  
       587        588        599        598        708        709        720        719  
       588        589        600        599        709        710        721        720  
       589        590        601        600        710        711        722        721  
       590        591        602        601        711        712        723        722  
       591        592        603        602        712        713        724        723  
       592        593        604        603        713        714        725        724  
       593        594        605        604        714        715        726        725  
       606        607        618        617        727        728        739        738  
       607        608        619        618        728        729        740        739  
       608        609        620        619        729        730        741        740  
       609        610        621        620        730        731        742        741  
       610        611        622        621        731        732        743        742  
       611        612        623        622        732        733        744        743  
       612        613        624        623        733        734        745        744  
       613        614        625        624        734        735        746        745  
       614        615        626        625        735        736        747        746  
       615        616        627        626        736        737        748        747  
       617        618        629        628        738        739        750        749  
       618        619        630        629        739        740        751        750  
       619        620        631        630        740        741        752        751  
       620        621        632        631        741        742        753        752  
       621        622        633        632        742        743        754        753  
       622        623        634        633        743        744        755        754  
       623        624        635        634        744        745        756        755  
       624        625        636        635        745        746        757        756  
       625        626        637        636        746        747        758        757  
       626        627        638        637        747        748        759        758  
       628        629        640        639        749        750        761        760  
       629        630        641        640        750        751        762        761  
       630        631        642        641        751        752        763        762  
       631        632        643        642        752        753        764        763  
       632        633        644        643        753        754        765        764  
       633        634        645        644        754        755        766        765  
       634        635        646        645        755        756        767        766  
       635        636        647        646        756        757        768        767  
       636        637        648        647        757        758        769        768  
       637        638        649        648        758        759        770        769  
       639        640        651        650        760        761        772        771  
       640        641        652        651        761        762        773        772  
       641        642        653        652        762        763        774        773  
       642        643        654        653        763        764        775        774  
       643        644        655        654        764        765        776        775  
       644        645        656        655        765        766        777        776  
       645        646        657        656        766        767        778        777  
       646        647        658        657        767        768        779        778  
       647        648        659        658        768        769        780        779  
       648        649        660        659        769        770        781        780  
       650        651        662        661        771        772        783        782  
       651        652        663        662        772        773        784        783  
       652        653        664        663        773        774        785        784  
       653        654        665        664        774        775        786        785  
       654        655        666        665        775        776        787        786  
       655        656        667        666        776        777        788        787  
       656        657        668        667        777        778        789        788  
       657        658        669        668        778        779        790        789  
       658        659        670        669        779        780        791        790  
       659        660        671        670        780        781        792        791  
       661        662        673        672        782        783        794        793  
       662        663        674        673        783        784        795        794  
       663        664        675        674        784        785        796        795  
       664        665        676        675        785        786        797        796  
       665        666        677        676        786        787        798        797  
       666        667        678        677        787        788        799        798  
       667        668        679        678        788        789        800        799  
       668        669        680        679        789        790        801        800  
       669        670        681        680        790        791        802        801  
       670        671        682        681        791        792        803        802  
       672        673        684        683        793        794        805        804  
       673        674        685        684        794        795        806        805  
       674        675        686        685        795        796        807        806  
       675        676        687        686        796        797        808        807  
       676        677        688        687        797        798        809        808  
       677        678        689        688        798        799        810        809  
       678        679        690        689        799        800        811        810  
       679        680        691        690        800        801        812        811  
       680        681        692        691        801        802        813        812  
       681        682        693        692        802        803        814        813  
       683        684        695        694        804        805        816        815  
       684        685        696        695        805        806        817        816  
       685        686        697        696        806        807        818        817  
       686        687        698        697        807        808        819        818  
       687        688        699        698        808        809        820        819  
       688        689        700        699        809        810        821        820  
       689        690        701        700        810        811        822        821  
       690        691        702        701        811        812        823        822  
       691        692        703        702        812        813        824        823  
       692        693        704        703        813        814        825        824  
       694        695        706        705        815        816        827        826  
       695        696        707        706        816        817        828        827  
       696        697        708        707        817        818        829        828  
       697        698        709        708        818        819        830        829  
       698        699        710        709        819        820        831        830  
       699        700        711        710        820        821        832        831  
       700        701        712        711        821        822        833        832  
       701        702        713        712        822        823        834        833  
       702        703        714        713        823        824        835        834  
       703        704        715        714        824        825        836        835  
       705        706        717        716        826        827        838        837  
       706        707        718        717        827        828        839        838  
       707        708        719        718        828        829        840        839  
       708        709        720        719        829        830        841        840  
       709        710        721        720        830        831        842        841  
       710        711        722        721        831        832        843        842  
       711        712        723        722        832        833        844        843  
       712        713        724        723        833        834        845        844  
       713        714        725        724        834        835        846        845  
       714        715        726        725        835        836        847        846  
       727        728        739        738        848        849        860        859  
       728        729        740        739        849        850        861        860  
       729        730        741        740        850        851        862        861  
       730        731        742        741        851        852        863        862  
       731        732        743        742        852        853        864        863  
       732        733        744        743        853        854        865        864  
       733        734        745        744        854        855        866        865  
       734        735        746        745        855        856        867        866  
       735        736        747        746        856        857        868        867  
       736        737        748        747        857        858        869        868  
       738        739        750        749        859        860        871        870  
       739        740        751        750        860        861        872        871  
       740        741        752        751        861        862        873        872  
       741        742        753        752        862        863        874        873  
       742        743        754        753        863        864        875        874  
       743        744        755        754        864        865        876        875  
       744        745        756        755        865        866        877        876  
       745        746        757        756        866        867        878        877  
       746        747        758        757        867        868        879        878  
       747        748        759        758        868        869        880        879  
       749        750        761        760        870        871        882        881  
       750        751        762        761        871        872        883        882  
       751        752        763        762        872        873        884        883  
       752        753        764        763        873        874        885        884  
       753        754        765        764        874        875        886        885  
       754        755        766        765        875        876        887        886  
       755        756        767        766        876        877        888        887  
       756        757        768        767        877        878        889        888  
       757        758        769        768        878        879        890        889  
       758        759        770        769        879        880        891        890  
       760        761        772        771        881        882        893        892  
       761        762        773        772        882        883        894        893  
       762        763        774        773        883        884        895        894  
       763        764        775        774        884        885        896        895  
       764        765        776        775        885        886        897        896  
       765        766        777        776        886        887        898        897  
       766        767        778        777        887        888        899        898  
       767        768        779        778        888        889        900        899  
       768        769        780        779        889        890        901        900  
       769        770        781        780        890        891        902        901  
       771        772        783        782        892        893        904        903  
       772        773        784        783        893        894        905        904  
       773        774        785        784        894        895        906        905  
       774        775        786        785        895        896        907        906  
       775        776        787        786        896        897        908        907  
       776        777        788        787        897        898        909        908  
       777        778        789        788        898        899        910        909  
       778        779        790        789        899        900        911        910  
       779        780        791        790        900        901        912        911  
       780        781        792        791        901        902        913        912  
       782        783        794        793        903        904        915        914  
       783        784        795        794        904        905        916        915  
       784        785        796        795        905        906        917        916  
       785        786        797        796        906        907        918        917  
       786        787        798        797        907        908        919        918  
       787        788        799        798        908        909        920        919  
       788        789        800        799        909        910        921        920  
       789        790        801        800        910        911        922        921  
       790        791        802        801        911        912        923        922  
       791        792        803        802        912        913        924        923  
       793        794        805        804        914        915        926        925  
       794        795        806        805        915        916        927        926  
       795        796        807        806        916        917        928        927  
       796        797        808        807        917        918        929        928  
       797        798        809        808        918        919        930        929  
       798        799        810        809        919        920        931        930  
       799        800        811        810        920        921        932        931  
       800        801        812        811        921        922        933        932  
       801        802        813        812        922        923        934        933  
       802        803        814        813        923        924        935        934  
       804        805        816        815        925        926        937        936  
       805        806        817        816        926        927        938        937  
       806        807        818        817        927        928        939        938  
       807        808        819        818        928        929        940        939  
       808        809        820        819        929        930        941        940  
       809        810        821        820        930        931        942        941  
       810        811        822        821        931        932        943        942  
       811        812        823        822        932        933        944        943  
       812        813        824        823        933        934        945        944  
       813        814        825        824        934        935        946        945  
       815        816        827        826        936        937        948        947  
       816        817        828        827        937        938        949        948  
       817        818        829        828        938        939        950        949  
       818        819        830        829        939        940        951        950  
       819        820        831        830        940        941        952        951  
       820        821        832        831        941        942        953        952  
       821        822        833        832        942        943        954        953  
       822        823        834        833        943        944        955        954  
       823        824        835        834        944        945        956        955  
       824        825        836        835        945        946        957        956  
       826        827        838        837        947        948        959        958  
       827        828        839        838        948        949        960        959  
       828        829        840        839        949        950        961        960  
       829        830        841        840        950        951        962        961  
       830        831        842        841        951        952        963        962  
       831        832        843        842        952        953        964        963  
       832        833        844        843        953        954        965        964  
       833        834        845        844        954        955        966        965  
       834        835        846        845        955        956        967        966  
       835        836        847        846        956        957        968        967  
       848        849        860        859        969        970        981        980  
       849        850        861        860        970        971        982        981  
       850        851        862        861        971        972        983        982  
       851        852        863        862        972        973        984        983  
       852        853        864        863        973        974        985        984  
       853        854        865        864        974        975        986        985  
       854        855        866        865        975        976        987        986  
       855        856        867        866        976        977        988        987  
       856        857        868        867        977        978        989        988  
       857        858        869        868        978        979        990        989  
       859        860        871        870        980        981        992        991  
       860        861        872        871        981        982        993        992  
       861        862        873        872        982        983        994        993  
       862        863        874        873        983        984        995        994  
       863        864        875        874        984        985        996        995  
       864        865        876        875        985        986        997        996  
       865        866        877        876        986        987        998        997  
       866        867        878        877        987        988        999        998  
       867        868        879        878        988        989       1000        999  
       868        869        880        879        989        990       1001       1000  
       870        871        882        881        991        992       1003       1002  
       871        872        883        882        992        993       1004       1003  
       872        873        884        883        993        994       1005       1004  
       873        874        885        884        994        995       1006       1005  
       874        875        886        885        995        996       1007       1006  
       875        876        887        886        996        997       1008       1007  
       876        877        888        887        997        998       1009       1008  
       877        878        889        888        998        999       1010       1009  
       878        879        890        889        999       1000       1011       1010  
       879        880        891        890       1000       1001       1012       1011  
       881        882        893        892       1002       1003       1014       1013  
       882        883        894        893       1003       1004       1015       1014  
       883        884        895        894       1004       1005       1016       1015  
       884        885        896        895       1005       1006       1017       1016  
       885        886        897        896       1006       1007       1018       1017  
       886        887        898        897       1007       1008       1019       1018  
       887        888        899        898       1008       1009       1020       1019  
       888        889        900        899       1009       1010       1021       1020  
       889        890        901        900       1010       1011       1022       1021  
       890        891        902        901       1011       1012       1023       1022  
       892        893        904        903       1013       1014       1025       1024  
       893        894        905        904       1014       1015       1026       1025  
       894        895        906        905       1015       1016       1027       1026  
       895        896        907        906       1016       1017       1028       1027  
       896        897        908        907       1017       1018       1029       1028  
       897        898        909        908       1018       1019       1030       1029  
       898        899        910        909       1019       1020       1031       1030  
       899        900        911        910       1020       1021       1032       1031  
       900        901        912        911       1021       1022       1033       1032  
       901        902        913        912       1022       1023       1034       1033  
       903        904        915        914       1024       1025       1036       1035  
       904        905        916        915       1025       1026       1037       1036  
       905        906        917        916       1026       1027       1038       1037  
       906        907        918        917       1027       1028       1039       1038  
       907        908        919        918       1028       1029       1040       1039  
       908        909        920        919       1029       1030       1041       1040  
       909        910        921        920       1030       1031       1042       1041  
       910        911        922        921       1031       1032       1043       1042  
       911        912        923        922       1032       1033       1044       1043  
       912        913        924        923       1033       1034       1045       1044  
       914        915        926        925       1035       1036       1047       1046  
       915        916        927        926       1036       1037       1048       1047  
       916        917        928        927       1037       1038       1049       1048  
       917        918        929        928       1038       1039       1050       1049  
       918        919        930        929       1039       1040       1051       1050  
       919        920        931        930       1040       1041       1052       1051  
       920        921        932        931       1041       1042       1053       1052  
       921        922        933        932       1042       1043       1054       1053  
       922        923        934        933       1043       1044       1055       1054  
       923        924        935        934       1044       1045       1056       1055  
       925        926        937        936       1046       1047       1058       1057  
       926        927        938        937       1047       1048       1059       1058  
       927        928        939        938       1048       1049       1060       1059  
       928        929        940        939       1049       1050       1061       1060  
       929        930        941        940       1050       1051       1062       1061  
       930        931        942        941       1051       1052       1063       1062  
       931        932        943        942       1052       1053       1064       1063  
       932        933        944        943       1053       1054       1065       1064  
       933        934        945        944       1054       1055       1066       1065  
       934        935        946        945       1055       1056       1067       1066  
       936        937        948        947       1057       1058       1069       1068  
       937        938        949        948       1058       1059       1070       1069  
       938        939        950        949       1059       1060       1071       1070  
       939        940        951        950       1060       1061       1072       1071  
       940        941        952        951       1061       1062       1073       1072  
       941        942        953        952       1062       1063       1074       1073  
       942        943        954        953       1063       1064       1075       1074  
       943        944        955        954       1064       1065       1076       1075  
       944        945        956        955       1065       1066       1077       1076  
       945        946        957        956       1066       1067       1078       1077  
       947        948        959        958       1068       1069       1080       1079  
       948        949        960        959       1069       1070       1081       1080  
       949        950        961        960       1070       1071       1082       1081  
       950        951        962        961       1071       1072       1083       1082  
       951        952        963        962       1072       1073       1084       1083  
       952        953        964        963       1073       1074       1085       1084  
       953        954        965        964       1074       1075       1086       1085  
       954        955        966        965       1075       1076       1087       1086  
       955        956        967        966       1076       1077       1088       1087  
       956        957        968        967       1077       1078       1089       1088  
       969        970        981        980       1090       1091       1102       1101  
       970        971        982        981       1091       1092       1103       1102  
       971        972        983        982       1092       1093       1104       1103  
       972        973        984        983       1093       1094       1105       1104  
       973        974        985        984       1094       1095       1106       1105  
       974        975        986        985       1095       1096       1107       1106  
       975        976        987        986       1096       1097       1108       1107  
       976        977        988        987       1097       1098       1109       1108  
       977        978        989        988       1098       1099       1110       1109  
       978        979        990        989       1099       1100       1111       1110  
       980        981        992        991       1101       1102       1113       1112  
       981        982        993        992       1102       1103       1114       1113  
       982        983        994        993       1103       1104       1115       1114  
       983        984        995        994       1104       1105       1116       1115  
       984        985        996        995       1105       1106       1117       1116  
       985        986        997        996       1106       1107       1118       1117  
       986        987        998        997       1107       1108       1119       1118  
       987        988        999        998       1108       1109       1120       1119  
       988        989       1000        999       1109       1110       1121       1120  
       989        990       1001       1000       1110       1111       1122       1121  
       991        992       1003       1002       1112       1113       1124       1123  
       992        993       1004       1003       1113       1114       1125       1124  
       993        994       1005       1004       1114       1115       1126       1125  
       994        995       1006       1005       1115       1116       1127       1126  
       995        996       1007       1006       1116       1117       1128       1127  
       996        997       1008       1007       1117       1118       1129       1128  
       997        998       1009       1008       1118       1119       1130       1129  
       998        999       1010       1009       1119       1120       1131       1130  
       999       1000       1011       1010       1120       1121       1132       1131  
      1000       1001       1012       1011       1121       1122       1133       1132  
      1002       1003       1014       1013       1123       1124       1135       1134  
      1003       1004       1015       1014       1124       1125       1136       1135  
      1004       1005       1016       1015       1125       1126       1137       1136  
      1005       1006       1017       1016       1126       1127       1138       1137  
      1006       1007       1018       1017       1127       1128       1139       1138  
      1007       1008       1019       1018       1128       1129       1140       1139  
      1008       1009       1020       1019       1129       1130       1141       1140  
      1009       1010       1021       1020       1130       1131       1142       1141  
      1010       1011       1022       1021       1131       1132       1143       1142  
      1011       1012       1023       1022       1132       1133       1144       1143  
      1013       1014       1025       1024       1134       1135       1146       1145  
      1014       1015       1026       1025       1135       1136       1147       1146  
      1015       1016       1027       1026       1136       1137       1148       1147  
      1016       1017       1028       1027       1137       1138       1149       1148  
      1017       1018       1029       1028       1138       1139       1150       1149  
      1018       1019       1030       1029       1139       1140       1151       1150  
      1019       1020       1031       1030       1140       1141       1152       1151  
      1020       1021       1032       1031       1141       1142       1153       1152  
      1021       1022       1033       1032       1142       1143       1154       1153  
      1022       1023       1034       1033       1143       1144       1155       1154  
      1024       1025       1036       1035       1145       1146       1157       1156  
      1025       1026       1037       1036       1146       1147       1158       1157  
      1026       1027       1038       1037       1147       1148       1159       1158  
      1027       1028       1039       1038       1148       1149       1160       1159  
      1028       1029       1040       1039       1149       1150       1161       1160  
      1029       1030       1041       1040       1150       1151       1162       1161  
      1030       1031       1042       1041       1151       1152       1163       1162  
      1031       1032       1043       1042       1152       1153       1164       1163  
      1032       1033       1044       1043       1153       1154       1165       1164  
      1033       1034       1045       1044       1154       1155       1166       1165  
      1035       1036       1047       1046       1156       1157       1168       1167  
      1036       1037       1048       1047       1157       1158       1169       1168  
      1037       1038       1049       1048       1158       1159       1170       1169  
      1038       1039       1050       1049       1159       1160       1171       1170  
      1039       1040       1051       1050       1160       1161       1172       1171  
      1040       1041       1052       1051       1161       1162       1173       1172  
      1041       1042       1053       1052       1162       1163       1174       1173  
      1042       1043       1054       1053       1163       1164       1175       1174  
      1043       1044       1055       1054       1164       1165       1176       1175  
      1044       1045       1056       1055       1165       1166       1177       1176  
      1046       1047       1058       1057       1167       1168       1179       1178  
      1047       1048       1059       1058       1168       1169       1180       1179  
      1048       1049       1060       1059       1169       1170       1181       1180  
      1049       1050       1061       1060       1170       1171       1182       1181  
      1050       1051       1062       1061       1171       1172       1183       1182  
      1051       1052       1063       1062       1172       1173       1184       1183  
      1052       1053       1064       1063       1173       1174       1185       1184  
      1053       1054       1065       1064       1174       1175       1186       1185  
      1054       1055       1066       1065       1175       1176       1187       1186  
      1055       1056       1067       1066       1176       1177       1188       1187  
      1057       1058       1069       1068       1178       1179       1190       1189  
      1058       1059       1070       1069       1179       1180       1191       1190  
      1059       1060       1071       1070       1180       1181       1192       1191  
      1060       1061       1072       1071       1181       1182       1193       1192  
      1061       1062       1073       1072       1182       1183       1194       1193  
      1062       1063       1074       1073       1183       1184       1195       1194  
      1063       1064       1075       1074       1184       1185       1196       1195  
      1064       1065       1076       1075       1185       1186       1197       1196  
      1065       1066       1077       1076       1186       1187       1198       1197  
      1066       1067       1078       1077       1187       1188       1199       1198  
      1068       1069       1080       1079       1189       1190       1201       1200  
      1069       1070       1081       1080       1190       1191       1202       1201  
      1070       1071       1082       1081       1191       1192       1203       1202  
      1071       1072       1083       1082       1192       1193       1204       1203  
      1072       1073       1084       1083       1193       1194       1205       1204  
      1073       1074       1085       1084       1194       1195       1206       1205  
      1074       1075       1086       1085       1195       1196       1207       1206  
      1075       1076       1087       1086       1196       1197       1208       1207  
      1076       1077       1088       1087       1197       1198       1209       1208  
      1077       1078       1089       1088       1198       1199       1210       1209  
      1090       1091       1102       1101       1211       1212       1223       1222  
      1091       1092       1103       1102       1212       1213       1224       1223  
      1092       1093       1104       1103       1213       1214       1225       1224  
      1093       1094       1105       1104       1214       1215       1226       1225  
      1094       1095       1106       1105       1215       1216       1227       1226  
      1095       1096       1107       1106       1216       1217       1228       1227  
      1096       1097       1108       1107       1217       1218       1229       1228  
      1097       1098       1109       1108       1218       1219       1230       1229  
      1098       1099       1110       1109       1219       1220       1231       1230  
      1099       1100       1111       1110       1220       1221       1232       1231  
      1101       1102       1113       1112       1222       1223       1234       1233  
      1102       1103       1114       1113       1223       1224       1235       1234  
      1103       1104       1115       1114       1224       1225       1236       1235  
      1104       1105       1116       1115       1225       1226       1237       1236  
      1105       1106       1117       1116       1226       1227       1238       1237  
      1106       1107       1118       1117       1227       1228       1239       1238  
      1107       1108       1119       1118       1228       1229       1240       1239  
      1108       1109       1120       1119       1229       1230       1241       1240  
      1109       1110       1121       1120       1230       1231       1242       1241  
      1110       1111       1122       1121       1231       1232       1243       1242  
      1112       1113       1124       1123       1233       1234       1245       1244  
      1113       1114       1125       1124       1234       1235       1246       1245  
      1114       1115       1126       1125       1235       1236       1247       1246  
      1115       1116       1127       1126       1236       1237       1248       1247  
      1116       1117       1128       1127       1237       1238       1249       1248  
      1117       1118       1129       1128       1238       1239       1250       1249  
      1118       1119       1130       1129       1239       1240       1251       1250  
      1119       1120       1131       1130       1240       1241       1252       1251  
      1120       1121       1132       1131       1241       1242       1253       1252  
      1121       1122       1133       1132       1242       1243       1254       1253  
      1123       1124       1135       1134       1244       1245       1256       1255  
      1124       1125       1136       1135       1245       1246       1257       1256  
      1125       1126       1137       1136       1246       1247       1258       1257  
      1126       1127       1138       1137       1247       1248       1259       1258  
      1127       1128       1139       1138       1248       1249       1260       1259  
      1128       1129       1140       1139       1249       1250       1261       1260  
      1129       1130       1141       1140       1250       1251       1262       1261  
      1130       1131       1142       1141       1251       1252       1263       1262  
      1131       1132       1143       1142       1252       1253       1264       1263  
      1132       1133       1144       1143       1253       1254       1265       1264  
      1134       1135       1146       1145       1255       1256       1267       1266  
      1135       1136       1147       1146       1256       1257       1268       1267  
      1136       1137       1148       1147       1257       1258       1269       1268  
      1137       1138       1149       1148       1258       1259       1270       1269  
      1138       1139       1150       1149       1259       1260       1271       1270  
      1139       1140       1151       1150       1260       1261       1272       1271  
      1140       1141       1152       1151       1261       1262       1273       1272  
      1141       1142       1153       1152       1262       1263       1274       1273  
      1142       1143       1154       1153       1263       1264       1275       1274  
      1143       1144       1155       1154       1264       1265       1276       1275  
      1145       1146       1157       1156       1266       1267       1278       1277  
      1146       1147       1158       1157       1267       1268       1279       1278  
      1147       1148       1159       1158       1268       1269       1280       1279  
      1148       1149       1160       1159       1269       1270       1281       1280  
      1149       1150       1161       1160       1270       1271       1282       1281  
      1150       1151       1162       1161       1271       1272       1283       1282  
      1151       1152       1163       1162       1272       1273       1284       1283  
      1152       1153       1164       1163       1273       1274       1285       1284  
      1153       1154       1165       1164       1274       1275       1286       1285  
      1154       1155       1166       1165       1275       1276       1287       1286  
      1156       1157       1168       1167       1277       1278       1289       1288  
      1157       1158       1169       1168       1278       1279       1290       1289  
      1158       1159       1170       1169       1279       1280       1291       1290  
      1159       1160       1171       1170       1280       1281       1292       1291  
      1160       1161       1172       1171       1281       1282       1293       1292  
      1161       1162       1173       1172       1282       1283       1294       1293  
      1162       1163       1174       1173       1283       1284       1295       1294  
      1163       1164       1175       1174       1284       1285       1296       1295  
      1164       1165       1176       1175       1285       1286       1297       1296  
      1165       1166       1177       1176       1286       1287       1298       1297  
      1167       1168       1179       1178       1288       1289       1300       1299  
      1168       1169       1180       1179       1289       1290       1301       1300  
      1169       1170       1181       1180       1290       1291       1302       1301  
      1170       1171       1182       1181       1291       1292       1303       1302  
      1171       1172       1183       1182       1292       1293       1304       1303  
      1172       1173       1184       1183       1293       1294       1305       1304  
      1173       1174       1185       1184       1294       1295       1306       1305  
      1174       1175       1186       1185       1295       1296       1307       1306  
      1175       1176       1187       1186       1296       1297       1308       1307  
      1176       1177       1188       1187       1297       1298       1309       1308  
      1178       1179       1190       1189       1299       1300       1311       1310  
      1179       1180       1191       1190       1300       1301       1312       1311  
      1180       1181       1192       1191       1301       1302       1313       1312  
      1181       1182       1193       1192       1302       1303       1314       1313  
      1182       1183       1194       1193       1303       1304       1315       1314  
      1183       1184       1195       1194       1304       1305       1316       1315  
      1184       1185       1196       1195       1305       1306       1317       1316  
      1185       1186       1197       1196       1306       1307       1318       1317  
      1186       1187       1198       1197       1307       1308       1319       1318  
      1187       1188       1199       1198       1308       1309       1320       1319  
      1189       1190       1201       1200       1310       1311       1322       1321  
      1190       1191       1202       1201       1311       1312       1323       1322  
      1191       1192       1203       1202       1312       1313       1324       1323  
      1192       1193       1204       1203       1313       1314       1325       1324  
      1193       1194       1205       1204       1314       1315       1326       1325  
      1194       1195       1206       1205       1315       1316       1327       1326  
      1195       1196       1207       1206       1316       1317       1328       1327  
      1196       1197       1208       1207       1317       1318       1329       1328  
      1197       1198       1209       1208       1318       1319       1330       1329  
      1198       1199       1210       1209       1319       1320       1331       1330  
      1211       1212       1223       1222       1332       1333       1344       1343  
      1212       1213       1224       1223       1333       1334       1345       1344  
      1213       1214       1225       1224       1334       1335       1346       1345  
      1214       1215       1226       1225       1335       1336       1347       1346  
      1215       1216       1227       1226       1336       1337       1348       1347  
      1216       1217       1228       1227       1337       1338       1349       1348  
      1217       1218       1229       1228       1338       1339       1350       1349  
      1218       1219       1230       1229       1339       1340       1351       1350  
      1219       1220       1231       1230       1340       1341       1352       1351  
      1220       1221       1232       1231       1341       1342       1353       1352  
      1222       1223       1234       1233       1343       1344       1355       1354  
      1223       1224       1235       1234       1344       1345       1356       1355  
      1224       1225       1236       1235       1345       1346       1357       1356  
      1225       1226       1237       1236       1346       1347       1358       1357  
      1226       1227       1238       1237       1347       1348       1359       1358  
      1227       1228       1239       1238       1348       1349       1360       1359  
      1228       1229       1240       1239       1349       1350       1361       1360  
      1229       1230       1241       1240       1350       1351       1362       1361  
      1230       1231       1242       1241       1351       1352       1363       1362  
      1231       1232       1243       1242       1352       1353       1364       1363  
      1233       1234       1245       1244       1354       1355       1366       1365  
      1234       1235       1246       1245       1355       1356       1367       1366  
      1235       1236       1247       1246       1356       1357       1368       1367  
      1236       1237       1248       1247       1357       1358       1369       1368  
      1237       1238       1249       1248       1358       1359       1370       1369  
      1238       1239       1250       1249       1359       1360       1371       1370  
      1239       1240       1251       1250       1360       1361       1372       1371  
      1240       1241       1252       1251       1361       1362       1373       1372  
      1241       1242       1253       1252       1362       1363       1374       1373  
      1242       1243       1254       1253       1363       1364       1375       1374  
      1244       1245       1256       1255       1365       1366       1377       1376  
      1245       1246       1257       1256       1366       1367       1378       1377  
      1246       1247       1258       1257       1367       1368       1379       1378  
      1247       1248       1259       1258       1368       1369       1380       1379  
      1248       1249       1260       1259       1369       1370       1381       1380  
      1249       1250       1261       1260       1370       1371       1382       1381  
      1250       1251       1262       1261       1371       1372       1383       1382  
      1251       1252       1263       1262       1372       1373       1384       1383  
      1252       1253       1264       1263       1373       1374       1385       1384  
      1253       1254       1265       1264       1374       1375       1386       1385  
      1255       1256       1267       1266       1376       1377       1388       1387  
      1256       1257       1268       1267       1377       1378       1389       1388  
      1257       1258       1269       1268       1378       1379       1390       1389  
      1258       1259       1270       1269       1379       1380       1391       1390  
      1259       1260       1271       1270       1380       1381       1392       1391  
      1260       1261       1272       1271       1381       1382       1393       1392  
      1261       1262       1273       1272       1382       1383       1394       1393  
      1262       1263       1274       1273       1383       1384       1395       1394  
      1263       1264       1275       1274       1384       1385       1396       1395  
      1264       1265       1276       1275       1385       1386       1397       1396  
      1266       1267       1278       1277       1387       1388       1399       1398  
      1267       1268       1279       1278       1388       1389       1400       1399  
      1268       1269       1280       1279       1389       1390       1401       1400  
      1269       1270       1281       1280       1390       1391       1402       1401  
      1270       1271       1282       1281       1391       1392       1403       1402  
      1271       1272       1283       1282       1392       1393       1404       1403  
      1272       1273       1284       1283       1393       1394       1405       1404  
      1273       1274       1285       1284       1394       1395       1406       1405  
      1274       1275       1286       1285       1395       1396       1407       1406  
      1275       1276       1287       1286       1396       1397       1408       1407  
      1277       1278       1289       1288       1398       1399       1410       1409  
      1278       1279       1290       1289       1399       1400       1411       1410  
      1279       1280       1291       1290       1400       1401       1412       1411  
      1280       1281       1292       1291       1401       1402       1413       1412  
      1281       1282       1293       1292       1402       1403       1414       1413  
      1282       1283       1294       1293       1403       1404       1415       1414  
      1283       1284       1295       1294       1404       1405       1416       1415  
      1284       1285       1296       1295       1405       1406       1417       1416  
      1285       1286       1297       1296       1406       1407       1418       1417  
      1286       1287       1298       1297       1407       1408       1419       1418  
      1288       1289       1300       1299       1409       1410       1421       1420  
      1289       1290       1301       1300       1410       1411       1422       1421  
      1290       1291       1302       1301       1411       1412       1423       1422  
      1291       1292       1303       1302       1412       1413       1424       1423  
      1292       1293       1304       1303       1413       1414       1425       1424  
      1293       1294       1305       1304       1414       1415       1426       1425  
      1294       1295       1306       1305       1415       1416       1427       1426  
      1295       1296       1307       1306       1416       1417       1428       1427  
      1296       1297       1308       1307       1417       1418       1429       1428  
      1297       1298       1309       1308       1418       1419       1430       1429  
      1299       1300       1311       1310       1420       1421       1432       1431  
      1300       1301       1312       1311       1421       1422       1433       1432  
      1301       1302       1313       1312       1422       1423       1434       1433  
      1302       1303       1314       1313       1423       1424       1435       1434  
      1303       1304       1315       1314       1424       1425       1436       1435  
      1304       1305       1316       1315       1425       1426       1437       1436  
      1305       1306       1317       1316       1426       1427       1438       1437  
      1306       1307       1318       1317       1427       1428       1439       1438  
      1307       1308       1319       1318       1428       1429       1440       1439  
      1308       1309       1320       1319       1429       1430       1441       1440  
      1310       1311       1322       1321       1431       1432       1443       1442  
      1311       1312       1323       1322       1432       1433       1444       1443  
      1312       1313       1324       1323       1433       1434       1445       1444  
      1313       1314       1325       1324       1434       1435       1446       1445  
      1314       1315       1326       1325       1435       1436       1447       1446  
      1315       1316       1327       1326       1436       1437       1448       1447  
      1316       1317       1328       1327       1437       1438       1449       1448  
      1317       1318       1329       1328       1438       1439       1450       1449  
      1318       1319       1330       1329       1439       1440       1451       1450  
      1319       1320       1331       1330       1440       1441       1452       1451  
      1332       1333       1344       1343       1453       1454       1465       1464  
      1333       1334       1345       1344       1454       1455       1466       1465  
      1334       1335       1346       1345       1455       1456       1467       1466  
      1335       1336       1347       1346       1456       1457       1468       1467  
      1336       1337       1348       1347       1457       1458       1469       1468  
      1337       1338       1349       1348       1458       1459       1470       1469  
      1338       1339       1350       1349       1459       1460       1471       1470  
      1339       1340       1351       1350       1460       1461       1472       1471  
      1340       1341       1352       1351       1461       1462       1473       1472  
      1341       1342       1353       1352       1462       1463       1474       1473  
      1343       1344       1355       1354       1464       1465       1476       1475  
      1344       1345       1356       1355       1465       1466       1477       1476  
      1345       1346       1357       1356       1466       1467       1478       1477  
      1346       1347       1358       1357       1467       1468       1479       1478  
      1347       1348       1359       1358       1468       1469       1480       1479  
      1348       1349       1360       1359       1469       1470       1481       1480  
      1349       1350       1361       1360       1470       1471       1482       1481  
      1350       1351       1362       1361       1471       1472       1483       1482  
      1351       1352       1363       1362       1472       1473       1484       1483  
      1352       1353       1364       1363       1473       1474       1485       1484  
      1354       1355       1366       1365       1475       1476       1487       1486  
      1355       1356       1367       1366       1476       1477       1488       1487  
      1356       1357       1368       1367       1477       1478       1489       1488  
      1357       1358       1369       1368       1478       1479       1490       1489  
      1358       1359       1370       1369       1479       1480       1491       1490  
      1359       1360       1371       1370       1480       1481       1492       1491  
      1360       1361       1372       1371       1481       1482       1493       1492  
      1361       1362       1373       1372       1482       1483       1494       1493  
      1362       1363       1374       1373       1483       1484       1495       1494  
      1363       1364       1375       1374       1484       1485       1496       1495  
      1365       1366       1377       1376       1486       1487       1498       1497  
      1366       1367       1378       1377       1487       1488       1499       1498  
      1367       1368       1379       1378       1488       1489       1500       1499  
      1368       1369       1380       1379       1489       1490       1501       1500  
      1369       1370       1381       1380       1490       1491       1502       1501  
      1370       1371       1382       1381       1491       1492       1503       1502  
      1371       1372       1383       1382       1492       1493       1504       1503  
      1372       1373       1384       1383       1493       1494       1505       1504  
      1373       1374       1385       1384       1494       1495       1506       1505  
      1374       1375       1386       1385       1495       1496       1507       1506  
      1376       1377       1388       1387       1497       1498       1509       1508  
      1377       1378       1389       1388       1498       1499       1510       1509  
      1378       1379       1390       1389       1499       1500       1511       1510  
      1379       1380       1391       1390       1500       1501       1512       1511  
      1380       1381       1392       1391       1501       1502       1513       1512  
      1381       1382       1393       1392       1502       1503       1514       1513  
      1382       1383       1394       1393       1503       1504       1515       1514  
      1383       1384       1395       1394       1504       1505       1516       1515  
      1384       1385       1396       1395       1505       1506       1517       1516  
      1385       1386       1397       1396       1506       1507       1518       1517  
      1387       1388       1399       1398       1508       1509       1520       1519  
      1388       1389       1400       1399       1509       1510       1521       1520  
      1389       1390       1401       1400       1510       1511       1522       1521  
      1390       1391       1402       1401       1511       1512       1523       1522  
      1391       1392       1403       1402       1512       1513       1524       1523  
      1392       1393       1404       1403       1513       1514       1525       1524  
      1393       1394       1405       1404       1514       1515       1526       1525  
      1394       1395       1406       1405       1515       1516       1527       1526  
      1395       1396       1407       1406       1516       1517       1528       1527  
      1396       1397       1408       1407       1517       1518       1529       1528  
      1398       1399       1410       1409       1519       1520       1531       1530  
      1399       1400       1411       1410       1520       1521       1532       1531  
      1400       1401       1412       1411       1521       1522       1533       1532  
      1401       1402       1413       1412       1522       1523       1534       1533  
      1402       1403       1414       1413       1523       1524       1535       1534  
      1403       1404       1415       1414       1524       1525       1536       1535  
      1404       1405       1416       1415       1525       1526       1537       1536  
      1405       1406       1417       1416       1526       1527       1538       1537  
      1406       1407       1418       1417       1527       1528       1539       1538  
      1407       1408       1419       1418       1528       1529       1540       1539  
      1409       1410       1421       1420       1530       1531       1542       1541  
      1410       1411       1422       1421       1531       1532       1543       1542  
      1411       1412       1423       1422       1532       1533       1544       1543  
      1412       1413       1424       1423       1533       1534       1545       1544  
      1413       1414       1425       1424       1534       1535       1546       1545  
      1414       1415       1426       1425       1535       1536       1547       1546  
      1415       1416       1427       1426       1536       1537       1548       1547  
      1416       1417       1428       1427       1537       1538       1549       1548  
      1417       1418       1429       1428       1538       1539       1550       1549  
      1418       1419       1430       1429       1539       1540       1551       1550  
      1420       1421       1432       1431       1541       1542       1553       1552  
      1421       1422       1433       1432       1542       1543       1554       1553  
      1422       1423       1434       1433       1543       1544       1555       1554  
      1423       1424       1435       1434       1544       1545       1556       1555  
      1424       1425       1436       1435       1545       1546       1557       1556  
      1425       1426       1437       1436       1546       1547       1558       1557  
      1426       1427       1438       1437       1547       1548       1559       1558  
      1427       1428       1439       1438       1548       1549       1560       1559  
      1428       1429       1440       1439       1549       1550       1561       1560  
      1429       1430       1441       1440       1550       1551       1562       1561  
      1431       1432       1443       1442       1552       1553       1564       1563  
      1432       1433       1444       1443       1553       1554       1565       1564  
      1433       1434       1445       1444       1554       1555       1566       1565  
      1434       1435       1446       1445       1555       1556       1567       1566  
      1435       1436       1447       1446       1556       1557       1568       1567  
      1436       1437       1448       1447       1557       1558       1569       1568  
      1437       1438       1449       1448       1558       1559       1570       1569  
      1438       1439       1450       1449       1559       1560       1571       1570  
      1439       1440       1451       1450       1560       1561       1572       1571  
      1440       1441       1452       1451       1561       1562       1573       1572  
      1453       1454       1465       1464       1574       1575       1586       1585  
      1454       1455       1466       1465       1575       1576       1587       1586  
      1455       1456       1467       1466       1576       1577       1588       1587  
      1456       1457       1468       1467       1577       1578       1589       1588  
      1457       1458       1469       1468       1578       1579       1590       1589  
      1458       1459       1470       1469       1579       1580       1591       1590  
      1459       1460       1471       1470       1580       1581       1592       1591  
      1460       1461       1472       1471       1581       1582       1593       1592  
      1461       1462       1473       1472       1582       1583       1594       1593  
      1462       1463       1474       1473       1583       1584       1595       1594  
      1464       1465       1476       1475       1585       1586       1597       1596  
      1465       1466       1477       1476       1586       1587       1598       1597  
      1466       1467       1478       1477       1587       1588       1599       1598  
      1467       1468       1479       1478       1588       1589       1600       1599  
      1468       1469       1480       1479       1589       1590       1601       1600  
      1469       1470       1481       1480       1590       1591       1602       1601  
      1470       1471       1482       1481       1591       1592       1603       1602  
      1471       1472       1483       1482       1592       1593       1604       1603  
      1472       1473       1484       1483       1593       1594       1605       1604  
      1473       1474       1485       1484       1594       1595       1606       1605  
      1475       1476       1487       1486       1596       1597       1608       1607  
      1476       1477       1488       1487       1597       1598       1609       1608  
      1477       1478       1489       1488       1598       1599       1610       1609  
      1478       1479       1490       1489       1599       1600       1611       1610  
      1479       1480       1491       1490       1600       1601       1612       1611  
      1480       1481       1492       1491       1601       1602       1613       1612  
      1481       1482       1493       1492       1602       1603       1614       1613  
      1482       1483       1494       1493       1603       1604       1615       1614  
      1483       1484       1495       1494       1604       1605       1616       1615  
      1484       1485       1496       1495       1605       1606       1617       1616  
      1486       1487       1498       1497       1607       1608       1619       1618  
      1487       1488       1499       1498       1608       1609       1620       1619  
      1488       1489       1500       1499       1609       1610       1621       1620  
      1489       1490       1501       1500       1610       1611       1622       1621  
      1490       1491       1502       1501       1611       1612       1623       1622  
      1491       1492       1503       1502       1612       1613       1624       1623  
      1492       1493       1504       1503       1613       1614       1625       1624  
      1493       1494       1505       1504       1614       1615       1626       1625  
      1494       1495       1506       1505       1615       1616       1627       1626  
      1495       1496       1507       1506       1616       1617       1628       1627  
      1497       1498       1509       1508       1618       1619       1630       1629  
      1498       1499       1510       1509       1619       1620       1631       1630  
      1499       1500       1511       1510       1620       1621       1632       1631  
      1500       1501       1512       1511       1621       1622       1633       1632  
      1501       1502       1513       1512       1622       1623       1634       1633  
      1502       1503       1514       1513       1623       1624       1635       1634  
      1503       1504       1515       1514       1624       1625       1636       1635  
      1504       1505       1516       1515       1625       1626       1637       1636  
      1505       1506       1517       1516       1626       1627       1638       1637  
      1506       1507       1518       1517       1627       1628       1639       1638  
      1508       1509       1520       1519       1629       1630       1641       1640  
      1509       1510       1521       1520       1630       1631       1642       1641  
      1510       1511       1522       1521       1631       1632       1643       1642  
      1511       1512       1523       1522       1632       1633       1644       1643  
      1512       1513       1524       1523       1633       1634       1645       1644  
      1513       1514       1525       1524       1634       1635       1646       1645  
      1514       1515       1526       1525       1635       1636       1647       1646  
      1515       1516       1527       1526       1636       1637       1648       1647  
      1516       1517       1528       1527       1637       1638       1649       1648  
      1517       1518       1529       1528       1638       1639       1650       1649  
      1519       1520       1531       1530       1640       1641       1652       1651  
      1520       1521       1532       1531       1641       1642       1653       1652  
      1521       1522       1533       1532       1642       1643       1654       1653  
      1522       1523       1534       1533       1643       1644       1655       1654  
      1523       1524       1535       1534       1644       1645       1656       1655  
      1524       1525       1536       1535       1645       1646       1657       1656  
      1525       1526       1537       1536       1646       1647       1658       1657  
      1526       1527       1538       1537       1647       1648       1659       1658  
      1527       1528       1539       1538       1648       1649       1660       1659  
      1528       1529       1540       1539       1649       1650       1661       1660  
      1530       1531       1542       1541       1651       1652       1663       1662  
      1531       1532       1543       1542       1652       1653       1664       1663  
      1532       1533       1544       1543       1653       1654       1665       1664  
      1533       1534       1545       1544       1654       1655       1666       1665  
      1534       1535       1546       1545       1655       1656       1667       1666  
      1535       1536       1547       1546       1656       1657       1668       1667  
      1536       1537       1548       1547       1657       1658       1669       1668  
      1537       1538       1549       1548       1658       1659       1670       1669  
      1538       1539       1550       1549       1659       1660       1671       1670  
      1539       1540       1551       1550       1660       1661       1672       1671  
      1541       1542       1553       1552       1662       1663       1674       1673  
      1542       1543       1554       1553       1663       1664       1675       1674  
      1543       1544       1555       1554       1664       1665       1676       1675  
      1544       1545       1556       1555       1665       1666       1677       1676  
      1545       1546       1557       1556       1666       1667       1678       1677  
      1546       1547       1558       1557       1667       1668       1679       1678  
      1547       1548       1559       1558       1668       1669       1680       1679  
      1548       1549       1560       1559       1669       1670       1681       1680  
      1549       1550       1561       1560       1670       1671       1682       1681  
      1550       1551       1562       1561       1671       1672       1683       1682  
      1552       1553       1564       1563       1673       1674       1685       1684  
      1553       1554       1565       1564       1674       1675       1686       1685  
      1554       1555       1566       1565       1675       1676       1687       1686  
      1555       1556       1567       1566       1676       1677       1688       1687  
      1556       1557       1568       1567       1677       1678       1689       1688  
      1557       1558       1569       1568       1678       1679       1690       1689  
      1558       1559       1570       1569       1679       1680       1691       1690  
      1559       1560       1571       1570       1680       1681       1692       1691  
      1560       1561       1572       1571       1681       1682       1693       1692  
      1561       1562       1573       1572       1682       1683       1694       1693  
      1574       1575       1586       1585       1695       1696       1707       1706  
      1575       1576       1587       1586       1696       1697       1708       1707  
      1576       1577       1588       1587       1697       1698       1709       1708  
      1577       1578       1589       1588       1698       1699       1710       1709  
      1578       1579       1590       1589       1699       1700       1711       1710  
      1579       1580       1591       1590       1700       1701       1712       1711  
      1580       1581       1592       1591       1701       1702       1713       1712  
      1581       1582       1593       1592       1702       1703       1714       1713  
      1582       1583       1594       1593       1703       1704       1715       1714  
      1583       1584       1595       1594       1704       1705       1716       1715  
      1585       1586       1597       1596       1706       1707       1718       1717  
      1586       1587       1598       1597       1707       1708       1719       1718  
      1587       1588       1599       1598       1708       1709       1720       1719  
      1588       1589       1600       1599       1709       1710       1721       1720  
      1589       1590       1601       1600       1710       1711       1722       1721  
      1590       1591       1602       1601       1711       1712       1723       1722  
      1591       1592       1603       1602       1712       1713       1724       1723  
      1592       1593       1604       1603       1713       1714       1725       1724  
      1593       1594       1605       1604       1714       1715       1726       1725  
      1594       1595       1606       1605       1715       1716       1727       1726  
      1596       1597       1608       1607       1717       1718       1729       1728  
      1597       1598       1609       1608       1718       1719       1730       1729  
      1598       1599       1610       1609       1719       1720       1731       1730  
      1599       1600       1611       1610       1720       1721       1732       1731  
      1600       1601       1612       1611       1721       1722       1733       1732  
      1601       1602       1613       1612       1722       1723       1734       1733  
      1602       1603       1614       1613       1723       1724       1735       1734  
      1603       1604       1615       1614       1724       1725       1736       1735  
      1604       1605       1616       1615       1725       1726       1737       1736  
      1605       1606       1617       1616       1726       1727       1738       1737  
      1607       1608       1619       1618       1728       1729       1740       1739  
      1608       1609       1620       1619       1729       1730       1741       1740  
      1609       1610       1621       1620       1730       1731       1742       1741  
      1610       1611       1622       1621       1731       1732       1743       1742  
      1611       1612       1623       1622       1732       1733       1744       1743  
      1612       1613       1624       1623       1733       1734       1745       1744  
      1613       1614       1625       1624       1734       1735       1746       1745  
      1614       1615       1626       1625       1735       1736       1747       1746  
      1615       1616       1627       1626       1736       1737       1748       1747  
      1616       1617       1628       1627       1737       1738       1749       1748  
      1618       1619       1630       1629       1739       1740       1751       1750  
      1619       1620       1631       1630       1740       1741       1752       1751  
      1620       1621       1632       1631       1741       1742       1753       1752  
      1621       1622       1633       1632       1742       1743       1754       1753  
      1622       1623       1634       1633       1743       1744       1755       1754  
      1623       1624       1635       1634       1744       1745       1756       1755  
      1624       1625       1636       1635       1745       1746       1757       1756  
      1625       1626       1637       1636       1746       1747       1758       1757  
      1626       1627       1638       1637       1747       1748       1759       1758  
      1627       1628       1639       1638       1748       1749       1760       1759  
      1629       1630       1641       1640       1750       1751       1762       1761  
      1630       1631       1642       1641       1751       1752       1763       1762  
      1631       1632       1643       1642       1752       1753       1764       1763  
      1632       1633       1644       1643       1753       1754       1765       1764  
      1633       1634       1645       1644       1754       1755       1766       1765  
      1634       1635       1646       1645       1755       1756       1767       1766  
      1635       1636       1647       1646       1756       1757       1768       1767  
      1636       1637       1648       1647       1757       1758       1769       1768  
      1637       1638       1649       1648       1758       1759       1770       1769  
      1638       1639       1650       1649       1759       1760       1771       1770  
      1640       1641       1652       1651       1761       1762       1773       1772  
      1641       1642       1653       1652       1762       1763       1774       1773  
      1642       1643       1654       1653       1763       1764       1775       1774  
      1643       1644       1655       1654       1764       1765       1776       1775  
      1644       1645       1656       1655       1765       1766       1777       1776  
      1645       1646       1657       1656       1766       1767       1778       1777  
      1646       1647       1658       1657       1767       1768       1779       1778  
      1647       1648       1659       1658       1768       1769       1780       1779  
      1648       1649       1660       1659       1769       1770       1781       1780  
      1649       1650       1661       1660       1770       1771       1782       1781  
      1651       1652       1663       1662       1772       1773       1784       1783  
      1652       1653       1664       1663       1773       1774       1785       1784  
      1653       1654       1665       1664       1774       1775       1786       1785  
      1654       1655       1666       1665       1775       1776       1787       1786  
      1655       1656       1667       1666       1776       1777       1788       1787  
      1656       1657       1668       1667       1777       1778       1789       1788  
      1657       1658       1669       1668       1778       1779       1790       1789  
      1658       1659       1670       1669       1779       1780       1791       1790  
      1659       1660       1671       1670       1780       1781       1792       1791  
      1660       1661       1672       1671       1781       1782       1793       1792  
      1662       1663       1674       1673       1783       1784       1795       1794  
      1663       1664       1675       1674       1784       1785       1796       1795  
      1664       1665       1676       1675       1785       1786       1797       1796  
      1665       1666       1677       1676       1786       1787       1798       1797  
      1666       1667       1678       1677       1787       1788       1799       1798  
      1667       1668       1679       1678       1788       1789       1800       1799  
      1668       1669       1680       1679       1789       1790       1801       1800  
      1669       1670       1681       1680       1790       1791       1802       1801  
      1670       1671       1682       1681       1791       1792       1803       1802  
      1671       1672       1683       1682       1792       1793       1804       1803  
      1673       1674       1685       1684       1794       1795       1806       1805  
      1674       1675       1686       1685       1795       1796       1807       1806  
      1675       1676       1687       1686       1796       1797       1808       1807  
      1676       1677       1688       1687       1797       1798       1809       1808  
      1677       1678       1689       1688       1798       1799       1810       1809  
      1678       1679       1690       1689       1799       1800       1811       1810  
      1679       1680       1691       1690       1800       1801       1812       1811  
      1680       1681       1692       1691       1801       1802       1813       1812  
      1681       1682       1693       1692       1802       1803       1814       1813  
      1682       1683       1694       1693       1803       1804       1815       1814  
      1695       1696       1707       1706       1816       1817       1828       1827  
      1696       1697       1708       1707       1817       1818       1829       1828  
      1697       1698       1709       1708       1818       1819       1830       1829  
      1698       1699       1710       1709       1819       1820       1831       1830  
      1699       1700       1711       1710       1820       1821       1832       1831  
      1700       1701       1712       1711       1821       1822       1833       1832  
      1701       1702       1713       1712       1822       1823       1834       1833  
      1702       1703       1714       1713       1823       1824       1835       1834  
      1703       1704       1715       1714       1824       1825       1836       1835  
      1704       1705       1716       1715       1825       1826       1837       1836  
      1706       1707       1718       1717       1827       1828       1839       1838  
      1707       1708       1719       1718       1828       1829       1840       1839  
      1708       1709       1720       1719       1829       1830       1841       1840  
      1709       1710       1721       1720       1830       1831       1842       1841  
      1710       1711       1722       1721       1831       1832       1843       1842  
      1711       1712       1723       1722       1832       1833       1844       1843  
      1712       1713       1724       1723       1833       1834       1845       1844  
      1713       1714       1725       1724       1834       1835       1846       1845  
      1714       1715       1726       1725       1835       1836       1847       1846  
      1715       1716       1727       1726       1836       1837       1848       1847  
      1717       1718       1729       1728       1838       1839       1850       1849  
      1718       1719       1730       1729       1839       1840       1851       1850  
      1719       1720       1731       1730       1840       1841       1852       1851  
      1720       1721       1732       1731       1841       1842       1853       1852  
      1721       1722       1733       1732       1842       1843       1854       1853  
      1722       1723       1734       1733       1843       1844       1855       1854  
      1723       1724       1735       1734       1844       1845       1856       1855  
      1724       1725       1736       1735       1845       1846       1857       1856  
      1725       1726       1737       1736       1846       1847       1858       1857  
      1726       1727       1738       1737       1847       1848       1859       1858  
      1728       1729       1740       1739       1849       1850       1861       1860  
      1729       1730       1741       1740       1850       1851       1862       1861  
      1730       1731       1742       1741       1851       1852       1863       1862  
      1731       1732       1743       1742       1852       1853       1864       1863  
      1732       1733       1744       1743       1853       1854       1865       1864  
      1733       1734       1745       1744       1854       1855       1866       1865  
      1734       1735       1746       1745       1855       1856       1867       1866  
      1735       1736       1747       1746       1856       1857       1868       1867  
      1736       1737       1748       1747       1857       1858       1869       1868  
      1737       1738       1749       1748       1858       1859       1870       1869  
      1739       1740       1751       1750       1860       1861       1872       1871  
      1740       1741       1752       1751       1861       1862       1873       1872  
      1741       1742       1753       1752       1862       1863       1874       1873  
      1742       1743       1754       1753       1863       1864       1875       1874  
      1743       1744       1755       1754       1864       1865       1876       1875  
      1744       1745       1756       1755       1865       1866       1877       1876  
      1745       1746       1757       1756       1866       1867       1878       1877  
      1746       1747       1758       1757       1867       1868       1879       1878  
      1747       1748       1759       1758       1868       1869       1880       1879  
      1748       1749       1760       1759       1869       1870       1881       1880  
      1750       1751       1762       1761       1871       1872       1883       1882  
      1751       1752       1763       1762       1872       1873       1884       1883  
      1752       1753       1764       1763       1873       1874       1885       1884  
      1753       1754       1765       1764       1874       1875       1886       1885  
      1754       1755       1766       1765       1875       1876       1887       1886  
      1755       1756       1767       1766       1876       1877       1888       1887  
      1756       1757       1768       1767       1877       1878       1889       1888  
      1757       1758       1769       1768       1878       1879       1890       1889  
      1758       1759       1770       1769       1879       1880       1891       1890  
      1759       1760       1771       1770       1880       1881       1892       1891  
      1761       1762       1773       1772       1882       1883       1894       1893  
      1762       1763       1774       1773       1883       1884       1895       1894  
      1763       1764       1775       1774       1884       1885       1896       1895  
      1764       1765       1776       1775       1885       1886       1897       1896  
      1765       1766       1777       1776       1886       1887       1898       1897  
      1766       1767       1778       1777       1887       1888       1899       1898  
      1767       1768       1779       1778       1888       1889       1900       1899  
      1768       1769       1780       1779       1889       1890       1901       1900  
      1769       1770       1781       1780       1890       1891       1902       1901  
      1770       1771       1782       1781       1891       1892       1903       1902  
      1772       1773       1784       1783       1893       1894       1905       1904  
      1773       1774       1785       1784       1894       1895       1906       1905  
      1774       1775       1786       1785       1895       1896       1907       1906  
      1775       1776       1787       1786       1896       1897       1908       1907  
      1776       1777       1788       1787       1897       1898       1909       1908  
      1777       1778       1789       1788       1898       1899       1910       1909  
      1778       1779       1790       1789       1899       1900       1911       1910  
      1779       1780       1791       1790       1900       1901       1912       1911  
      1780       1781       1792       1791       1901       1902       1913       1912  
      1781       1782       1793       1792       1902       1903       1914       1913  
      1783       1784       1795       1794       1904       1905       1916       1915  
      1784       1785       1796       1795       1905       1906       1917       1916  
      1785       1786       1797       1796       1906       1907       1918       1917  
      1786       1787       1798       1797       1907       1908       1919       1918  
      1787       1788       1799       1798       1908       1909       1920       1919  
      1788       1789       1800       1799       1909       1910       1921       1920  
      1789       1790       1801       1800       1910       1911       1922       1921  
      1790       1791       1802       1801       1911       1912       1923       1922  
      1791       1792       1803       1802       1912       1913       1924       1923  
      1792       1793       1804       1803       1913       1914       1925       1924  
      1794       1795       1806       1805       1915       1916       1927       1926  
      1795       1796       1807       1806       1916       1917       1928       1927  
      1796       1797       1808       1807       1917       1918       1929       1928  
      1797       1798       1809       1808       1918       1919       1930       1929  
      1798       1799       1810       1809       1919       1920       1931       1930  
      1799       1800       1811       1810       1920       1921       1932       1931  
      1800       1801       1812       1811       1921       1922       1933       1932  
      1801       1802       1813       1812       1922       1923       1934       1933  
      1802       1803       1814       1813       1923       1924       1935       1934  
      1803       1804       1815       1814       1924       1925       1936       1935  
      1816       1817       1828       1827       1937       1938       1949       1948  
      1817       1818       1829       1828       1938       1939       1950       1949  
      1818       1819       1830       1829       1939       1940       1951       1950  
      1819       1820       1831       1830       1940       1941       1952       1951  
      1820       1821       1832       1831       1941       1942       1953       1952  
      1821       1822       1833       1832       1942       1943       1954       1953  
      1822       1823       1834       1833       1943       1944       1955       1954  
      1823       1824       1835       1834       1944       1945       1956       1955  
      1824       1825       1836       1835       1945       1946       1957       1956  
      1825       1826       1837       1836       1946       1947       1958       1957  
      1827       1828       1839       1838       1948       1949       1960       1959  
      1828       1829       1840       1839       1949       1950       1961       1960  
      1829       1830       1841       1840       1950       1951       1962       1961  
      1830       1831       1842       1841       1951       1952       1963       1962  
      1831       1832       1843       1842       1952       1953       1964       1963  
      1832       1833       1844       1843       1953       1954       1965       1964  
      1833       1834       1845       1844       1954       1955       1966       1965  
      1834       1835       1846       1845       1955       1956       1967       1966  
      1835       1836       1847       1846       1956       1957       1968       1967  
      1836       1837       1848       1847       1957       1958       1969       1968  
      1838       1839       1850       1849       1959       1960       1971       1970  
      1839       1840       1851       1850       1960       1961       1972       1971  
      1840       1841       1852       1851       1961       1962       1973       1972  
      1841       1842       1853       1852       1962       1963       1974       1973  
      1842       1843       1854       1853       1963       1964       1975       1974  
      1843       1844       1855       1854       1964       1965       1976       1975  
      1844       1845       1856       1855       1965       1966       1977       1976  
      1845       1846       1857       1856       1966       1967       1978       1977  
      1846       1847       1858       1857       1967       1968       1979       1978  
      1847       1848       1859       1858       1968       1969       1980       1979  
      1849       1850       1861       1860       1970       1971       1982       1981  
      1850       1851       1862       1861       1971       1972       1983       1982  
      1851       1852       1863       1862       1972       1973       1984       1983  
      1852       1853       1864       1863       1973       1974       1985       1984  
      1853       1854       1865       1864       1974       1975       1986       1985  
      1854       1855       1866       1865       1975       1976       1987       1986  
      1855       1856       1867       1866       1976       1977       1988       1987  
      1856       1857       1868       1867       1977       1978       1989       1988  
      1857       1858       1869       1868       1978       1979       1990       1989  
      1858       1859       1870       1869       1979       1980       1991       1990  
      1860       1861       1872       1871       1981       1982       1993       1992  
      1861       1862       1873       1872       1982       1983       1994       1993  
      1862       1863       1874       1873       1983       1984       1995       1994  
      1863       1864       1875       1874       1984       1985       1996       1995  
      1864       1865       1876       1875       1985       1986       1997       1996  
      1865       1866       1877       1876       1986       1987       1998       1997  
      1866       1867       1878       1877       1987       1988       1999       1998  
      1867       1868       1879       1878       1988       1989       2000       1999  
      1868       1869       1880       1879       1989       1990       2001       2000  
      1869       1870       1881       1880       1990       1991       2002       2001  
      1871       1872       1883       1882       1992       1993       2004       2003  
      1872       1873       1884       1883       1993       1994       2005       2004  
      1873       1874       1885       1884       1994       1995       2006       2005  
      1874       1875       1886       1885       1995       1996       2007       2006  
      1875       1876       1887       1886       1996       1997       2008       2007  
      1876       1877       1888       1887       1997       1998       2009       2008  
      1877       1878       1889       1888       1998       1999       2010       2009  
      1878       1879       1890       1889       1999       2000       2011       2010  
      1879       1880       1891       1890       2000       2001       2012       2011  
      1880       1881       1892       1891       2001       2002       2013       2012  
      1882       1883       1894       1893       2003       2004       2015       2014  
      1883       1884       1895       1894       2004       2005       2016       2015  
      1884       1885       1896       1895       2005       2006       2017       2016  
      1885       1886       1897       1896       2006       2007       2018       2017  
      1886       1887       1898       1897       2007       2008       2019       2018  
      1887       1888       1899       1898       2008       2009       2020       2019  
      1888       1889       1900       1899       2009       2010       2021       2020  
      1889       1890       1901       1900       2010       2011       2022       2021  
      1890       1891       1902       1901       2011       2012       2023       2022  
      1891       1892       1903       1902       2012       2013       2024       2023  
      1893       1894       1905       1904       2014       2015       2026       2025  
      1894       1895       1906       1905       2015       2016       2027       2026  
      1895       1896       1907       1906       2016       2017       2028       2027  
      1896       1897       1908       1907       2017       2018       2029       2028  
      1897       1898       1909       1908       2018       2019       2030       2029  
      1898       1899       1910       1909       2019       2020       2031       2030  
      1899       1900       1911       1910       2020       2021       2032       2031  
      1900       1901       1912       1911       2021       2022       2033       2032  
      1901       1902       1913       1912       2022       2023       2034       2033  
      1902       1903       1914       1913       2023       2024       2035       2034  
      1904       1905       1916       1915       2025       2026       2037       2036  
      1905       1906       1917       1916       2026       2027       2038       2037  
      1906       1907       1918       1917       2027       2028       2039       2038  
      1907       1908       1919       1918       2028       2029       2040       2039  
      1908       1909       1920       1919       2029       2030       2041       2040  
      1909       1910       1921       1920       2030       2031       2042       2041  
      1910       1911       1922       1921       2031       2032       2043       2042  
      1911       1912       1923       1922       2032       2033       2044       2043  
      1912       1913       1924       1923       2033       2034       2045       2044  
      1913       1914       1925       1924       2034       2035       2046       2045  
      1915       1916       1927       1926       2036       2037       2048       2047  
      1916       1917       1928       1927       2037       2038       2049       2048  
      1917       1918       1929       1928       2038       2039       2050       2049  
      1918       1919       1930       1929       2039       2040       2051       2050  
      1919       1920       1931       1930       2040       2041       2052       2051  
      1920       1921       1932       1931       2041       2042       2053       2052  
      1921       1922       1933       1932       2042       2043       2054       2053  
      1922       1923       1934       1933       2043       2044       2055       2054  
      1923       1924       1935       1934       2044       2045       2056       2055  
      1924       1925       1936       1935       2045       2046       2057       2056  
      1937       1938       1949       1948       2058       2059       2070       2069  
      1938       1939       1950       1949       2059       2060       2071       2070  
      1939       1940       1951       1950       2060       2061       2072       2071  
      1940       1941       1952       1951       2061       2062       2073       2072  
      1941       1942       1953       1952       2062       2063       2074       2073  
      1942       1943       1954       1953       2063       2064       2075       2074  
      1943       1944       1955       1954       2064       2065       2076       2075  
      1944       1945       1956       1955       2065       2066       2077       2076  
      1945       1946       1957       1956       2066       2067       2078       2077  
      1946       1947       1958       1957       2067       2068       2079       2078  
      1948       1949       1960       1959       2069       2070       2081       2080  
      1949       1950       1961       1960       2070       2071       2082       2081  
      1950       1951       1962       1961       2071       2072       2083       2082  
      1951       1952       1963       1962       2072       2073       2084       2083  
      1952       1953       1964       1963       2073       2074       2085       2084  
      1953       1954       1965       1964       2074       2075       2086       2085  
      1954       1955       1966       1965       2075       2076       2087       2086  
      1955       1956       1967       1966       2076       2077       2088       2087  
      1956       1957       1968       1967       2077       2078       2089       2088  
      1957       1958       1969       1968       2078       2079       2090       2089  
      1959       1960       1971       1970       2080       2081       2092       2091  
      1960       1961       1972       1971       2081       2082       2093       2092  
      1961       1962       1973       1972       2082       2083       2094       2093  
      1962       1963       1974       1973       2083       2084       2095       2094  
      1963       1964       1975       1974       2084       2085       2096       2095  
      1964       1965       1976       1975       2085       2086       2097       2096  
      1965       1966       1977       1976       2086       2087       2098       2097  
      1966       1967       1978       1977       2087       2088       2099       2098  
      1967       1968       1979       1978       2088       2089       2100       2099  
      1968       1969       1980       1979       2089       2090       2101       2100  
      1970       1971       1982       1981       2091       2092       2103       2102  
      1971       1972       1983       1982       2092       2093       2104       2103  
      1972       1973       1984       1983       2093       2094       2105       2104  
      1973       1974       1985       1984       2094       2095       2106       2105  
      1974       1975       1986       1985       2095       2096       2107       2106  
      1975       1976       1987       1986       2096       2097       2108       2107  
      1976       1977       1988       1987       2097       2098       2109       2108  
      1977       1978       1989       1988       2098       2099       2110       2109  
      1978       1979       1990       1989       2099       2100       2111       2110  
      1979       1980       1991       1990       2100       2101       2112       2111  
      1981       1982       1993       1992       2102       2103       2114       2113  
      1982       1983       1994       1993       2103       2104       2115       2114  
      1983       1984       1995       1994       2104       2105       2116       2115  
      1984       1985       1996       1995       2105       2106       2117       2116  
      1985       1986       1997       1996       2106       2107       2118       2117  
      1986       1987       1998       1997       2107       2108       2119       2118  
      1987       1988       1999       1998       2108       2109       2120       2119  
      1988       1989       2000       1999       2109       2110       2121       2120  
      1989       1990       2001       2000       2110       2111       2122       2121  
      1990       1991       2002       2001       2111       2112       2123       2122  
      1992       1993       2004       2003       2113       2114       2125       2124  
      1993       1994       2005       2004       2114       2115       2126       2125  
      1994       1995       2006       2005       2115       2116       2127       2126  
      1995       1996       2007       2006       2116       2117       2128       2127  
      1996       1997       2008       2007       2117       2118       2129       2128  
      1997       1998       2009       2008       2118       2119       2130       2129  
      1998       1999       2010       2009       2119       2120       2131       2130  
      1999       2000       2011       2010       2120       2121       2132       2131  
      2000       2001       2012       2011       2121       2122       2133       2132  
      2001       2002       2013       2012       2122       2123       2134       2133  
      2003       2004       2015       2014       2124       2125       2136       2135  
      2004       2005       2016       2015       2125       2126       2137       2136  
      2005       2006       2017       2016       2126       2127       2138       2137  
      2006       2007       2018       2017       2127       2128       2139       2138  
      2007       2008       2019       2018       2128       2129       2140       2139  
      2008       2009       2020       2019       2129       2130       2141       2140  
      2009       2010       2021       2020       2130       2131       2142       2141  
      2010       2011       2022       2021       2131       2132       2143       2142  
      2011       2012       2023       2022       2132       2133       2144       2143  
      2012       2013       2024       2023       2133       2134       2145       2144  
      2014       2015       2026       2025       2135       2136       2147       2146  
      2015       2016       2027       2026       2136       2137       2148       2147  
      2016       2017       2028       2027       2137       2138       2149       2148  
      2017       2018       2029       2028       2138       2139       2150       2149  
      2018       2019       2030       2029       2139       2140       2151       2150  
      2019       2020       2031       2030       2140       2141       2152       2151  
      2020       2021       2032       2031       2141       2142       2153       2152  
      2021       2022       2033       2032       2142       2143       2154       2153  
      2022       2023       2034       2033       2143       2144       2155       2154  
      2023       2024       2035       2034       2144       2145       2156       2155  
      2025       2026       2037       2036       2146       2147       2158       2157  
      2026       2027       2038       2037       2147       2148       2159       2158  
      2027       2028       2039       2038       2148       2149       2160       2159  
      2028       2029       2040       2039       2149       2150       2161       2160  
      2029       2030       2041       2040       2150       2151       2162       2161  
      2030       2031       2042       2041       2151       2152       2163       2162  
      2031       2032       2043       2042       2152       2153       2164       2163  
      2032       2033       2044       2043       2153       2154       2165       2164  
      2033       2034       2045       2044       2154       2155       2166       2165  
      2034       2035       2046       2045       2155       2156       2167       2166  
      2036       2037       2048       2047       2157       2158       2169       2168  
      2037       2038       2049       2048       2158       2159       2170       2169  
      2038       2039       2050       2049       2159       2160       2171       2170  
      2039       2040       2051       2050       2160       2161       2172       2171  
      2040       2041       2052       2051       2161       2162       2173       2172  
      2041       2042       2053       2052       2162       2163       2174       2173  
      2042       2043       2054       2053       2163       2164       2175       2174  
      2043       2044       2055       2054       2164       2165       2176       2175  
      2044       2045       2056       2055       2165       2166       2177       2176  
      2045       2046       2057       2056       2166       2167       2178       2177  
      2058       2059       2070       2069       2179       2180       2191       2190  
      2059       2060       2071       2070       2180       2181       2192       2191  
      2060       2061       2072       2071       2181       2182       2193       2192  
      2061       2062       2073       2072       2182       2183       2194       2193  
      2062       2063       2074       2073       2183       2184       2195       2194  
      2063       2064       2075       2074       2184       2185       2196       2195  
      2064       2065       2076       2075       2185       2186       2197       2196  
      2065       2066       2077       2076       2186       2187       2198       2197  
      2066       2067       2078       2077       2187       2188       2199       2198  
      2067       2068       2079       2078       2188       2189       2200       2199  
      2069       2070       2081       2080       2190       2191       2202       2201  
      2070       2071       2082       2081       2191       2192       2203       2202  
      2071       2072       2083       2082       2192       2193       2204       2203  
      2072       2073       2084       2083       2193       2194       2205       2204  
      2073       2074       2085       2084       2194       2195       2206       2205  
      2074       2075       2086       2085       2195       2196       2207       2206  
      2075       2076       2087       2086       2196       2197       2208       2207  
      2076       2077       2088       2087       2197       2198       2209       2208  
      2077       2078       2089       2088       2198       2199       2210       2209  
      2078       2079       2090       2089       2199       2200       2211       2210  
      2080       2081       2092       2091       2201       2202       2213       2212  
      2081       2082       2093       2092       2202       2203       2214       2213  
      2082       2083       2094       2093       2203       2204       2215       2214  
      2083       2084       2095       2094       2204       2205       2216       2215  
      2084       2085       2096       2095       2205       2206       2217       2216  
      2085       2086       2097       2096       2206       2207       2218       2217  
      2086       2087       2098       2097       2207       2208       2219       2218  
      2087       2088       2099       2098       2208       2209       2220       2219  
      2088       2089       2100       2099       2209       2210       2221       2220  
      2089       2090       2101       2100       2210       2211       2222       2221  
      2091       2092       2103       2102       2212       2213       2224       2223  
      2092       2093       2104       2103       2213       2214       2225       2224  
      2093       2094       2105       2104       2214       2215       2226       2225  
      2094       2095       2106       2105       2215       2216       2227       2226  
      2095       2096       2107       2106       2216       2217       2228       2227  
      2096       2097       2108       2107       2217       2218       2229       2228  
      2097       2098       2109       2108       2218       2219       2230       2229  
      2098       2099       2110       2109       2219       2220       2231       2230  
      2099       2100       2111       2110       2220       2221       2232       2231  
      2100       2101       2112       2111       2221       2222       2233       2232  
      2102       2103       2114       2113       2223       2224       2235       2234  
      2103       2104       2115       2114       2224       2225       2236       2235  
      2104       2105       2116       2115       2225       2226       2237       2236  
      2105       2106       2117       2116       2226       2227       2238       2237  
      2106       2107       2118       2117       2227       2228       2239       2238  
      2107       2108       2119       2118       2228       2229       2240       2239  
      2108       2109       2120       2119       2229       2230       2241       2240  
      2109       2110       2121       2120       2230       2231       2242       2241  
      2110       2111       2122       2121       2231       2232       2243       2242  
      2111       2112       2123       2122       2232       2233       2244       2243  
      2113       2114       2125       2124       2234       2235       2246       2245  
      2114       2115       2126       2125       2235       2236       2247       2246  
      2115       2116       2127       2126       2236       2237       2248       2247  
      2116       2117       2128       2127       2237       2238       2249       2248  
      2117       2118       2129       2128       2238       2239       2250       2249  
      2118       2119       2130       2129       2239       2240       2251       2250  
      2119       2120       2131       2130       2240       2241       2252       2251  
      2120       2121       2132       2131       2241       2242       2253       2252  
      2121       2122       2133       2132       2242       2243       2254       2253  
      2122       2123       2134       2133       2243       2244       2255       2254  
      2124       2125       2136       2135       2245       2246       2257       2256  
      2125       2126       2137       2136       2246       2247       2258       2257  
      2126       2127       2138       2137       2247       2248       2259       2258  
      2127       2128       2139       2138       2248       2249       2260       2259  
      2128       2129       2140       2139       2249       2250       2261       2260  
      2129       2130       2141       2140       2250       2251       2262       2261  
      2130       2131       2142       2141       2251       2252       2263       2262  
      2131       2132       2143       2142       2252       2253       2264       2263  
      2132       2133       2144       2143       2253       2254       2265       2264  
      2133       2134       2145       2144       2254       2255       2266       2265  
      2135       2136       2147       2146       2256       2257       2268       2267  
      2136       2137       2148       2147       2257       2258       2269       2268  
      2137       2138       2149       2148       2258       2259       2270       2269  
      2138       2139       2150       2149       2259       2260       2271       2270  
      2139       2140       2151       2150       2260       2261       2272       2271  
      2140       2141       2152       2151       2261       2262       2273       2272  
      2141       2142       2153       2152       2262       2263       2274       2273  
      2142       2143       2154       2153       2263       2264       2275       2274  
      2143       2144       2155       2154       2264       2265       2276       2275  
      2144       2145       2156       2155       2265       2266       2277       2276  
      2146       2147       2158       2157       2267       2268       2279       2278  
      2147       2148       2159       2158       2268       2269       2280       2279  
      2148       2149       2160       2159       2269       2270       2281       2280  
      2149       2150       2161       2160       2270       2271       2282       2281  
      2150       2151       2162       2161       2271       2272       2283       2282  
      2151       2152       2163       2162       2272       2273       2284       2283  
      2152       2153       2164       2163       2273       2274       2285       2284  
      2153       2154       2165       2164       2274       2275       2286       2285  
      2154       2155       2166       2165       2275       2276       2287       2286  
      2155       2156       2167       2166       2276       2277       2288       2287  
      2157       2158       2169       2168       2278       2279       2290       2289  
      2158       2159       2170       2169       2279       2280       2291       2290  
      2159       2160       2171       2170       2280       2281       2292       2291  
      2160       2161       2172       2171       2281       2282       2293       2292  
      2161       2162       2173       2172       2282       2283       2294       2293  
      2162       2163       2174       2173       2283       2284       2295       2294  
      2163       2164       2175       2174       2284       2285       2296       2295  
      2164       2165       2176       2175       2285       2286       2297       2296  
      2165       2166       2177       2176       2286       2287       2298       2297  
      2166       2167       2178       2177       2287       2288       2299       2298  
      2179       2180       2191       2190       2300       2301       2312       2311  
      2180       2181       2192       2191       2301       2302       2313       2312  
      2181       2182       2193       2192       2302       2303       2314       2313  
      2182       2183       2194       2193       2303       2304       2315       2314  
      2183       2184       2195       2194       2304       2305       2316       2315  
      2184       2185       2196       2195       2305       2306       2317       2316  
      2185       2186       2197       2196       2306       2307       2318       2317  
      2186       2187       2198       2197       2307       2308       2319       2318  
      2187       2188       2199       2198       2308       2309       2320       2319  
      2188       2189       2200       2199       2309       2310       2321       2320  
      2190       2191       2202       2201       2311       2312       2323       2322  
      2191       2192       2203       2202       2312       2313       2324       2323  
      2192       2193       2204       2203       2313       2314       2325       2324  
      2193       2194       2205       2204       2314       2315       2326       2325  
      2194       2195       2206       2205       2315       2316       2327       2326  
      2195       2196       2207       2206       2316       2317       2328       2327  
      2196       2197       2208       2207       2317       2318       2329       2328  
      2197       2198       2209       2208       2318       2319       2330       2329  
      2198       2199       2210       2209       2319       2320       2331       2330  
      2199       2200       2211       2210       2320       2321       2332       2331  
      2201       2202       2213       2212       2322       2323       2334       2333  
      2202       2203       2214       2213       2323       2324       2335       2334  
      2203       2204       2215       2214       2324       2325       2336       2335  
      2204       2205       2216       2215       2325       2326       2337       2336  
      2205       2206       2217       2216       2326       2327       2338       2337  
      2206       2207       2218       2217       2327       2328       2339       2338  
      2207       2208       2219       2218       2328       2329       2340       2339  
      2208       2209       2220       2219       2329       2330       2341       2340  
      2209       2210       2221       2220       2330       2331       2342       2341  
      2210       2211       2222       2221       2331       2332       2343       2342  
      2212       2213       2224       2223       2333       2334       2345       2344  
      2213       2214       2225       2224       2334       2335       2346       2345  
      2214       2215       2226       2225       2335       2336       2347       2346  
      2215       2216       2227       2226       2336       2337       2348       2347  
      2216       2217       2228       2227       2337       2338       2349       2348  
      2217       2218       2229       2228       2338       2339       2350       2349  
      2218       2219       2230       2229       2339       2340       2351       2350  
      2219       2220       2231       2230       2340       2341       2352       2351  
      2220       2221       2232       2231       2341       2342       2353       2352  
      2221       2222       2233       2232       2342       2343       2354       2353  
      2223       2224       2235       2234       2344       2345       2356       2355  
      2224       2225       2236       2235       2345       2346       2357       2356  
      2225       2226       2237       2236       2346       2347       2358       2357  
      2226       2227       2238       2237       2347       2348       2359       2358  
      2227       2228       2239       2238       2348       2349       2360       2359  
      2228       2229       2240       2239       2349       2350       2361       2360  
      2229       2230       2241       2240       2350       2351       2362       2361  
      2230       2231       2242       2241       2351       2352       2363       2362  
      2231       2232       2243       2242       2352       2353       2364       2363  
      2232       2233       2244       2243       2353       2354       2365       2364  
      2234       2235       2246       2245       2355       2356       2367       2366  
      2235       2236       2247       2246       2356       2357       2368       2367  
      2236       2237       2248       2247       2357       2358       2369       2368  
      2237       2238       2249       2248       2358       2359       2370       2369  
      2238       2239       2250       2249       2359       2360       2371       2370  
      2239       2240       2251       2250       2360       2361       2372       2371  
      2240       2241       2252       2251       2361       2362       2373       2372  
      2241       2242       2253       2252       2362       2363       2374       2373  
      2242       2243       2254       2253       2363       2364       2375       2374  
      2243       2244       2255       2254       2364       2365       2376       2375  
      2245       2246       2257       2256       2366       2367       2378       2377  
      2246       2247       2258       2257       2367       2368       2379       2378  
      2247       2248       2259       2258       2368       2369       2380       2379  
      2248       2249       2260       2259       2369       2370       2381       2380  
      2249       2250       2261       2260       2370       2371       2382       2381  
      2250       2251       2262       2261       2371       2372       2383       2382  
      2251       2252       2263       2262       2372       2373       2384       2383  
      2252       2253       2264       2263       2373       2374       2385       2384  
      2253       2254       2265       2264       2374       2375       2386       2385  
      2254       2255       2266       2265       2375       2376       2387       2386  
      2256       2257       2268       2267       2377       2378       2389       2388  
      2257       2258       2269       2268       2378       2379       2390       2389  
      2258       2259       2270       2269       2379       2380       2391       2390  
      2259       2260       2271       2270       2380       2381       2392       2391  
      2260       2261       2272       2271       2381       2382       2393       2392  
      2261       2262       2273       2272       2382       2383       2394       2393  
      2262       2263       2274       2273       2383       2384       2395       2394  
      2263       2264       2275       2274       2384       2385       2396       2395  
      2264       2265       2276       2275       2385       2386       2397       2396  
      2265       2266       2277       2276       2386       2387       2398       2397  
      2267       2268       2279       2278       2388       2389       2400       2399  
      2268       2269       2280       2279       2389       2390       2401       2400  
      2269       2270       2281       2280       2390       2391       2402       2401  
      2270       2271       2282       2281       2391       2392       2403       2402  
      2271       2272       2283       2282       2392       2393       2404       2403  
      2272       2273       2284       2283       2393       2394       2405       2404  
      2273       2274       2285       2284       2394       2395       2406       2405  
      2274       2275       2286       2285       2395       2396       2407       2406  
      2275       2276       2287       2286       2396       2397       2408       2407  
      2276       2277       2288       2287       2397       2398       2409       2408  
      2278       2279       2290       2289       2399       2400       2411       2410  
      2279       2280       2291       2290       2400       2401       2412       2411  
      2280       2281       2292       2291       2401       2402       2413       2412  
      2281       2282       2293       2292       2402       2403       2414       2413  
      2282       2283       2294       2293       2403       2404       2415       2414  
      2283       2284       2295       2294       2404       2405       2416       2415  
      2284       2285       2296       2295       2405       2406       2417       2416  
      2285       2286       2297       2296       2406       2407       2418       2417  
      2286       2287       2298       2297       2407       2408       2419       2418  
      2287       2288       2299       2298       2408       2409       2420       2419  
      2300       2301       2312       2311       2421       2422       2433       2432  
      2301       2302       2313       2312       2422       2423       2434       2433  
      2302       2303       2314       2313       2423       2424       2435       2434  
      2303       2304       2315       2314       2424       2425       2436       2435  
      2304       2305       2316       2315       2425       2426       2437       2436  
      2305       2306       2317       2316       2426       2427       2438       2437  
      2306       2307       2318       2317       2427       2428       2439       2438  
      2307       2308       2319       2318       2428       2429       2440       2439  
      2308       2309       2320       2319       2429       2430       2441       2440  
      2309       2310       2321       2320       2430       2431       2442       2441  
      2311       2312       2323       2322       2432       2433       2444       2443  
      2312       2313       2324       2323       2433       2434       2445       2444  
      2313       2314       2325       2324       2434       2435       2446       2445  
      2314       2315       2326       2325       2435       2436       2447       2446  
      2315       2316       2327       2326       2436       2437       2448       2447  
      2316       2317       2328       2327       2437       2438       2449       2448  
      2317       2318       2329       2328       2438       2439       2450       2449  
      2318       2319       2330       2329       2439       2440       2451       2450  
      2319       2320       2331       2330       2440       2441       2452       2451  
      2320       2321       2332       2331       2441       2442       2453       2452  
      2322       2323       2334       2333       2443       2444       2455       2454  
      2323       2324       2335       2334       2444       2445       2456       2455  
      2324       2325       2336       2335       2445       2446       2457       2456  
      2325       2326       2337       2336       2446       2447       2458       2457  
      2326       2327       2338       2337       2447       2448       2459       2458  
      2327       2328       2339       2338       2448       2449       2460       2459  
      2328       2329       2340       2339       2449       2450       2461       2460  
      2329       2330       2341       2340       2450       2451       2462       2461  
      2330       2331       2342       2341       2451       2452       2463       2462  
      2331       2332       2343       2342       2452       2453       2464       2463  
      2333       2334       2345       2344       2454       2455       2466       2465  
      2334       2335       2346       2345       2455       2456       2467       2466  
      2335       2336       2347       2346       2456       2457       2468       2467  
      2336       2337       2348       2347       2457       2458       2469       2468  
      2337       2338       2349       2348       2458       2459       2470       2469  
      2338       2339       2350       2349       2459       2460       2471       2470  
      2339       2340       2351       2350       2460       2461       2472       2471  
      2340       2341       2352       2351       2461       2462       2473       2472  
      2341       2342       2353       2352       2462       2463       2474       2473  
      2342       2343       2354       2353       2463       2464       2475       2474  
      2344       2345       2356       2355       2465       2466       2477       2476  
      2345       2346       2357       2356       2466       2467       2478       2477  
      2346       2347       2358       2357       2467       2468       2479       2478  
      2347       2348       2359       2358       2468       2469       2480       2479  
      2348       2349       2360       2359       2469       2470       2481       2480  
      2349       2350       2361       2360       2470       2471       2482       2481  
      2350       2351       2362       2361       2471       2472       2483       2482  
      2351       2352       2363       2362       2472       2473       2484       2483  
      2352       2353       2364       2363       2473       2474       2485       2484  
      2353       2354       2365       2364       2474       2475       2486       2485  
      2355       2356       2367       2366       2476       2477       2488       2487  
      2356       2357       2368       2367       2477       2478       2489       2488  
      2357       2358       2369       2368       2478       2479       2490       2489  
      2358       2359       2370       2369       2479       2480       2491       2490  
      2359       2360       2371       2370       2480       2481       2492       2491  
      2360       2361       2372       2371       2481       2482       2493       2492  
      2361       2362       2373       2372       2482       2483       2494       2493  
      2362       2363       2374       2373       2483       2484       2495       2494  
      2363       2364       2375       2374       2484       2485       2496       2495  
      2364       2365       2376       2375       2485       2486       2497       2496  
      2366       2367       2378       2377       2487       2488       2499       2498  
      2367       2368       2379       2378       2488       2489       2500       2499  
      2368       2369       2380       2379       2489       2490       2501       2500  
      2369       2370       2381       2380       2490       2491       2502       2501  
      2370       2371       2382       2381       2491       2492       2503       2502  
      2371       2372       2383       2382       2492       2493       2504       2503  
      2372       2373       2384       2383       2493       2494       2505       2504  
      2373       2374       2385       2384       2494       2495       2506       2505  
      2374       2375       2386       2385       2495       2496       2507       2506  
      2375       2376       2387       2386       2496       2497       2508       2507  
      2377       2378       2389       2388       2498       2499       2510       2509  
      2378       2379       2390       2389       2499       2500       2511       2510  
      2379       2380       2391       2390       2500       2501       2512       2511  
      2380       2381       2392       2391       2501       2502       2513       2512  
      2381       2382       2393       2392       2502       2503       2514       2513  
      2382       2383       2394       2393       2503       2504       2515       2514  
      2383       2384       2395       2394       2504       2505       2516       2515  
      2384       2385       2396       2395       2505       2506       2517       2516  
      2385       2386       2397       2396       2506       2507       2518       2517  
      2386       2387       2398       2397       2507       2508       2519       2518  
      2388       2389       2400       2399       2509       2510       2521       2520  
      2389       2390       2401       2400       2510       2511       2522       2521  
      2390       2391       2402       2401       2511       2512       2523       2522  
      2391       2392       2403       2402       2512       2513       2524       2523  
      2392       2393       2404       2403       2513       2514       2525       2524  
      2393       2394       2405       2404       2514       2515       2526       2525  
      2394       2395       2406       2405       2515       2516       2527       2526  
      2395       2396       2407       2406       2516       2517       2528       2527  
      2396       2397       2408       2407       2517       2518       2529       2528  
      2397       2398       2409       2408       2518       2519       2530       2529  
      2399       2400       2411       2410       2520       2521       2532       2531  
      2400       2401       2412       2411       2521       2522       2533       2532  
      2401       2402       2413       2412       2522       2523       2534       2533  
      2402       2403       2414       2413       2523       2524       2535       2534  
      2403       2404       2415       2414       2524       2525       2536       2535  
      2404       2405       2416       2415       2525       2526       2537       2536  
      2405       2406       2417       2416       2526       2527       2538       2537  
      2406       2407       2418       2417       2527       2528       2539       2538  
      2407       2408       2419       2418       2528       2529       2540       2539  
      2408       2409       2420       2419       2529       2530       2541       2540  
      2421       2422       2433       2432       2542       2543       2554       2553  
      2422       2423       2434       2433       2543       2544       2555       2554  
      2423       2424       2435       2434       2544       2545       2556       2555  
      2424       2425       2436       2435       2545       2546       2557       2556  
      2425       2426       2437       2436       2546       2547       2558       2557  
      2426       2427       2438       2437       2547       2548       2559       2558  
      2427       2428       2439       2438       2548       2549       2560       2559  
      2428       2429       2440       2439       2549       2550       2561       2560  
      2429       2430       2441       2440       2550       2551       2562       2561  
      2430       2431       2442       2441       2551       2552       2563       2562  
      2432       2433       2444       2443       2553       2554       2565       2564  
      2433       2434       2445       2444       2554       2555       2566       2565  
      2434       2435       2446       2445       2555       2556       2567       2566  
      2435       2436       2447       2446       2556       2557       2568       2567  
      2436       2437       2448       2447       2557       2558       2569       2568  
      2437       2438       2449       2448       2558       2559       2570       2569  
      2438       2439       2450       2449       2559       2560       2571       2570  
      2439       2440       2451       2450       2560       2561       2572       2571  
      2440       2441       2452       2451       2561       2562       2573       2572  
      2441       2442       2453       2452       2562       2563       2574       2573  
      2443       2444       2455       2454       2564       2565       2576       2575  
      2444       2445       2456       2455       2565       2566       2577       2576  
      2445       2446       2457       2456       2566       2567       2578       2577  
      2446       2447       2458       2457       2567       2568       2579       2578  
      2447       2448       2459       2458       2568       2569       2580       2579  
      2448       2449       2460       2459       2569       2570       2581       2580  
      2449       2450       2461       2460       2570       2571       2582       2581  
      2450       2451       2462       2461       2571       2572       2583       2582  
      2451       2452       2463       2462       2572       2573       2584       2583  
      2452       2453       2464       2463       2573       2574       2585       2584  
      2454       2455       2466       2465       2575       2576       2587       2586  
      2455       2456       2467       2466       2576       2577       2588       2587  
      2456       2457       2468       2467       2577       2578       2589       2588  
      2457       2458       2469       2468       2578       2579       2590       2589  
      2458       2459       2470       2469       2579       2580       2591       2590  
      2459       2460       2471       2470       2580       2581       2592       2591  
      2460       2461       2472       2471       2581       2582       2593       2592  
      2461       2462       2473       2472       2582       2583       2594       2593  
      2462       2463       2474       2473       2583       2584       2595       2594  
      2463       2464       2475       2474       2584       2585       2596       2595  
      2465       2466       2477       2476       2586       2587       2598       2597  
      2466       2467       2478       2477       2587       2588       2599       2598  
      2467       2468       2479       2478       2588       2589       2600       2599  
      2468       2469       2480       2479       2589       2590       2601       2600  
      2469       2470       2481       2480       2590       2591       2602       2601  
      2470       2471       2482       2481       2591       2592       2603       2602  
      2471       2472       2483       2482       2592       2593       2604       2603  
      2472       2473       2484       2483       2593       2594       2605       2604  
      2473       2474       2485       2484       2594       2595       2606       2605  
      2474       2475       2486       2485       2595       2596       2607       2606  
      2476       2477       2488       2487       2597       2598       2609       2608  
      2477       2478       2489       2488       2598       2599       2610       2609  
      2478       2479       2490       2489       2599       2600       2611       2610  
      2479       2480       2491       2490       2600       2601       2612       2611  
      2480       2481       2492       2491       2601       2602       2613       2612  
      2481       2482       2493       2492       2602       2603       2614       2613  
      2482       2483       2494       2493       2603       2604       2615       2614  
      2483       2484       2495       2494       2604       2605       2616       2615  
      2484       2485       2496       2495       2605       2606       2617       2616  
      2485       2486       2497       2496       2606       2607       2618       2617  
      2487       2488       2499       2498       2608       2609       2620       2619  
      2488       2489       2500       2499       2609       2610       2621       2620  
      2489       2490       2501       2500       2610       2611       2622       2621  
      2490       2491       2502       2501       2611       2612       2623       2622  
      2491       2492       2503       2502       2612       2613       2624       2623  
      2492       2493       2504       2503       2613       2614       2625       2624  
      2493       2494       2505       2504       2614       2615       2626       2625  
      2494       2495       2506       2505       2615       2616       2627       2626  
      2495       2496       2507       2506       2616       2617       2628       2627  
      2496       2497       2508       2507       2617       2618       2629       2628  
      2498       2499       2510       2509       2619       2620       2631       2630  
      2499       2500       2511       2510       2620       2621       2632       2631  
      2500       2501       2512       2511       2621       2622       2633       2632  
      2501       2502       2513       2512       2622       2623       2634       2633  
      2502       2503       2514       2513       2623       2624       2635       2634  
      2503       2504       2515       2514       2624       2625       2636       2635  
      2504       2505       2516       2515       2625       2626       2637       2636  
      2505       2506       2517       2516       2626       2627       2638       2637  
      2506       2507       2518       2517       2627       2628       2639       2638  
      2507       2508       2519       2518       2628       2629       2640       2639  
      2509       2510       2521       2520       2630       2631       2642       2641  
      2510       2511       2522       2521       2631       2632       2643       2642  
      2511       2512       2523       2522       2632       2633       2644       2643  
      2512       2513       2524       2523       2633       2634       2645       2644  
      2513       2514       2525       2524       2634       2635       2646       2645  
      2514       2515       2526       2525       2635       2636       2647       2646  
      2515       2516       2527       2526       2636       2637       2648       2647  
      2516       2517       2528       2527       2637       2638       2649       2648  
      2517       2518       2529       2528       2638       2639       2650       2649  
      2518       2519       2530       2529       2639       2640       2651       2650  
      2520       2521       2532       2531       2641       2642       2653       2652  
      2521       2522       2533       2532       2642       2643       2654       2653  
      2522       2523       2534       2533       2643       2644       2655       2654  
      2523       2524       2535       2534       2644       2645       2656       2655  
      2524       2525       2536       2535       2645       2646       2657       2656  
      2525       2526       2537       2536       2646       2647       2658       2657  
      2526       2527       2538       2537       2647       2648       2659       2658  
      2527       2528       2539       2538       2648       2649       2660       2659  
      2528       2529       2540       2539       2649       2650       2661       2660  
      2529       2530       2541       2540       2650       2651       2662       2661  
      2542       2543       2554       2553       2663       2664       2675       2674  
      2543       2544       2555       2554       2664       2665       2676       2675  
      2544       2545       2556       2555       2665       2666       2677       2676  
      2545       2546       2557       2556       2666       2667       2678       2677  
      2546       2547       2558       2557       2667       2668       2679       2678  
      2547       2548       2559       2558       2668       2669       2680       2679  
      2548       2549       2560       2559       2669       2670       2681       2680  
      2549       2550       2561       2560       2670       2671       2682       2681  
      2550       2551       2562       2561       2671       2672       2683       2682  
      2551       2552       2563       2562       2672       2673       2684       2683  
      2553       2554       2565       2564       2674       2675       2686       2685  
      2554       2555       2566       2565       2675       2676       2687       2686  
      2555       2556       2567       2566       2676       2677       2688       2687  
      2556       2557       2568       2567       2677       2678       2689       2688  
      2557       2558       2569       2568       2678       2679       2690       2689  
      2558       2559       2570       2569       2679       2680       2691       2690  
      2559       2560       2571       2570       2680       2681       2692       2691  
      2560       2561       2572       2571       2681       2682       2693       2692  
      2561       2562       2573       2572       2682       2683       2694       2693  
      2562       2563       2574       2573       2683       2684       2695       2694  
      2564       2565       2576       2575       2685       2686       2697       2696  
      2565       2566       2577       2576       2686       2687       2698       2697  
      2566       2567       2578       2577       2687       2688       2699       2698  
      2567       2568       2579       2578       2688       2689       2700       2699  
      2568       2569       2580       2579       2689       2690       2701       2700  
      2569       2570       2581       2580       2690       2691       2702       2701  
      2570       2571       2582       2581       2691       2692       2703       2702  
      2571       2572       2583       2582       2692       2693       2704       2703  
      2572       2573       2584       2583       2693       2694       2705       2704  
      2573       2574       2585       2584       2694       2695       2706       2705  
      2575       2576       2587       2586       2696       2697       2708       2707  
      2576       2577       2588       2587       2697       2698       2709       2708  
      2577       2578       2589       2588       2698       2699       2710       2709  
      2578       2579       2590       2589       2699       2700       2711       2710  
      2579       2580       2591       2590       2700       2701       2712       2711  
      2580       2581       2592       2591       2701       2702       2713       2712  
      2581       2582       2593       2592       2702       2703       2714       2713  
      2582       2583       2594       2593       2703       2704       2715       2714  
      2583       2584       2595       2594       2704       2705       2716       2715  
      2584       2585       2596       2595       2705       2706       2717       2716  
      2586       2587       2598       2597       2707       2708       2719       2718  
      2587       2588       2599       2598       2708       2709       2720       2719  
      2588       2589       2600       2599       2709       2710       2721       2720  
      2589       2590       2601       2600       2710       2711       2722       2721  
      2590       2591       2602       2601       2711       2712       2723       2722  
      2591       2592       2603       2602       2712       2713       2724       2723  
      2592       2593       2604       2603       2713       2714       2725       2724  
      2593       2594       2605       2604       2714       2715       2726       2725  
      2594       2595       2606       2605       2715       2716       2727       2726  
      2595       2596       2607       2606       2716       2717       2728       2727  
      2597       2598       2609       2608       2718       2719       2730       2729  
      2598       2599       2610       2609       2719       2720       2731       2730  
      2599       2600       2611       2610       2720       2721       2732       2731  
      2600       2601       2612       2611       2721       2722       2733       2732  
      2601       2602       2613       2612       2722       2723       2734       2733  
      2602       2603       2614       2613       2723       2724       2735       2734  
      2603       2604       2615       2614       2724       2725       2736       2735  
      2604       2605       2616       2615       2725       2726       2737       2736  
      2605       2606       2617       2616       2726       2727       2738       2737  
      2606       2607       2618       2617       2727       2728       2739       2738  
      2608       2609       2620       2619       2729       2730       2741       2740  
      2609       2610       2621       2620       2730       2731       2742       2741  
      2610       2611       2622       2621       2731       2732       2743       2742  
      2611       2612       2623       2622       2732       2733       2744       2743  
      2612       2613       2624       2623       2733       2734       2745       2744  
      2613       2614       2625       2624       2734       2735       2746       2745  
      2614       2615       2626       2625       2735       2736       2747       2746  
      2615       2616       2627       2626       2736       2737       2748       2747  
      2616       2617       2628       2627       2737       2738       2749       2748  
      2617       2618       2629       2628       2738       2739       2750       2749  
      2619       2620       2631       2630       2740       2741       2752       2751  
      2620       2621       2632       2631       2741       2742       2753       2752  
      2621       2622       2633       2632       2742       2743       2754       2753  
      2622       2623       2634       2633       2743       2744       2755       2754  
      2623       2624       2635       2634       2744       2745       2756       2755  
      2624       2625       2636       2635       2745       2746       2757       2756  
      2625       2626       2637       2636       2746       2747       2758       2757  
      2626       2627       2638       2637       2747       2748       2759       2758  
      2627       2628       2639       2638       2748       2749       2760       2759  
      2628       2629       2640       2639       2749       2750       2761       2760  
      2630       2631       2642       2641       2751       2752       2763       2762  
      2631       2632       2643       2642       2752       2753       2764       2763  
      2632       2633       2644       2643       2753       2754       2765       2764  
      2633       2634       2645       2644       2754       2755       2766       2765  
      2634       2635       2646       2645       2755       2756       2767       2766  
      2635       2636       2647       2646       2756       2757       2768       2767  
      2636       2637       2648       2647       2757       2758       2769       2768  
      2637       2638       2649       2648       2758       2759       2770       2769  
      2638       2639       2650       2649       2759       2760       2771       2770  
      2639       2640       2651       2650       2760       2761       2772       2771  
      2641       2642       2653       2652       2762       2763       2774       2773  
      2642       2643       2654       2653       2763       2764       2775       2774  
      2643       2644       2655       2654       2764       2765       2776       2775  
      2644       2645       2656       2655       2765       2766       2777       2776  
      2645       2646       2657       2656       2766       2767       2778       2777  
      2646       2647       2658       2657       2767       2768       2779       2778  
      2647       2648       2659       2658       2768       2769       2780       2779  
      2648       2649       2660       2659       2769       2770       2781       2780  
      2649       2650       2661       2660       2770       2771       2782       2781  
      2650       2651       2662       2661       2771       2772       2783       2782  
      2663       2664       2675       2674       2784       2785       2796       2795  
      2664       2665       2676       2675       2785       2786       2797       2796  
      2665       2666       2677       2676       2786       2787       2798       2797  
      2666       2667       2678       2677       2787       2788       2799       2798  
      2667       2668       2679       2678       2788       2789       2800       2799  
      2668       2669       2680       2679       2789       2790       2801       2800  
      2669       2670       2681       2680       2790       2791       2802       2801  
      2670       2671       2682       2681       2791       2792       2803       2802  
      2671       2672       2683       2682       2792       2793       2804       2803  
      2672       2673       2684       2683       2793       2794       2805       2804  
      2674       2675       2686       2685       2795       2796       2807       2806  
      2675       2676       2687       2686       2796       2797       2808       2807  
      2676       2677       2688       2687       2797       2798       2809       2808  
      2677       2678       2689       2688       2798       2799       2810       2809  
      2678       2679       2690       2689       2799       2800       2811       2810  
      2679       2680       2691       2690       2800       2801       2812       2811  
      2680       2681       2692       2691       2801       2802       2813       2812  
      2681       2682       2693       2692       2802       2803       2814       2813  
      2682       2683       2694       2693       2803       2804       2815       2814  
      2683       2684       2695       2694       2804       2805       2816       2815  
      2685       2686       2697       2696       2806       2807       2818       2817  
      2686       2687       2698       2697       2807       2808       2819       2818  
      2687       2688       2699       2698       2808       2809       2820       2819  
      2688       2689       2700       2699       2809       2810       2821       2820  
      2689       2690       2701       2700       2810       2811       2822       2821  
      2690       2691       2702       2701       2811       2812       2823       2822  
      2691       2692       2703       2702       2812       2813       2824       2823  
      2692       2693       2704       2703       2813       2814       2825       2824  
      2693       2694       2705       2704       2814       2815       2826       2825  
      2694       2695       2706       2705       2815       2816       2827       2826  
      2696       2697       2708       2707       2817       2818       2829       2828  
      2697       2698       2709       2708       2818       2819       2830       2829  
      2698       2699       2710       2709       2819       2820       2831       2830  
      2699       2700       2711       2710       2820       2821       2832       2831  
      2700       2701       2712       2711       2821       2822       2833       2832  
      2701       2702       2713       2712       2822       2823       2834       2833  
      2702       2703       2714       2713       2823       2824       2835       2834  
      2703       2704       2715       2714       2824       2825       2836       2835  
      2704       2705       2716       2715       2825       2826       2837       2836  
      2705       2706       2717       2716       2826       2827       2838       2837  
      2707       2708       2719       2718       2828       2829       2840       2839  
      2708       2709       2720       2719       2829       2830       2841       2840  
      2709       2710       2721       2720       2830       2831       2842       2841  
      2710       2711       2722       2721       2831       2832       2843       2842  
      2711       2712       2723       2722       2832       2833       2844       2843  
      2712       2713       2724       2723       2833       2834       2845       2844  
      2713       2714       2725       2724       2834       2835       2846       2845  
      2714       2715       2726       2725       2835       2836       2847       2846  
      2715       2716       2727       2726       2836       2837       2848       2847  
      2716       2717       2728       2727       2837       2838       2849       2848  
      2718       2719       2730       2729       2839       2840       2851       2850  
      2719       2720       2731       2730       2840       2841       2852       2851  
      2720       2721       2732       2731       2841       2842       2853       2852  
      2721       2722       2733       2732       2842       2843       2854       2853  
      2722       2723       2734       2733       2843       2844       2855       2854  
      2723       2724       2735       2734       2844       2845       2856       2855  
      2724       2725       2736       2735       2845       2846       2857       2856  
      2725       2726       2737       2736       2846       2847       2858       2857  
      2726       2727       2738       2737       2847       2848       2859       2858  
      2727       2728       2739       2738       2848       2849       2860       2859  
      2729       2730       2741       2740       2850       2851       2862       2861  
      2730       2731       2742       2741       2851       2852       2863       2862  
      2731       2732       2743       2742       2852       2853       2864       2863  
      2732       2733       2744       2743       2853       2854       2865       2864  
      2733       2734       2745       2744       2854       2855       2866       2865  
      2734       2735       2746       2745       2855       2856       2867       2866  
      2735       2736       2747       2746       2856       2857       2868       2867  
      2736       2737       2748       2747       2857       2858       2869       2868  
      2737       2738       2749       2748       2858       2859       2870       2869  
      2738       2739       2750       2749       2859       2860       2871       2870  
      2740       2741       2752       2751       2861       2862       2873       2872  
      2741       2742       2753       2752       2862       2863       2874       2873  
      2742       2743       2754       2753       2863       2864       2875       2874  
      2743       2744       2755       2754       2864       2865       2876       2875  
      2744       2745       2756       2755       2865       2866       2877       2876  
      2745       2746       2757       2756       2866       2867       2878       2877  
      2746       2747       2758       2757       2867       2868       2879       2878  
      2747       2748       2759       2758       2868       2869       2880       2879  
      2748       2749       2760       2759       2869       2870       2881       2880  
      2749       2750       2761       2760       2870       2871       2882       2881  
      2751       2752       2763       2762       2872       2873       2884       2883  
      2752       2753       2764       2763       2873       2874       2885       2884  
      2753       2754       2765       2764       2874       2875       2886       2885  
      2754       2755       2766       2765       2875       2876       2887       2886  
      2755       2756       2767       2766       2876       2877       2888       2887  
      2756       2757       2768       2767       2877       2878       2889       2888  
      2757       2758       2769       2768       2878       2879       2890       2889  
      2758       2759       2770       2769       2879       2880       2891       2890  
      2759       2760       2771       2770       2880       2881       2892       2891  
      2760       2761       2772       2771       2881       2882       2893       2892  
      2762       2763       2774       2773       2883       2884       2895       2894  
      2763       2764       2775       2774       2884       2885       2896       2895  
      2764       2765       2776       2775       2885       2886       2897       2896  
      2765       2766       2777       2776       2886       2887       2898       2897  
      2766       2767       2778       2777       2887       2888       2899       2898  
      2767       2768       2779       2778       2888       2889       2900       2899  
      2768       2769       2780       2779       2889       2890       2901       2900  
      2769       2770       2781       2780       2890       2891       2902       2901  
      2770       2771       2782       2781       2891       2892       2903       2902  
      2771       2772       2783       2782       2892       2893       2904       2903  
      2784       2785       2796       2795       2905       2906       2917       2916  
      2785       2786       2797       2796       2906       2907       2918       2917  
      2786       2787       2798       2797       2907       2908       2919       2918  
      2787       2788       2799       2798       2908       2909       2920       2919  
      2788       2789       2800       2799       2909       2910       2921       2920  
      2789       2790       2801       2800       2910       2911       2922       2921  
      2790       2791       2802       2801       2911       2912       2923       2922  
      2791       2792       2803       2802       2912       2913       2924       2923  
      2792       2793       2804       2803       2913       2914       2925       2924  
      2793       2794       2805       2804       2914       2915       2926       2925  
      2795       2796       2807       2806       2916       2917       2928       2927  
      2796       2797       2808       2807       2917       2918       2929       2928  
      2797       2798       2809       2808       2918       2919       2930       2929  
      2798       2799       2810       2809       2919       2920       2931       2930  
      2799       2800       2811       2810       2920       2921       2932       2931  
      2800       2801       2812       2811       2921       2922       2933       2932  
      2801       2802       2813       2812       2922       2923       2934       2933  
      2802       2803       2814       2813       2923       2924       2935       2934  
      2803       2804       2815       2814       2924       2925       2936       2935  
      2804       2805       2816       2815       2925       2926       2937       2936  
      2806       2807       2818       2817       2927       2928       2939       2938  
      2807       2808       2819       2818       2928       2929       2940       2939  
      2808       2809       2820       2819       2929       2930       2941       2940  
      2809       2810       2821       2820       2930       2931       2942       2941  
      2810       2811       2822       2821       2931       2932       2943       2942  
      2811       2812       2823       2822       2932       2933       2944       2943  
      2812       2813       2824       2823       2933       2934       2945       2944  
      2813       2814       2825       2824       2934       2935       2946       2945  
      2814       2815       2826       2825       2935       2936       2947       2946  
      2815       2816       2827       2826       2936       2937       2948       2947  
      2817       2818       2829       2828       2938       2939       2950       2949  
      2818       2819       2830       2829       2939       2940       2951       2950  
      2819       2820       2831       2830       2940       2941       2952       2951  
      2820       2821       2832       2831       2941       2942       2953       2952  
      2821       2822       2833       2832       2942       2943       2954       2953  
      2822       2823       2834       2833       2943       2944       2955       2954  
      2823       2824       2835       2834       2944       2945       2956       2955  
      2824       2825       2836       2835       2945       2946       2957       2956  
      2825       2826       2837       2836       2946       2947       2958       2957  
      2826       2827       2838       2837       2947       2948       2959       2958  
      2828       2829       2840       2839       2949       2950       2961       2960  
      2829       2830       2841       2840       2950       2951       2962       2961  
      2830       2831       2842       2841       2951       2952       2963       2962  
      2831       2832       2843       2842       2952       2953       2964       2963  
      2832       2833       2844       2843       2953       2954       2965       2964  
      2833       2834       2845       2844       2954       2955       2966       2965  
      2834       2835       2846       2845       2955       2956       2967       2966  
      2835       2836       2847       2846       2956       2957       2968       2967  
      2836       2837       2848       2847       2957       2958       2969       2968  
      2837       2838       2849       2848       2958       2959       2970       2969  
      2839       2840       2851       2850       2960       2961       2972       2971  
      2840       2841       2852       2851       2961       2962       2973       2972  
      2841       2842       2853       2852       2962       2963       2974       2973  
      2842       2843       2854       2853       2963       2964       2975       2974  
      2843       2844       2855       2854       2964       2965       2976       2975  
      2844       2845       2856       2855       2965       2966       2977       2976  
      2845       2846       2857       2856       2966       2967       2978       2977  
      2846       2847       2858       2857       2967       2968       2979       2978  
      2847       2848       2859       2858       2968       2969       2980       2979  
      2848       2849       2860       2859       2969       2970       2981       2980  
      2850       2851       2862       2861       2971       2972       2983       2982  
      2851       2852       2863       2862       2972       2973       2984       2983  
      2852       2853       2864       2863       2973       2974       2985       2984  
      2853       2854       2865       2864       2974       2975       2986       2985  
      2854       2855       2866       2865       2975       2976       2987       2986  
      2855       2856       2867       2866       2976       2977       2988       2987  
      2856       2857       2868       2867       2977       2978       2989       2988  
      2857       2858       2869       2868       2978       2979       2990       2989  
      2858       2859       2870       2869       2979       2980       2991       2990  
      2859       2860       2871       2870       2980       2981       2992       2991  
      2861       2862       2873       2872       2982       2983       2994       2993  
      2862       2863       2874       2873       2983       2984       2995       2994  
      2863       2864       2875       2874       2984       2985       2996       2995  
      2864       2865       2876       2875       2985       2986       2997       2996  
      2865       2866       2877       2876       2986       2987       2998       2997  
      2866       2867       2878       2877       2987       2988       2999       2998  
      2867       2868       2879       2878       2988       2989       3000       2999  
      2868       2869       2880       2879       2989       2990       3001       3000  
      2869       2870       2881       2880       2990       2991       3002       3001  
      2870       2871       2882       2881       2991       2992       3003       3002  
      2872       2873       2884       2883       2993       2994       3005       3004  
      2873       2874       2885       2884       2994       2995       3006       3005  
      2874       2875       2886       2885       2995       2996       3007       3006  
      2875       2876       2887       2886       2996       2997       3008       3007  
      2876       2877       2888       2887       2997       2998       3009       3008  
      2877       2878       2889       2888       2998       2999       3010       3009  
      2878       2879       2890       2889       2999       3000       3011       3010  
      2879       2880       2891       2890       3000       3001       3012       3011  
      2880       2881       2892       2891       3001       3002       3013       3012  
      2881       2882       2893       2892       3002       3003       3014       3013  
      2883       2884       2895       2894       3004       3005       3016       3015  
      2884       2885       2896       2895       3005       3006       3017       3016  
      2885       2886       2897       2896       3006       3007       3018       3017  
      2886       2887       2898       2897       3007       3008       3019       3018  
      2887       2888       2899       2898       3008       3009       3020       3019  
      2888       2889       2900       2899       3009       3010       3021       3020  
      2889       2890       2901       2900       3010       3011       3022       3021  
      2890       2891       2902       2901       3011       3012       3023       3022  
      2891       2892       2903       2902       3012       3013       3024       3023  
      2892       2893       2904       2903       3013       3014       3025       3024  
      2905       2906       2917       2916       3026       3027       3038       3037  
      2906       2907       2918       2917       3027       3028       3039       3038  
      2907       2908       2919       2918       3028       3029       3040       3039  
      2908       2909       2920       2919       3029       3030       3041       3040  
      2909       2910       2921       2920       3030       3031       3042       3041  
      2910       2911       2922       2921       3031       3032       3043       3042  
      2911       2912       2923       2922       3032       3033       3044       3043  
      2912       2913       2924       2923       3033       3034       3045       3044  
      2913       2914       2925       2924       3034       3035       3046       3045  
      2914       2915       2926       2925       3035       3036       3047       3046  
      2916       2917       2928       2927       3037       3038       3049       3048  
      2917       2918       2929       2928       3038       3039       3050       3049  
      2918       2919       2930       2929       3039       3040       3051       3050  
      2919       2920       2931       2930       3040       3041       3052       3051  
      2920       2921       2932       2931       3041       3042       3053       3052  
      2921       2922       2933       2932       3042       3043       3054       3053  
      2922       2923       2934       2933       3043       3044       3055       3054  
      2923       2924       2935       2934       3044       3045       3056       3055  
      2924       2925       2936       2935       3045       3046       3057       3056  
      2925       2926       2937       2936       3046       3047       3058       3057  
      2927       2928       2939       2938       3048       3049       3060       3059  
      2928       2929       2940       2939       3049       3050       3061       3060  
      2929       2930       2941       2940       3050       3051       3062       3061  
      2930       2931       2942       2941       3051       3052       3063       3062  
      2931       2932       2943       2942       3052       3053       3064       3063  
      2932       2933       2944       2943       3053       3054       3065       3064  
      2933       2934       2945       2944       3054       3055       3066       3065  
      2934       2935       2946       2945       3055       3056       3067       3066  
      2935       2936       2947       2946       3056       3057       3068       3067  
      2936       2937       2948       2947       3057       3058       3069       3068  
      2938       2939       2950       2949       3059       3060       3071       3070  
      2939       2940       2951       2950       3060       3061       3072       3071  
      2940       2941       2952       2951       3061       3062       3073       3072  
      2941       2942       2953       2952       3062       3063       3074       3073  
      2942       2943       2954       2953       3063       3064       3075       3074  
      2943       2944       2955       2954       3064       3065       3076       3075  
      2944       2945       2956       2955       3065       3066       3077       3076  
      2945       2946       2957       2956       3066       3067       3078       3077  
      2946       2947       2958       2957       3067       3068       3079       3078  
      2947       2948       2959       2958       3068       3069       3080       3079  
      2949       2950       2961       2960       3070       3071       3082       3081  
      2950       2951       2962       2961       3071       3072       3083       3082  
      2951       2952       2963       2962       3072       3073       3084       3083  
      2952       2953       2964       2963       3073       3074       3085       3084  
      2953       2954       2965       2964       3074       3075       3086       3085  
      2954       2955       2966       2965       3075       3076       3087       3086  
      2955       2956       2967       2966       3076       3077       3088       3087  
      2956       2957       2968       2967       3077       3078       3089       3088  
      2957       2958       2969       2968       3078       3079       3090       3089  
      2958       2959       2970       2969       3079       3080       3091       3090  
      2960       2961       2972       2971       3081       3082       3093       3092  
      2961       2962       2973       2972       3082       3083       3094       3093  
      2962       2963       2974       2973       3083       3084       3095       3094  
      2963       2964       2975       2974       3084       3085       3096       3095  
      2964       2965       2976       2975       3085       3086       3097       3096  
      2965       2966       2977       2976       3086       3087       3098       3097  
      2966       2967       2978       2977       3087       3088       3099       3098  
      2967       2968       2979       2978       3088       3089       3100       3099  
      2968       2969       2980       2979       3089       3090       3101       3100  
      2969       2970       2981       2980       3090       3091       3102       3101  
      2971       2972       2983       2982       3092       3093       3104       3103  
      2972       2973       2984       2983       3093       3094       3105       3104  
      2973       2974       2985       2984       3094       3095       3106       3105  
      2974       2975       2986       2985       3095       3096       3107       3106  
      2975       2976       2987       2986       3096       3097       3108       3107  
      2976       2977       2988       2987       3097       3098       3109       3108  
      2977       2978       2989       2988       3098       3099       3110       3109  
      2978       2979       2990       2989       3099       3100       3111       3110  
      2979       2980       2991       2990       3100       3101       3112       3111  
      2980       2981       2992       2991       3101       3102       3113       3112  
      2982       2983       2994       2993       3103       3104       3115       3114  
      2983       2984       2995       2994       3104       3105       3116       3115  
      2984       2985       2996       2995       3105       3106       3117       3116  
      2985       2986       2997       2996       3106       3107       3118       3117  
      2986       2987       2998       2997       3107       3108       3119       3118  
      2987       2988       2999       2998       3108       3109       3120       3119  
      2988       2989       3000       2999       3109       3110       3121       3120  
      2989       2990       3001       3000       3110       3111       3122       3121  
      2990       2991       3002       3001       3111       3112       3123       3122  
      2991       2992       3003       3002       3112       3113       3124       3123  
      2993       2994       3005       3004       3114       3115       3126       3125  
      2994       2995       3006       3005       3115       3116       3127       3126  
      2995       2996       3007       3006       3116       3117       3128       3127  
      2996       2997       3008       3007       3117       3118       3129       3128  
      2997       2998       3009       3008       3118       3119       3130       3129  
      2998       2999       3010       3009       3119       3120       3131       3130  
      2999       3000       3011       3010       3120       3121       3132       3131  
      3000       3001       3012       3011       3121       3122       3133       3132  
      3001       3002       3013       3012       3122       3123       3134       3133  
      3002       3003       3014       3013       3123       3124       3135       3134  
      3004       3005       3016       3015       3125       3126       3137       3136  
      3005       3006       3017       3016       3126       3127       3138       3137  
      3006       3007       3018       3017       3127       3128       3139       3138  
      3007       3008       3019       3018       3128       3129       3140       3139  
      3008       3009       3020       3019       3129       3130       3141       3140  
      3009       3010       3021       3020       3130       3131       3142       3141  
      3010       3011       3022       3021       3131       3132       3143       3142  
      3011       3012       3023       3022       3132       3133       3144       3143  
      3012       3013       3024       3023       3133       3134       3145       3144  
      3013       3014       3025       3024       3134       3135       3146       3145  
      3026       3027       3038       3037       3147       3148       3159       3158  
      3027       3028       3039       3038       3148       3149       3160       3159  
      3028       3029       3040       3039       3149       3150       3161       3160  
      3029       3030       3041       3040       3150       3151       3162       3161  
      3030       3031       3042       3041       3151       3152       3163       3162  
      3031       3032       3043       3042       3152       3153       3164       3163  
      3032       3033       3044       3043       3153       3154       3165       3164  
      3033       3034       3045       3044       3154       3155       3166       3165  
      3034       3035       3046       3045       3155       3156       3167       3166  
      3035       3036       3047       3046       3156       3157       3168       3167  
      3037       3038       3049       3048       3158       3159       3170       3169  
      3038       3039       3050       3049       3159       3160       3171       3170  
      3039       3040       3051       3050       3160       3161       3172       3171  
      3040       3041       3052       3051       3161       3162       3173       3172  
      3041       3042       3053       3052       3162       3163       3174       3173  
      3042       3043       3054       3053       3163       3164       3175       3174  
      3043       3044       3055       3054       3164       3165       3176       3175  
      3044       3045       3056       3055       3165       3166       3177       3176  
      3045       3046       3057       3056       3166       3167       3178       3177  
      3046       3047       3058       3057       3167       3168       3179       3178  
      3048       3049       3060       3059       3169       3170       3181       3180  
      3049       3050       3061       3060       3170       3171       3182       3181  
      3050       3051       3062       3061       3171       3172       3183       3182  
      3051       3052       3063       3062       3172       3173       3184       3183  
      3052       3053       3064       3063       3173       3174       3185       3184  
      3053       3054       3065       3064       3174       3175       3186       3185  
      3054       3055       3066       3065       3175       3176       3187       3186  
      3055       3056       3067       3066       3176       3177       3188       3187  
      3056       3057       3068       3067       3177       3178       3189       3188  
      3057       3058       3069       3068       3178       3179       3190       3189  
      3059       3060       3071       3070       3180       3181       3192       3191  
      3060       3061       3072       3071       3181       3182       3193       3192  
      3061       3062       3073       3072       3182       3183       3194       3193  
      3062       3063       3074       3073       3183       3184       3195       3194  
      3063       3064       3075       3074       3184       3185       3196       3195  
      3064       3065       3076       3075       3185       3186       3197       3196  
      3065       3066       3077       3076       3186       3187       3198       3197  
      3066       3067       3078       3077       3187       3188       3199       3198  
      3067       3068       3079       3078       3188       3189       3200       3199  
      3068       3069       3080       3079       3189       3190       3201       3200  
      3070       3071       3082       3081       3191       3192       3203       3202  
      3071       3072       3083       3082       3192       3193       3204       3203  
      3072       3073       3084       3083       3193       3194       3205       3204  
      3073       3074       3085       3084       3194       3195       3206       3205  
      3074       3075       3086       3085       3195       3196       3207       3206  
      3075       3076       3087       3086       3196       3197       3208       3207  
      3076       3077       3088       3087       3197       3198       3209       3208  
      3077       3078       3089       3088       3198       3199       3210       3209  
      3078       3079       3090       3089       3199       3200       3211       3210  
      3079       3080       3091       3090       3200       3201       3212       3211  
      3081       3082       3093       3092       3202       3203       3214       3213  
      3082       3083       3094       3093       3203       3204       3215       3214  
      3083       3084       3095       3094       3204       3205       3216       3215  
      3084       3085       3096       3095       3205       3206       3217       3216  
      3085       3086       3097       3096       3206       3207       3218       3217  
      3086       3087       3098       3097       3207       3208       3219       3218  
      3087       3088       3099       3098       3208       3209       3220       3219  
      3088       3089       3100       3099       3209       3210       3221       3220  
      3089       3090       3101       3100       3210       3211       3222       3221  
      3090       3091       3102       3101       3211       3212       3223       3222  
      3092       3093       3104       3103       3213       3214       3225       3224  
      3093       3094       3105       3104       3214       3215       3226       3225  
      3094       3095       3106       3105       3215       3216       3227       3226  
      3095       3096       3107       3106       3216       3217       3228       3227  
      3096       3097       3108       3107       3217       3218       3229       3228  
      3097       3098       3109       3108       3218       3219       3230       3229  
      3098       3099       3110       3109       3219       3220       3231       3230  
      3099       3100       3111       3110       3220       3221       3232       3231  
      3100       3101       3112       3111       3221       3222       3233       3232  
      3101       3102       3113       3112       3222       3223       3234       3233  
      3103       3104       3115       3114       3224       3225       3236       3235  
      3104       3105       3116       3115       3225       3226       3237       3236  
      3105       3106       3117       3116       3226       3227       3238       3237  
      3106       3107       3118       3117       3227       3228       3239       3238  
      3107       3108       3119       3118       3228       3229       3240       3239  
      3108       3109       3120       3119       3229       3230       3241       3240  
      3109       3110       3121       3120       3230       3231       3242       3241  
      3110       3111       3122       3121       3231       3232       3243       3242  
      3111       3112       3123       3122       3232       3233       3244       3243  
      3112       3113       3124       3123       3233       3234       3245       3244  
      3114       3115       3126       3125       3235       3236       3247       3246  
      3115       3116       3127       3126       3236       3237       3248       3247  
      3116       3117       3128       3127       3237       3238       3249       3248  
      3117       3118       3129       3128       3238       3239       3250       3249  
      3118       3119       3130       3129       3239       3240       3251       3250  
      3119       3120       3131       3130       3240       3241       3252       3251  
      3120       3121       3132       3131       3241       3242       3253       3252  
      3121       3122       3133       3132       3242       3243       3254       3253  
      3122       3123       3134       3133       3243       3244       3255       3254  
      3123       3124       3135       3134       3244       3245       3256       3255  
      3125       3126       3137       3136       3246       3247       3258       3257  
      3126       3127       3138       3137       3247       3248       3259       3258  
      3127       3128       3139       3138       3248       3249       3260       3259  
      3128       3129       3140       3139       3249       3250       3261       3260  
      3129       3130       3141       3140       3250       3251       3262       3261  
      3130       3131       3142       3141       3251       3252       3263       3262  
      3131       3132       3143       3142       3252       3253       3264       3263  
      3132       3133       3144       3143       3253       3254       3265       3264  
      3133       3134       3145       3144       3254       3255       3266       3265  
      3134       3135       3146       3145       3255       3256       3267       3266  
      3147       3148       3159       3158       3268       3269       3280       3279  
      3148       3149       3160       3159       3269       3270       3281       3280  
      3149       3150       3161       3160       3270       3271       3282       3281  
      3150       3151       3162       3161       3271       3272       3283       3282  
      3151       3152       3163       3162       3272       3273       3284       3283  
      3152       3153       3164       3163       3273       3274       3285       3284  
      3153       3154       3165       3164       3274       3275       3286       3285  
      3154       3155       3166       3165       3275       3276       3287       3286  
      3155       3156       3167       3166       3276       3277       3288       3287  
      3156       3157       3168       3167       3277       3278       3289       3288  
      3158       3159       3170       3169       3279       3280       3291       3290  
      3159       3160       3171       3170       3280       3281       3292       3291  
      3160       3161       3172       3171       3281       3282       3293       3292  
      3161       3162       3173       3172       3282       3283       3294       3293  
      3162       3163       3174       3173       3283       3284       3295       3294  
      3163       3164       3175       3174       3284       3285       3296       3295  
      3164       3165       3176       3175       3285       3286       3297       3296  
      3165       3166       3177       3176       3286       3287       3298       3297  
      3166       3167       3178       3177       3287       3288       3299       3298  
      3167       3168       3179       3178       3288       3289       3300       3299  
      3169       3170       3181       3180       3290       3291       3302       3301  
      3170       3171       3182       3181       3291       3292       3303       3302  
      3171       3172       3183       3182       3292       3293       3304       3303  
      3172       3173       3184       3183       3293       3294       3305       3304  
      3173       3174       3185       3184       3294       3295       3306       3305  
      3174       3175       3186       3185       3295       3296       3307       3306  
      3175       3176       3187       3186       3296       3297       3308       3307  
      3176       3177       3188       3187       3297       3298       3309       3308  
      3177       3178       3189       3188       3298       3299       3310       3309  
      3178       3179       3190       3189       3299       3300       3311       3310  
      3180       3181       3192       3191       3301       3302       3313       3312  
      3181       3182       3193       3192       3302       3303       3314       3313  
      3182       3183       3194       3193       3303       3304       3315       3314  
      3183       3184       3195       3194       3304       3305       3316       3315  
      3184       3185       3196       3195       3305       3306       3317       3316  
      3185       3186       3197       3196       3306       3307       3318       3317  
      3186       3187       3198       3197       3307       3308       3319       3318  
      3187       3188       3199       3198       3308       3309       3320       3319  
      3188       3189       3200       3199       3309       3310       3321       3320  
      3189       3190       3201       3200       3310       3311       3322       3321  
      3191       3192       3203       3202       3312       3313       3324       3323  
      3192       3193       3204       3203       3313       3314       3325       3324  
      3193       3194       3205       3204       3314       3315       3326       3325  
      3194       3195       3206       3205       3315       3316       3327       3326  
      3195       3196       3207       3206       3316       3317       3328       3327  
      3196       3197       3208       3207       3317       3318       3329       3328  
      3197       3198       3209       3208       3318       3319       3330       3329  
      3198       3199       3210       3209       3319       3320       3331       3330  
      3199       3200       3211       3210       3320       3321       3332       3331  
      3200       3201       3212       3211       3321       3322       3333       3332  
      3202       3203       3214       3213       3323       3324       3335       3334  
      3203       3204       3215       3214       3324       3325       3336       3335  
      3204       3205       3216       3215       3325       3326       3337       3336  
      3205       3206       3217       3216       3326       3327       3338       3337  
      3206       3207       3218       3217       3327       3328       3339       3338  
      3207       3208       3219       3218       3328       3329       3340       3339  
      3208       3209       3220       3219       3329       3330       3341       3340  
      3209       3210       3221       3220       3330       3331       3342       3341  
      3210       3211       3222       3221       3331       3332       3343       3342  
      3211       3212       3223       3222       3332       3333       3344       3343  
      3213       3214       3225       3224       3334       3335       3346       3345  
      3214       3215       3226       3225       3335       3336       3347       3346  
      3215       3216       3227       3226       3336       3337       3348       3347  
      3216       3217       3228       3227       3337       3338       3349       3348  
      3217       3218       3229       3228       3338       3339       3350       3349  
      3218       3219       3230       3229       3339       3340       3351       3350  
      3219       3220       3231       3230       3340       3341       3352       3351  
      3220       3221       3232       3231       3341       3342       3353       3352  
      3221       3222       3233       3232       3342       3343       3354       3353  
      3222       3223       3234       3233       3343       3344       3355       3354  
      3224       3225       3236       3235       3345       3346       3357       3356  
      3225       3226       3237       3236       3346       3347       3358       3357  
      3226       3227       3238       3237       3347       3348       3359       3358  
      3227       3228       3239       3238       3348       3349       3360       3359  
      3228       3229       3240       3239       3349       3350       3361       3360  
      3229       3230       3241       3240       3350       3351       3362       3361  
      3230       3231       3242       3241       3351       3352       3363       3362  
      3231       3232       3243       3242       3352       3353       3364       3363  
      3232       3233       3244       3243       3353       3354       3365       3364  
      3233       3234       3245       3244       3354       3355       3366       3365  
      3235       3236       3247       3246       3356       3357       3368       3367  
      3236       3237       3248       3247       3357       3358       3369       3368  
      3237       3238       3249       3248       3358       3359       3370       3369  
      3238       3239       3250       3249       3359       3360       3371       3370  
      3239       3240       3251       3250       3360       3361       3372       3371  
      3240       3241       3252       3251       3361       3362       3373       3372  
      3241       3242       3253       3252       3362       3363       3374       3373  
      3242       3243       3254       3253       3363       3364       3375       3374  
      3243       3244       3255       3254       3364       3365       3376       3375  
      3244       3245       3256       3255       3365       3366       3377       3376  
      3246       3247       3258       3257       3367       3368       3379       3378  
      3247       3248       3259       3258       3368       3369       3380       3379  
      3248       3249       3260       3259       3369       3370       3381       3380  
      3249       3250       3261       3260       3370       3371       3382       3381  
      3250       3251       3262       3261       3371       3372       3383       3382  
      3251       3252       3263       3262       3372       3373       3384       3383  
      3252       3253       3264       3263       3373       3374       3385       3384  
      3253       3254       3265       3264       3374       3375       3386       3385  
      3254       3255       3266       3265       3375       3376       3387       3386  
      3255       3256       3267       3266       3376       3377       3388       3387  
      3268       3269       3280       3279       3389       3390       3401       3400  
      3269       3270       3281       3280       3390       3391       3402       3401  
      3270       3271       3282       3281       3391       3392       3403       3402  
      3271       3272       3283       3282       3392       3393       3404       3403  
      3272       3273       3284       3283       3393       3394       3405       3404  
      3273       3274       3285       3284       3394       3395       3406       3405  
      3274       3275       3286       3285       3395       3396       3407       3406  
      3275       3276       3287       3286       3396       3397       3408       3407  
      3276       3277       3288       3287       3397       3398       3409       3408  
      3277       3278       3289       3288       3398       3399       3410       3409  
      3279       3280       3291       3290       3400       3401       3412       3411  
      3280       3281       3292       3291       3401       3402       3413       3412  
      3281       3282       3293       3292       3402       3403       3414       3413  
      3282       3283       3294       3293       3403       3404       3415       3414  
      3283       3284       3295       3294       3404       3405       3416       3415  
      3284       3285       3296       3295       3405       3406       3417       3416  
      3285       3286       3297       3296       3406       3407       3418       3417  
      3286       3287       3298       3297       3407       3408       3419       3418  
      3287       3288       3299       3298       3408       3409       3420       3419  
      3288       3289       3300       3299       3409       3410       3421       3420  
      3290       3291       3302       3301       3411       3412       3423       3422  
      3291       3292       3303       3302       3412       3413       3424       3423  
      3292       3293       3304       3303       3413       3414       3425       3424  
      3293       3294       3305       3304       3414       3415       3426       3425  
      3294       3295       3306       3305       3415       3416       3427       3426  
      3295       3296       3307       3306       3416       3417       3428       3427  
      3296       3297       3308       3307       3417       3418       3429       3428  
      3297       3298       3309       3308       3418       3419       3430       3429  
      3298       3299       3310       3309       3419       3420       3431       3430  
      3299       3300       3311       3310       3420       3421       3432       3431  
      3301       3302       3313       3312       3422       3423       3434       3433  
      3302       3303       3314       3313       3423       3424       3435       3434  
      3303       3304       3315       3314       3424       3425       3436       3435  
      3304       3305       3316       3315       3425       3426       3437       3436  
      3305       3306       3317       3316       3426       3427       3438       3437  
      3306       3307       3318       3317       3427       3428       3439       3438  
      3307       3308       3319       3318       3428       3429       3440       3439  
      3308       3309       3320       3319       3429       3430       3441       3440  
      3309       3310       3321       3320       3430       3431       3442       3441  
      3310       3311       3322       3321       3431       3432       3443       3442  
      3312       3313       3324       3323       3433       3434       3445       3444  
      3313       3314       3325       3324       3434       3435       3446       3445  
      3314       3315       3326       3325       3435       3436       3447       3446  
      3315       3316       3327       3326       3436       3437       3448       3447  
      3316       3317       3328       3327       3437       3438       3449       3448  
      3317       3318       3329       3328       3438       3439       3450       3449  
      3318       3319       3330       3329       3439       3440       3451       3450  
      3319       3320       3331       3330       3440       3441       3452       3451  
      3320       3321       3332       3331       3441       3442       3453       3452  
      3321       3322       3333       3332       3442       3443       3454       3453  
      3323       3324       3335       3334       3444       3445       3456       3455  
      3324       3325       3336       3335       3445       3446       3457       3456  
      3325       3326       3337       3336       3446       3447       3458       3457  
      3326       3327       3338       3337       3447       3448       3459       3458  
      3327       3328       3339       3338       3448       3449       3460       3459  
      3328       3329       3340       3339       3449       3450       3461       3460  
      3329       3330       3341       3340       3450       3451       3462       3461  
      3330       3331       3342       3341       3451       3452       3463       3462  
      3331       3332       3343       3342       3452       3453       3464       3463  
      3332       3333       3344       3343       3453       3454       3465       3464  
      3334       3335       3346       3345       3455       3456       3467       3466  
      3335       3336       3347       3346       3456       3457       3468       3467  
      3336       3337       3348       3347       3457       3458       3469       3468  
      3337       3338       3349       3348       3458       3459       3470       3469  
      3338       3339       3350       3349       3459       3460       3471       3470  
      3339       3340       3351       3350       3460       3461       3472       3471  
      3340       3341       3352       3351       3461       3462       3473       3472  
      3341       3342       3353       3352       3462       3463       3474       3473  
      3342       3343       3354       3353       3463       3464       3475       3474  
      3343       3344       3355       3354       3464       3465       3476       3475  
      3345       3346       3357       3356       3466       3467       3478       3477  
      3346       3347       3358       3357       3467       3468       3479       3478  
      3347       3348       3359       3358       3468       3469       3480       3479  
      3348       3349       3360       3359       3469       3470       3481       3480  
      3349       3350       3361       3360       3470       3471       3482       3481  
      3350       3351       3362       3361       3471       3472       3483       3482  
      3351       3352       3363       3362       3472       3473       3484       3483  
      3352       3353       3364       3363       3473       3474       3485       3484  
      3353       3354       3365       3364       3474       3475       3486       3485  
      3354       3355       3366       3365       3475       3476       3487       3486  
      3356       3357       3368       3367       3477       3478       3489       3488  
      3357       3358       3369       3368       3478       3479       3490       3489  
      3358       3359       3370       3369       3479       3480       3491       3490  
      3359       3360       3371       3370       3480       3481       3492       3491  
      3360       3361       3372       3371       3481       3482       3493       3492  
      3361       3362       3373       3372       3482       3483       3494       3493  
      3362       3363       3374       3373       3483       3484       3495       3494  
      3363       3364       3375       3374       3484       3485       3496       3495  
      3364       3365       3376       3375       3485       3486       3497       3496  
      3365       3366       3377       3376       3486       3487       3498       3497  
      3367       3368       3379       3378       3488       3489       3500       3499  
      3368       3369       3380       3379       3489       3490       3501       3500  
      3369       3370       3381       3380       3490       3491       3502       3501  
      3370       3371       3382       3381       3491       3492       3503       3502  
      3371       3372       3383       3382       3492       3493       3504       3503  
      3372       3373       3384       3383       3493       3494       3505       3504  
      3373       3374       3385       3384       3494       3495       3506       3505  
      3374       3375       3386       3385       3495       3496       3507       3506  
      3375       3376       3387       3386       3496       3497       3508       3507  
      3376       3377       3388       3387       3497       3498       3509       3508  
      3389       3390       3401       3400       3510       3511       3522       3521  
      3390       3391       3402       3401       3511       3512       3523       3522  
      3391       3392       3403       3402       3512       3513       3524       3523  
      3392       3393       3404       3403       3513       3514       3525       3524  
      3393       3394       3405       3404       3514       3515       3526       3525  
      3394       3395       3406       3405       3515       3516       3527       3526  
      3395       3396       3407       3406       3516       3517       3528       3527  
      3396       3397       3408       3407       3517       3518       3529       3528  
      3397       3398       3409       3408       3518       3519       3530       3529  
      3398       3399       3410       3409       3519       3520       3531       3530  
      3400       3401       3412       3411       3521       3522       3533       3532  
      3401       3402       3413       3412       3522       3523       3534       3533  
      3402       3403       3414       3413       3523       3524       3535       3534  
      3403       3404       3415       3414       3524       3525       3536       3535  
      3404       3405       3416       3415       3525       3526       3537       3536  
      3405       3406       3417       3416       3526       3527       3538       3537  
      3406       3407       3418       3417       3527       3528       3539       3538  
      3407       3408       3419       3418       3528       3529       3540       3539  
      3408       3409       3420       3419       3529       3530       3541       3540  
      3409       3410       3421       3420       3530       3531       3542       3541  
      3411       3412       3423       3422       3532       3533       3544       3543  
      3412       3413       3424       3423       3533       3534       3545       3544  
      3413       3414       3425       3424       3534       3535       3546       3545  
      3414       3415       3426       3425       3535       3536       3547       3546  
      3415       3416       3427       3426       3536       3537       3548       3547  
      3416       3417       3428       3427       3537       3538       3549       3548  
      3417       3418       3429       3428       3538       3539       3550       3549  
      3418       3419       3430       3429       3539       3540       3551       3550  
      3419       3420       3431       3430       3540       3541       3552       3551  
      3420       3421       3432       3431       3541       3542       3553       3552  
      3422       3423       3434       3433       3543       3544       3555       3554  
      3423       3424       3435       3434       3544       3545       3556       3555  
      3424       3425       3436       3435       3545       3546       3557       3556  
      3425       3426       3437       3436       3546       3547       3558       3557  
      3426       3427       3438       3437       3547       3548       3559       3558  
      3427       3428       3439       3438       3548       3549       3560       3559  
      3428       3429       3440       3439       3549       3550       3561       3560  
      3429       3430       3441       3440       3550       3551       3562       3561  
      3430       3431       3442       3441       3551       3552       3563       3562  
      3431       3432       3443       3442       3552       3553       3564       3563  
      3433       3434       3445       3444       3554       3555       3566       3565  
      3434       3435       3446       3445       3555       3556       3567       3566  
      3435       3436       3447       3446       3556       3557       3568       3567  
      3436       3437       3448       3447       3557       3558       3569       3568  
      3437       3438       3449       3448       3558       3559       3570       3569  
      3438       3439       3450       3449       3559       3560       3571       3570  
      3439       3440       3451       3450       3560       3561       3572       3571  
      3440       3441       3452       3451       3561       3562       3573       3572  
      3441       3442       3453       3452       3562       3563       3574       3573  
      3442       3443       3454       3453       3563       3564       3575       3574  
      3444       3445       3456       3455       3565       3566       3577       3576  
      3445       3446       3457       3456       3566       3567       3578       3577  
      3446       3447       3458       3457       3567       3568       3579       3578  
      3447       3448       3459       3458       3568       3569       3580       3579  
      3448       3449       3460       3459       3569       3570       3581       3580  
      3449       3450       3461       3460       3570       3571       3582       3581  
      3450       3451       3462       3461       3571       3572       3583       3582  
      3451       3452       3463       3462       3572       3573       3584       3583  
      3452       3453       3464       3463       3573       3574       3585       3584  
      3453       3454       3465       3464       3574       3575       3586       3585  
      3455       3456       3467       3466       3576       3577       3588       3587  
      3456       3457       3468       3467       3577       3578       3589       3588  
      3457       3458       3469       3468       3578       3579       3590       3589  
      3458       3459       3470       3469       3579       3580       3591       3590  
      3459       3460       3471       3470       3580       3581       3592       3591  
      3460       3461       3472       3471       3581       3582       3593       3592  
      3461       3462       3473       3472       3582       3583       3594       3593  
      3462       3463       3474       3473       3583       3584       3595       3594  
      3463       3464       3475       3474       3584       3585       3596       3595  
      3464       3465       3476       3475       3585       3586       3597       3596  
      3466       3467       3478       3477       3587       3588       3599       3598  
      3467       3468       3479       3478       3588       3589       3600       3599  
      3468       3469       3480       3479       3589       3590       3601       3600  
      3469       3470       3481       3480       3590       3591       3602       3601  
      3470       3471       3482       3481       3591       3592       3603       3602  
      3471       3472       3483       3482       3592       3593       3604       3603  
      3472       3473       3484       3483       3593       3594       3605       3604  
      3473       3474       3485       3484       3594       3595       3606       3605  
      3474       3475       3486       3485       3595       3596       3607       3606  
      3475       3476       3487       3486       3596       3597       3608       3607  
      3477       3478       3489       3488       3598       3599       3610       3609  
      3478       3479       3490       3489       3599       3600       3611       3610  
      3479       3480       3491       3490       3600       3601       3612       3611  
      3480       3481       3492       3491       3601       3602       3613       3612  
      3481       3482       3493       3492       3602       3603       3614       3613  
      3482       3483       3494       3493       3603       3604       3615       3614  
      3483       3484       3495       3494       3604       3605       3616       3615  
      3484       3485       3496       3495       3605       3606       3617       3616  
      3485       3486       3497       3496       3606       3607       3618       3617  
      3486       3487       3498       3497       3607       3608       3619       3618  
      3488       3489       3500       3499       3609       3610       3621       3620  
      3489       3490       3501       3500       3610       3611       3622       3621  
      3490       3491       3502       3501       3611       3612       3623       3622  
      3491       3492       3503       3502       3612       3613       3624       3623  
      3492       3493       3504       3503       3613       3614       3625       3624  
      3493       3494       3505       3504       3614       3615       3626       3625  
      3494       3495       3506       3505       3615       3616       3627       3626  
      3495       3496       3507       3506       3616       3617       3628       3627  
      3496       3497       3508       3507       3617       3618       3629       3628  
      3497       3498       3509       3508       3618       3619       3630       3629  
      3510       3511       3522       3521       3631       3632       3643       3642  
      3511       3512       3523       3522       3632       3633       3644       3643  
      3512       3513       3524       3523       3633       3634       3645       3644  
      3513       3514       3525       3524       3634       3635       3646       3645  
      3514       3515       3526       3525       3635       3636       3647       3646  
      3515       3516       3527       3526       3636       3637       3648       3647  
      3516       3517       3528       3527       3637       3638       3649       3648  
      3517       3518       3529       3528       3638       3639       3650       3649  
      3518       3519       3530       3529       3639       3640       3651       3650  
      3519       3520       3531       3530       3640       3641       3652       3651  
      3521       3522       3533       3532       3642       3643       3654       3653  
      3522       3523       3534       3533       3643       3644       3655       3654  
      3523       3524       3535       3534       3644       3645       3656       3655  
      3524       3525       3536       3535       3645       3646       3657       3656  
      3525       3526       3537       3536       3646       3647       3658       3657  
      3526       3527       3538       3537       3647       3648       3659       3658  
      3527       3528       3539       3538       3648       3649       3660       3659  
      3528       3529       3540       3539       3649       3650       3661       3660  
      3529       3530       3541       3540       3650       3651       3662       3661  
      3530       3531       3542       3541       3651       3652       3663       3662  
      3532       3533       3544       3543       3653       3654       3665       3664  
      3533       3534       3545       3544       3654       3655       3666       3665  
      3534       3535       3546       3545       3655       3656       3667       3666  
      3535       3536       3547       3546       3656       3657       3668       3667  
      3536       3537       3548       3547       3657       3658       3669       3668  
      3537       3538       3549       3548       3658       3659       3670       3669  
      3538       3539       3550       3549       3659       3660       3671       3670  
      3539       3540       3551       3550       3660       3661       3672       3671  
      3540       3541       3552       3551       3661       3662       3673       3672  
      3541       3542       3553       3552       3662       3663       3674       3673  
      3543       3544       3555       3554       3664       3665       3676       3675  
      3544       3545       3556       3555       3665       3666       3677       3676  
      3545       3546       3557       3556       3666       3667       3678       3677  
      3546       3547       3558       3557       3667       3668       3679       3678  
      3547       3548       3559       3558       3668       3669       3680       3679  
      3548       3549       3560       3559       3669       3670       3681       3680  
      3549       3550       3561       3560       3670       3671       3682       3681  
      3550       3551       3562       3561       3671       3672       3683       3682  
      3551       3552       3563       3562       3672       3673       3684       3683  
      3552       3553       3564       3563       3673       3674       3685       3684  
      3554       3555       3566       3565       3675       3676       3687       3686  
      3555       3556       3567       3566       3676       3677       3688       3687  
      3556       3557       3568       3567       3677       3678       3689       3688  
      3557       3558       3569       3568       3678       3679       3690       3689  
      3558       3559       3570       3569       3679       3680       3691       3690  
      3559       3560       3571       3570       3680       3681       3692       3691  
      3560       3561       3572       3571       3681       3682       3693       3692  
      3561       3562       3573       3572       3682       3683       3694       3693  
      3562       3563       3574       3573       3683       3684       3695       3694  
      3563       3564       3575       3574       3684       3685       3696       3695  
      3565       3566       3577       3576       3686       3687       3698       3697  
      3566       3567       3578       3577       3687       3688       3699       3698  
      3567       3568       3579       3578       3688       3689       3700       3699  
      3568       3569       3580       3579       3689       3690       3701       3700  
      3569       3570       3581       3580       3690       3691       3702       3701  
      3570       3571       3582       3581       3691       3692       3703       3702  
      3571       3572       3583       3582       3692       3693       3704       3703  
      3572       3573       3584       3583       3693       3694       3705       3704  
      3573       3574       3585       3584       3694       3695       3706       3705  
      3574       3575       3586       3585       3695       3696       3707       3706  
      3576       3577       3588       3587       3697       3698       3709       3708  
      3577       3578       3589       3588       3698       3699       3710       3709  
      3578       3579       3590       3589       3699       3700       3711       3710  
      3579       3580       3591       3590       3700       3701       3712       3711  
      3580       3581       3592       3591       3701       3702       3713       3712  
      3581       3582       3593       3592       3702       3703       3714       3713  
      3582       3583       3594       3593       3703       3704       3715       3714  
      3583       3584       3595       3594       3704       3705       3716       3715  
      3584       3585       3596       3595       3705       3706       3717       3716  
      3585       3586       3597       3596       3706       3707       3718       3717  
      3587       3588       3599       3598       3708       3709       3720       3719  
      3588       3589       3600       3599       3709       3710       3721       3720  
      3589       3590       3601       3600       3710       3711       3722       3721  
      3590       3591       3602       3601       3711       3712       3723       3722  
      3591       3592       3603       3602       3712       3713       3724       3723  
      3592       3593       3604       3603       3713       3714       3725       3724  
      3593       3594       3605       3604       3714       3715       3726       3725  
      3594       3595       3606       3605       3715       3716       3727       3726  
      3595       3596       3607       3606       3716       3717       3728       3727  
      3596       3597       3608       3607       3717       3718       3729       3728  
      3598       3599       3610       3609       3719       3720       3731       3730  
      3599       3600       3611       3610       3720       3721       3732       3731  
      3600       3601       3612       3611       3721       3722       3733       3732  
      3601       3602       3613       3612       3722       3723       3734       3733  
      3602       3603       3614       3613       3723       3724       3735       3734  
      3603       3604       3615       3614       3724       3725       3736       3735  
      3604       3605       3616       3615       3725       3726       3737       3736  
      3605       3606       3617       3616       3726       3727       3738       3737  
      3606       3607       3618       3617       3727       3728       3739       3738  
      3607       3608       3619       3618       3728       3729       3740       3739  
      3609       3610       3621       3620       3730       3731       3742       3741  
      3610       3611       3622       3621       3731       3732       3743       3742  
      3611       3612       3623       3622       3732       3733       3744       3743  
      3612       3613       3624       3623       3733       3734       3745       3744  
      3613       3614       3625       3624       3734       3735       3746       3745  
      3614       3615       3626       3625       3735       3736       3747       3746  
      3615       3616       3627       3626       3736       3737       3748       3747  
      3616       3617       3628       3627       3737       3738       3749       3748  
      3617       3618       3629       3628       3738       3739       3750       3749  
      3618       3619       3630       3629       3739       3740       3751       3750  
      3631       3632       3643       3642       3752       3753       3764       3763  
      3632       3633       3644       3643       3753       3754       3765       3764  
      3633       3634       3645       3644       3754       3755       3766       3765  
      3634       3635       3646       3645       3755       3756       3767       3766  
      3635       3636       3647       3646       3756       3757       3768       3767  
      3636       3637       3648       3647       3757       3758       3769       3768  
      3637       3638       3649       3648       3758       3759       3770       3769  
      3638       3639       3650       3649       3759       3760       3771       3770  
      3639       3640       3651       3650       3760       3761       3772       3771  
      3640       3641       3652       3651       3761       3762       3773       3772  
      3642       3643       3654       3653       3763       3764       3775       3774  
      3643       3644       3655       3654       3764       3765       3776       3775  
      3644       3645       3656       3655       3765       3766       3777       3776  
      3645       3646       3657       3656       3766       3767       3778       3777  
      3646       3647       3658       3657       3767       3768       3779       3778  
      3647       3648       3659       3658       3768       3769       3780       3779  
      3648       3649       3660       3659       3769       3770       3781       3780  
      3649       3650       3661       3660       3770       3771       3782       3781  
      3650       3651       3662       3661       3771       3772       3783       3782  
      3651       3652       3663       3662       3772       3773       3784       3783  
      3653       3654       3665       3664       3774       3775       3786       3785  
      3654       3655       3666       3665       3775       3776       3787       3786  
      3655       3656       3667       3666       3776       3777       3788       3787  
      3656       3657       3668       3667       3777       3778       3789       3788  
      3657       3658       3669       3668       3778       3779       3790       3789  
      3658       3659       3670       3669       3779       3780       3791       3790  
      3659       3660       3671       3670       3780       3781       3792       3791  
      3660       3661       3672       3671       3781       3782       3793       3792  
      3661       3662       3673       3672       3782       3783       3794       3793  
      3662       3663       3674       3673       3783       3784       3795       3794  
      3664       3665       3676       3675       3785       3786       3797       3796  
      3665       3666       3677       3676       3786       3787       3798       3797  
      3666       3667       3678       3677       3787       3788       3799       3798  
      3667       3668       3679       3678       3788       3789       3800       3799  
      3668       3669       3680       3679       3789       3790       3801       3800  
      3669       3670       3681       3680       3790       3791       3802       3801  
      3670       3671       3682       3681       3791       3792       3803       3802  
      3671       3672       3683       3682       3792       3793       3804       3803  
      3672       3673       3684       3683       3793       3794       3805       3804  
      3673       3674       3685       3684       3794       3795       3806       3805  
      3675       3676       3687       3686       3796       3797       3808       3807  
      3676       3677       3688       3687       3797       3798       3809       3808  
      3677       3678       3689       3688       3798       3799       3810       3809  
      3678       3679       3690       3689       3799       3800       3811       3810  
      3679       3680       3691       3690       3800       3801       3812       3811  
      3680       3681       3692       3691       3801       3802       3813       3812  
      3681       3682       3693       3692       3802       3803       3814       3813  
      3682       3683       3694       3693       3803       3804       3815       3814  
      3683       3684       3695       3694       3804       3805       3816       3815  
      3684       3685       3696       3695       3805       3806       3817       3816  
      3686       3687       3698       3697       3807       3808       3819       3818  
      3687       3688       3699       3698       3808       3809       3820       3819  
      3688       3689       3700       3699       3809       3810       3821       3820  
      3689       3690       3701       3700       3810       3811       3822       3821  
      3690       3691       3702       3701       3811       3812       3823       3822  
      3691       3692       3703       3702       3812       3813       3824       3823  
      3692       3693       3704       3703       3813       3814       3825       3824  
      3693       3694       3705       3704       3814       3815       3826       3825  
      3694       3695       3706       3705       3815       3816       3827       3826  
      3695       3696       3707       3706       3816       3817       3828       3827  
      3697       3698       3709       3708       3818       3819       3830       3829  
      3698       3699       3710       3709       3819       3820       3831       3830  
      3699       3700       3711       3710       3820       3821       3832       3831  
      3700       3701       3712       3711       3821       3822       3833       3832  
      3701       3702       3713       3712       3822       3823       3834       3833  
      3702       3703       3714       3713       3823       3824       3835       3834  
      3703       3704       3715       3714       3824       3825       3836       3835  
      3704       3705       3716       3715       3825       3826       3837       3836  
      3705       3706       3717       3716       3826       3827       3838       3837  
      3706       3707       3718       3717       3827       3828       3839       3838  
      3708       3709       3720       3719       3829       3830       3841       3840  
      3709       3710       3721       3720       3830       3831       3842       3841  
      3710       3711       3722       3721       3831       3832       3843       3842  
      3711       3712       3723       3722       3832       3833       3844       3843  
      3712       3713       3724       3723       3833       3834       3845       3844  
      3713       3714       3725       3724       3834       3835       3846       3845  
      3714       3715       3726       3725       3835       3836       3847       3846  
      3715       3716       3727       3726       3836       3837       3848       3847  
      3716       3717       3728       3727       3837       3838       3849       3848  
      3717       3718       3729       3728       3838       3839       3850       3849  
      3719       3720       3731       3730       3840       3841       3852       3851  
      3720       3721       3732       3731       3841       3842       3853       3852  
      3721       3722       3733       3732       3842       3843       3854       3853  
      3722       3723       3734       3733       3843       3844       3855       3854  
      3723       3724       3735       3734       3844       3845       3856       3855  
      3724       3725       3736       3735       3845       3846       3857       3856  
      3725       3726       3737       3736       3846       3847       3858       3857  
      3726       3727       3738       3737       3847       3848       3859       3858  
      3727       3728       3739       3738       3848       3849       3860       3859  
      3728       3729       3740       3739       3849       3850       3861       3860  
      3730       3731       3742       3741       3851       3852       3863       3862  
      3731       3732       3743       3742       3852       3853       3864       3863  
      3732       3733       3744       3743       3853       3854       3865       3864  
      3733       3734       3745       3744       3854       3855       3866       3865  
      3734       3735       3746       3745       3855       3856       3867       3866  
      3735       3736       3747       3746       3856       3857       3868       3867  
      3736       3737       3748       3747       3857       3858       3869       3868  
      3737       3738       3749       3748       3858       3859       3870       3869  
      3738       3739       3750       3749       3859       3860       3871       3870  
      3739       3740       3751       3750       3860       3861       3872       3871  
      3752       3753       3764       3763       3873       3874       3885       3884  
      3753       3754       3765       3764       3874       3875       3886       3885  
      3754       3755       3766       3765       3875       3876       3887       3886  
      3755       3756       3767       3766       3876       3877       3888       3887  
      3756       3757       3768       3767       3877       3878       3889       3888  
      3757       3758       3769       3768       3878       3879       3890       3889  
      3758       3759       3770       3769       3879       3880       3891       3890  
      3759       3760       3771       3770       3880       3881       3892       3891  
      3760       3761       3772       3771       3881       3882       3893       3892  
      3761       3762       3773       3772       3882       3883       3894       3893  
      3763       3764       3775       3774       3884       3885       3896       3895  
      3764       3765       3776       3775       3885       3886       3897       3896  
      3765       3766       3777       3776       3886       3887       3898       3897  
      3766       3767       3778       3777       3887       3888       3899       3898  
      3767       3768       3779       3778       3888       3889       3900       3899  
      3768       3769       3780       3779       3889       3890       3901       3900  
      3769       3770       3781       3780       3890       3891       3902       3901  
      3770       3771       3782       3781       3891       3892       3903       3902  
      3771       3772       3783       3782       3892       3893       3904       3903  
      3772       3773       3784       3783       3893       3894       3905       3904  
      3774       3775       3786       3785       3895       3896       3907       3906  
      3775       3776       3787       3786       3896       3897       3908       3907  
      3776       3777       3788       3787       3897       3898       3909       3908  
      3777       3778       3789       3788       3898       3899       3910       3909  
      3778       3779       3790       3789       3899       3900       3911       3910  
      3779       3780       3791       3790       3900       3901       3912       3911  
      3780       3781       3792       3791       3901       3902       3913       3912  
      3781       3782       3793       3792       3902       3903       3914       3913  
      3782       3783       3794       3793       3903       3904       3915       3914  
      3783       3784       3795       3794       3904       3905       3916       3915  
      3785       3786       3797       3796       3906       3907       3918       3917  
      3786       3787       3798       3797       3907       3908       3919       3918  
      3787       3788       3799       3798       3908       3909       3920       3919  
      3788       3789       3800       3799       3909       3910       3921       3920  
      3789       3790       3801       3800       3910       3911       3922       3921  
      3790       3791       3802       3801       3911       3912       3923       3922  
      3791       3792       3803       3802       3912       3913       3924       3923  
      3792       3793       3804       3803       3913       3914       3925       3924  
      3793       3794       3805       3804       3914       3915       3926       3925  
      3794       3795       3806       3805       3915       3916       3927       3926  
      3796       3797       3808       3807       3917       3918       3929       3928  
      3797       3798       3809       3808       3918       3919       3930       3929  
      3798       3799       3810       3809       3919       3920       3931       3930  
      3799       3800       3811       3810       3920       3921       3932       3931  
      3800       3801       3812       3811       3921       3922       3933       3932  
      3801       3802       3813       3812       3922       3923       3934       3933  
      3802       3803       3814       3813       3923       3924       3935       3934  
      3803       3804       3815       3814       3924       3925       3936       3935  
      3804       3805       3816       3815       3925       3926       3937       3936  
      3805       3806       3817       3816       3926       3927       3938       3937  
      3807       3808       3819       3818       3928       3929       3940       3939  
      3808       3809       3820       3819       3929       3930       3941       3940  
      3809       3810       3821       3820       3930       3931       3942       3941  
      3810       3811       3822       3821       3931       3932       3943       3942  
      3811       3812       3823       3822       3932       3933       3944       3943  
      3812       3813       3824       3823       3933       3934       3945       3944  
      3813       3814       3825       3824       3934       3935       3946       3945  
      3814       3815       3826       3825       3935       3936       3947       3946  
      3815       3816       3827       3826       3936       3937       3948       3947  
      3816       3817       3828       3827       3937       3938       3949       3948  
      3818       3819       3830       3829       3939       3940       3951       3950  
      3819       3820       3831       3830       3940       3941       3952       3951  
      3820       3821       3832       3831       3941       3942       3953       3952  
      3821       3822       3833       3832       3942       3943       3954       3953  
      3822       3823       3834       3833       3943       3944       3955       3954  
      3823       3824       3835       3834       3944       3945       3956       3955  
      3824       3825       3836       3835       3945       3946       3957       3956  
      3825       3826       3837       3836       3946       3947       3958       3957  
      3826       3827       3838       3837       3947       3948       3959       3958  
      3827       3828       3839       3838       3948       3949       3960       3959  
      3829       3830       3841       3840       3950       3951       3962       3961  
      3830       3831       3842       3841       3951       3952       3963       3962  
      3831       3832       3843       3842       3952       3953       3964       3963  
      3832       3833       3844       3843       3953       3954       3965       3964  
      3833       3834       3845       3844       3954       3955       3966       3965  
      3834       3835       3846       3845       3955       3956       3967       3966  
      3835       3836       3847       3846       3956       3957       3968       3967  
      3836       3837       3848       3847       3957       3958       3969       3968  
      3837       3838       3849       3848       3958       3959       3970       3969  
      3838       3839       3850       3849       3959       3960       3971       3970  
      3840       3841       3852       3851       3961       3962       3973       3972  
      3841       3842       3853       3852       3962       3963       3974       3973  
      3842       3843       3854       3853       3963       3964       3975       3974  
      3843       3844       3855       3854       3964       3965       3976       3975  
      3844       3845       3856       3855       3965       3966       3977       3976  
      3845       3846       3857       3856       3966       3967       3978       3977  
      3846       3847       3858       3857       3967       3968       3979       3978  
      3847       3848       3859       3858       3968       3969       3980       3979  
      3848       3849       3860       3859       3969       3970       3981       3980  
      3849       3850       3861       3860       3970       3971       3982       3981  
      3851       3852       3863       3862       3972       3973       3984       3983  
      3852       3853       3864       3863       3973       3974       3985       3984  
      3853       3854       3865       3864       3974       3975       3986       3985  
      3854       3855       3866       3865       3975       3976       3987       3986  
      3855       3856       3867       3866       3976       3977       3988       3987  
      3856       3857       3868       3867       3977       3978       3989       3988  
      3857       3858       3869       3868       3978       3979       3990       3989  
      3858       3859       3870       3869       3979       3980       3991       3990  
      3859       3860       3871       3870       3980       3981       3992       3991  
      3860       3861       3872       3871       3981       3982       3993       3992  
      3873       3874       3885       3884       3994       3995       4006       4005  
      3874       3875       3886       3885       3995       3996       4007       4006  
      3875       3876       3887       3886       3996       3997       4008       4007  
      3876       3877       3888       3887       3997       3998       4009       4008  
      3877       3878       3889       3888       3998       3999       4010       4009  
      3878       3879       3890       3889       3999       4000       4011       4010  
      3879       3880       3891       3890       4000       4001       4012       4011  
      3880       3881       3892       3891       4001       4002       4013       4012  
      3881       3882       3893       3892       4002       4003       4014       4013  
      3882       3883       3894       3893       4003       4004       4015       4014  
      3884       3885       3896       3895       4005       4006       4017       4016  
      3885       3886       3897       3896       4006       4007       4018       4017  
      3886       3887       3898       3897       4007       4008       4019       4018  
      3887       3888       3899       3898       4008       4009       4020       4019  
      3888       3889       3900       3899       4009       4010       4021       4020  
      3889       3890       3901       3900       4010       4011       4022       4021  
      3890       3891       3902       3901       4011       4012       4023       4022  
      3891       3892       3903       3902       4012       4013       4024       4023  
      3892       3893       3904       3903       4013       4014       4025       4024  
      3893       3894       3905       3904       4014       4015       4026       4025  
      3895       3896       3907       3906       4016       4017       4028       4027  
      3896       3897       3908       3907       4017       4018       4029       4028  
      3897       3898       3909       3908       4018       4019       4030       4029  
      3898       3899       3910       3909       4019       4020       4031       4030  
      3899       3900       3911       3910       4020       4021       4032       4031  
      3900       3901       3912       3911       4021       4022       4033       4032  
      3901       3902       3913       3912       4022       4023       4034       4033  
      3902       3903       3914       3913       4023       4024       4035       4034  
      3903       3904       3915       3914       4024       4025       4036       4035  
      3904       3905       3916       3915       4025       4026       4037       4036  
      3906       3907       3918       3917       4027       4028       4039       4038  
      3907       3908       3919       3918       4028       4029       4040       4039  
      3908       3909       3920       3919       4029       4030       4041       4040  
      3909       3910       3921       3920       4030       4031       4042       4041  
      3910       3911       3922       3921       4031       4032       4043       4042  
      3911       3912       3923       3922       4032       4033       4044       4043  
      3912       3913       3924       3923       4033       4034       4045       4044  
      3913       3914       3925       3924       4034       4035       4046       4045  
      3914       3915       3926       3925       4035       4036       4047       4046  
      3915       3916       3927       3926       4036       4037       4048       4047  
      3917       3918       3929       3928       4038       4039       4050       4049  
      3918       3919       3930       3929       4039       4040       4051       4050  
      3919       3920       3931       3930       4040       4041       4052       4051  
      3920       3921       3932       3931       4041       4042       4053       4052  
      3921       3922       3933       3932       4042       4043       4054       4053  
      3922       3923       3934       3933       4043       4044       4055       4054  
      3923       3924       3935       3934       4044       4045       4056       4055  
      3924       3925       3936       3935       4045       4046       4057       4056  
      3925       3926       3937       3936       4046       4047       4058       4057  
      3926       3927       3938       3937       4047       4048       4059       4058  
      3928       3929       3940       3939       4049       4050       4061       4060  
      3929       3930       3941       3940       4050       4051       4062       4061  
      3930       3931       3942       3941       4051       4052       4063       4062  
      3931       3932       3943       3942       4052       4053       4064       4063  
      3932       3933       3944       3943       4053       4054       4065       4064  
      3933       3934       3945       3944       4054       4055       4066       4065  
      3934       3935       3946       3945       4055       4056       4067       4066  
      3935       3936       3947       3946       4056       4057       4068       4067  
      3936       3937       3948       3947       4057       4058       4069       4068  
      3937       3938       3949       3948       4058       4059       4070       4069  
      3939       3940       3951       3950       4060       4061       4072       4071  
      3940       3941       3952       3951       4061       4062       4073       4072  
      3941       3942       3953       3952       4062       4063       4074       4073  
      3942       3943       3954       3953       4063       4064       4075       4074  
      3943       3944       3955       3954       4064       4065       4076       4075  
      3944       3945       3956       3955       4065       4066       4077       4076  
      3945       3946       3957       3956       4066       4067       4078       4077  
      3946       3947       3958       3957       4067       4068       4079       4078  
      3947       3948       3959       3958       4068       4069       4080       4079  
      3948       3949       3960       3959       4069       4070       4081       4080  
      3950       3951       3962       3961       4071       4072       4083       4082  
      3951       3952       3963       3962       4072       4073       4084       4083  
      3952       3953       3964       3963       4073       4074       4085       4084  
      3953       3954       3965       3964       4074       4075       4086       4085  
      3954       3955       3966       3965       4075       4076       4087       4086  
      3955       3956       3967       3966       4076       4077       4088       4087  
      3956       3957       3968       3967       4077       4078       4089       4088  
      3957       3958       3969       3968       4078       4079       4090       4089  
      3958       3959       3970       3969       4079       4080       4091       4090  
      3959       3960       3971       3970       4080       4081       4092       4091  
      3961       3962       3973       3972       4082       4083       4094       4093  
      3962       3963       3974       3973       4083       4084       4095       4094  
      3963       3964       3975       3974       4084       4085       4096       4095  
      3964       3965       3976       3975       4085       4086       4097       4096  
      3965       3966       3977       3976       4086       4087       4098       4097  
      3966       3967       3978       3977       4087       4088       4099       4098  
      3967       3968       3979       3978       4088       4089       4100       4099  
      3968       3969       3980       3979       4089       4090       4101       4100  
      3969       3970       3981       3980       4090       4091       4102       4101  
      3970       3971       3982       3981       4091       4092       4103       4102  
      3972       3973       3984       3983       4093       4094       4105       4104  
      3973       3974       3985       3984       4094       4095       4106       4105  
      3974       3975       3986       3985       4095       4096       4107       4106  
      3975       3976       3987       3986       4096       4097       4108       4107  
      3976       3977       3988       3987       4097       4098       4109       4108  
      3977       3978       3989       3988       4098       4099       4110       4109  
      3978       3979       3990       3989       4099       4100       4111       4110  
      3979       3980       3991       3990       4100       4101       4112       4111  
      3980       3981       3992       3991       4101       4102       4113       4112  
      3981       3982       3993       3992       4102       4103       4114       4113  
      3994       3995       4006       4005       4115       4116       4127       4126  
      3995       3996       4007       4006       4116       4117       4128       4127  
      3996       3997       4008       4007       4117       4118       4129       4128  
      3997       3998       4009       4008       4118       4119       4130       4129  
      3998       3999       4010       4009       4119       4120       4131       4130  
      3999       4000       4011       4010       4120       4121       4132       4131  
      4000       4001       4012       4011       4121       4122       4133       4132  
      4001       4002       4013       4012       4122       4123       4134       4133  
      4002       4003       4014       4013       4123       4124       4135       4134  
      4003       4004       4015       4014       4124       4125       4136       4135  
      4005       4006       4017       4016       4126       4127       4138       4137  
      4006       4007       4018       4017       4127       4128       4139       4138  
      4007       4008       4019       4018       4128       4129       4140       4139  
      4008       4009       4020       4019       4129       4130       4141       4140  
      4009       4010       4021       4020       4130       4131       4142       4141  
      4010       4011       4022       4021       4131       4132       4143       4142  
      4011       4012       4023       4022       4132       4133       4144       4143  
      4012       4013       4024       4023       4133       4134       4145       4144  
      4013       4014       4025       4024       4134       4135       4146       4145  
      4014       4015       4026       4025       4135       4136       4147       4146  
      4016       4017       4028       4027       4137       4138       4149       4148  
      4017       4018       4029       4028       4138       4139       4150       4149  
      4018       4019       4030       4029       4139       4140       4151       4150  
      4019       4020       4031       4030       4140       4141       4152       4151  
      4020       4021       4032       4031       4141       4142       4153       4152  
      4021       4022       4033       4032       4142       4143       4154       4153  
      4022       4023       4034       4033       4143       4144       4155       4154  
      4023       4024       4035       4034       4144       4145       4156       4155  
      4024       4025       4036       4035       4145       4146       4157       4156  
      4025       4026       4037       4036       4146       4147       4158       4157  
      4027       4028       4039       4038       4148       4149       4160       4159  
      4028       4029       4040       4039       4149       4150       4161       4160  
      4029       4030       4041       4040       4150       4151       4162       4161  
      4030       4031       4042       4041       4151       4152       4163       4162  
      4031       4032       4043       4042       4152       4153       4164       4163  
      4032       4033       4044       4043       4153       4154       4165       4164  
      4033       4034       4045       4044       4154       4155       4166       4165  
      4034       4035       4046       4045       4155       4156       4167       4166  
      4035       4036       4047       4046       4156       4157       4168       4167  
      4036       4037       4048       4047       4157       4158       4169       4168  
      4038       4039       4050       4049       4159       4160       4171       4170  
      4039       4040       4051       4050       4160       4161       4172       4171  
      4040       4041       4052       4051       4161       4162       4173       4172  
      4041       4042       4053       4052       4162       4163       4174       4173  
      4042       4043       4054       4053       4163       4164       4175       4174  
      4043       4044       4055       4054       4164       4165       4176       4175  
      4044       4045       4056       4055       4165       4166       4177       4176  
      4045       4046       4057       4056       4166       4167       4178       4177  
      4046       4047       4058       4057       4167       4168       4179       4178  
      4047       4048       4059       4058       4168       4169       4180       4179  
      4049       4050       4061       4060       4170       4171       4182       4181  
      4050       4051       4062       4061       4171       4172       4183       4182  
      4051       4052       4063       4062       4172       4173       4184       4183  
      4052       4053       4064       4063       4173       4174       4185       4184  
      4053       4054       4065       4064       4174       4175       4186       4185  
      4054       4055       4066       4065       4175       4176       4187       4186  
      4055       4056       4067       4066       4176       4177       4188       4187  
      4056       4057       4068       4067       4177       4178       4189       4188  
      4057       4058       4069       4068       4178       4179       4190       4189  
      4058       4059       4070       4069       4179       4180       4191       4190  
      4060       4061       4072       4071       4181       4182       4193       4192  
      4061       4062       4073       4072       4182       4183       4194       4193  
      4062       4063       4074       4073       4183       4184       4195       4194  
      4063       4064       4075       4074       4184       4185       4196       4195  
      4064       4065       4076       4075       4185       4186       4197       4196  
      4065       4066       4077       4076       4186       4187       4198       4197  
      4066       4067       4078       4077       4187       4188       4199       4198  
      4067       4068       4079       4078       4188       4189       4200       4199  
      4068       4069       4080       4079       4189       4190       4201       4200  
      4069       4070       4081       4080       4190       4191       4202       4201  
      4071       4072       4083       4082       4192       4193       4204       4203  
      4072       4073       4084       4083       4193       4194       4205       4204  
      4073       4074       4085       4084       4194       4195       4206       4205  
      4074       4075       4086       4085       4195       4196       4207       4206  
      4075       4076       4087       4086       4196       4197       4208       4207  
      4076       4077       4088       4087       4197       4198       4209       4208  
      4077       4078       4089       4088       4198       4199       4210       4209  
      4078       4079       4090       4089       4199       4200       4211       4210  
      4079       4080       4091       4090       4200       4201       4212       4211  
      4080       4081       4092       4091       4201       4202       4213       4212  
      4082       4083       4094       4093       4203       4204       4215       4214  
      4083       4084       4095       4094       4204       4205       4216       4215  
      4084       4085       4096       4095       4205       4206       4217       4216  
      4085       4086       4097       4096       4206       4207       4218       4217  
      4086       4087       4098       4097       4207       4208       4219       4218  
      4087       4088       4099       4098       4208       4209       4220       4219  
      4088       4089       4100       4099       4209       4210       4221       4220  
      4089       4090       4101       4100       4210       4211       4222       4221  
      4090       4091       4102       4101       4211       4212       4223       4222  
      4091       4092       4103       4102       4212       4213       4224       4223  
      4093       4094       4105       4104       4214       4215       4226       4225  
      4094       4095       4106       4105       4215       4216       4227       4226  
      4095       4096       4107       4106       4216       4217       4228       4227  
      4096       4097       4108       4107       4217       4218       4229       4228  
      4097       4098       4109       4108       4218       4219       4230       4229  
      4098       4099       4110       4109       4219       4220       4231       4230  
      4099       4100       4111       4110       4220       4221       4232       4231  
      4100       4101       4112       4111       4221       4222       4233       4232  
      4101       4102       4113       4112       4222       4223       4234       4233  
      4102       4103       4114       4113       4223       4224       4235       4234  
      4115       4116       4127       4126       4236       4237       4248       4247  
      4116       4117       4128       4127       4237       4238       4249       4248  
      4117       4118       4129       4128       4238       4239       4250       4249  
      4118       4119       4130       4129       4239       4240       4251       4250  
      4119       4120       4131       4130       4240       4241       4252       4251  
      4120       4121       4132       4131       4241       4242       4253       4252  
      4121       4122       4133       4132       4242       4243       4254       4253  
      4122       4123       4134       4133       4243       4244       4255       4254  
      4123       4124       4135       4134       4244       4245       4256       4255  
      4124       4125       4136       4135       4245       4246       4257       4256  
      4126       4127       4138       4137       4247       4248       4259       4258  
      4127       4128       4139       4138       4248       4249       4260       4259  
      4128       4129       4140       4139       4249       4250       4261       4260  
      4129       4130       4141       4140       4250       4251       4262       4261  
      4130       4131       4142       4141       4251       4252       4263       4262  
      4131       4132       4143       4142       4252       4253       4264       4263  
      4132       4133       4144       4143       4253       4254       4265       4264  
      4133       4134       4145       4144       4254       4255       4266       4265  
      4134       4135       4146       4145       4255       4256       4267       4266  
      4135       4136       4147       4146       4256       4257       4268       4267  
      4137       4138       4149       4148       4258       4259       4270       4269  
      4138       4139       4150       4149       4259       4260       4271       4270  
      4139       4140       4151       4150       4260       4261       4272       4271  
      4140       4141       4152       4151       4261       4262       4273       4272  
      4141       4142       4153       4152       4262       4263       4274       4273  
      4142       4143       4154       4153       4263       4264       4275       4274  
      4143       4144       4155       4154       4264       4265       4276       4275  
      4144       4145       4156       4155       4265       4266       4277       4276  
      4145       4146       4157       4156       4266       4267       4278       4277  
      4146       4147       4158       4157       4267       4268       4279       4278  
      4148       4149       4160       4159       4269       4270       4281       4280  
      4149       4150       4161       4160       4270       4271       4282       4281  
      4150       4151       4162       4161       4271       4272       4283       4282  
      4151       4152       4163       4162       4272       4273       4284       4283  
      4152       4153       4164       4163       4273       4274       4285       4284  
      4153       4154       4165       4164       4274       4275       4286       4285  
      4154       4155       4166       4165       4275       4276       4287       4286  
      4155       4156       4167       4166       4276       4277       4288       4287  
      4156       4157       4168       4167       4277       4278       4289       4288  
      4157       4158       4169       4168       4278       4279       4290       4289  
      4159       4160       4171       4170       4280       4281       4292       4291  
      4160       4161       4172       4171       4281       4282       4293       4292  
      4161       4162       4173       4172       4282       4283       4294       4293  
      4162       4163       4174       4173       4283       4284       4295       4294  
      4163       4164       4175       4174       4284       4285       4296       4295  
      4164       4165       4176       4175       4285       4286       4297       4296  
      4165       4166       4177       4176       4286       4287       4298       4297  
      4166       4167       4178       4177       4287       4288       4299       4298  
      4167       4168       4179       4178       4288       4289       4300       4299  
      4168       4169       4180       4179       4289       4290       4301       4300  
      4170       4171       4182       4181       4291       4292       4303       4302  
      4171       4172       4183       4182       4292       4293       4304       4303  
      4172       4173       4184       4183       4293       4294       4305       4304  
      4173       4174       4185       4184       4294       4295       4306       4305  
      4174       4175       4186       4185       4295       4296       4307       4306  
      4175       4176       4187       4186       4296       4297       4308       4307  
      4176       4177       4188       4187       4297       4298       4309       4308  
      4177       4178       4189       4188       4298       4299       4310       4309  
      4178       4179       4190       4189       4299       4300       4311       4310  
      4179       4180       4191       4190       4300       4301       4312       4311  
      4181       4182       4193       4192       4302       4303       4314       4313  
      4182       4183       4194       4193       4303       4304       4315       4314  
      4183       4184       4195       4194       4304       4305       4316       4315  
      4184       4185       4196       4195       4305       4306       4317       4316  
      4185       4186       4197       4196       4306       4307       4318       4317  
      4186       4187       4198       4197       4307       4308       4319       4318  
      4187       4188       4199       4198       4308       4309       4320       4319  
      4188       4189       4200       4199       4309       4310       4321       4320  
      4189       4190       4201       4200       4310       4311       4322       4321  
      4190       4191       4202       4201       4311       4312       4323       4322  
      4192       4193       4204       4203       4313       4314       4325       4324  
      4193       4194       4205       4204       4314       4315       4326       4325  
      4194       4195       4206       4205       4315       4316       4327       4326  
      4195       4196       4207       4206       4316       4317       4328       4327  
      4196       4197       4208       4207       4317       4318       4329       4328  
      4197       4198       4209       4208       4318       4319       4330       4329  
      4198       4199       4210       4209       4319       4320       4331       4330  
      4199       4200       4211       4210       4320       4321       4332       4331  
      4200       4201       4212       4211       4321       4322       4333       4332  
      4201       4202       4213       4212       4322       4323       4334       4333  
      4203       4204       4215       4214       4324       4325       4336       4335  
      4204       4205       4216       4215       4325       4326       4337       4336  
      4205       4206       4217       4216       4326       4327       4338       4337  
      4206       4207       4218       4217       4327       4328       4339       4338  
      4207       4208       4219       4218       4328       4329       4340       4339  
      4208       4209       4220       4219       4329       4330       4341       4340  
      4209       4210       4221       4220       4330       4331       4342       4341  
      4210       4211       4222       4221       4331       4332       4343       4342  
      4211       4212       4223       4222       4332       4333       4344       4343  
      4212       4213       4224       4223       4333       4334       4345       4344  
      4214       4215       4226       4225       4335       4336       4347       4346  
      4215       4216       4227       4226       4336       4337       4348       4347  
      4216       4217       4228       4227       4337       4338       4349       4348  
      4217       4218       4229       4228       4338       4339       4350       4349  
      4218       4219       4230       4229       4339       4340       4351       4350  
      4219       4220       4231       4230       4340       4341       4352       4351  
      4220       4221       4232       4231       4341       4342       4353       4352  
      4221       4222       4233       4232       4342       4343       4354       4353  
      4222       4223       4234       4233       4343       4344       4355       4354  
      4223       4224       4235       4234       4344       4345       4356       4355  
      4236       4237       4248       4247       4357       4358       4369       4368  
      4237       4238       4249       4248       4358       4359       4370       4369  
      4238       4239       4250       4249       4359       4360       4371       4370  
      4239       4240       4251       4250       4360       4361       4372       4371  
      4240       4241       4252       4251       4361       4362       4373       4372  
      4241       4242       4253       4252       4362       4363       4374       4373  
      4242       4243       4254       4253       4363       4364       4375       4374  
      4243       4244       4255       4254       4364       4365       4376       4375  
      4244       4245       4256       4255       4365       4366       4377       4376  
      4245       4246       4257       4256       4366       4367       4378       4377  
      4247       4248       4259       4258       4368       4369       4380       4379  
      4248       4249       4260       4259       4369       4370       4381       4380  
      4249       4250       4261       4260       4370       4371       4382       4381  
      4250       4251       4262       4261       4371       4372       4383       4382  
      4251       4252       4263       4262       4372       4373       4384       4383  
      4252       4253       4264       4263       4373       4374       4385       4384  
      4253       4254       4265       4264       4374       4375       4386       4385  
      4254       4255       4266       4265       4375       4376       4387       4386  
      4255       4256       4267       4266       4376       4377       4388       4387  
      4256       4257       4268       4267       4377       4378       4389       4388  
      4258       4259       4270       4269       4379       4380       4391       4390  
      4259       4260       4271       4270       4380       4381       4392       4391  
      4260       4261       4272       4271       4381       4382       4393       4392  
      4261       4262       4273       4272       4382       4383       4394       4393  
      4262       4263       4274       4273       4383       4384       4395       4394  
      4263       4264       4275       4274       4384       4385       4396       4395  
      4264       4265       4276       4275       4385       4386       4397       4396  
      4265       4266       4277       4276       4386       4387       4398       4397  
      4266       4267       4278       4277       4387       4388       4399       4398  
      4267       4268       4279       4278       4388       4389       4400       4399  
      4269       4270       4281       4280       4390       4391       4402       4401  
      4270       4271       4282       4281       4391       4392       4403       4402  
      4271       4272       4283       4282       4392       4393       4404       4403  
      4272       4273       4284       4283       4393       4394       4405       4404  
      4273       4274       4285       4284       4394       4395       4406       4405  
      4274       4275       4286       4285       4395       4396       4407       4406  
      4275       4276       4287       4286       4396       4397       4408       4407  
      4276       4277       4288       4287       4397       4398       4409       4408  
      4277       4278       4289       4288       4398       4399       4410       4409  
      4278       4279       4290       4289       4399       4400       4411       4410  
      4280       4281       4292       4291       4401       4402       4413       4412  
      4281       4282       4293       4292       4402       4403       4414       4413  
      4282       4283       4294       4293       4403       4404       4415       4414  
      4283       4284       4295       4294       4404       4405       4416       4415  
      4284       4285       4296       4295       4405       4406       4417       4416  
      4285       4286       4297       4296       4406       4407       4418       4417  
      4286       4287       4298       4297       4407       4408       4419       4418  
      4287       4288       4299       4298       4408       4409       4420       4419  
      4288       4289       4300       4299       4409       4410       4421       4420  
      4289       4290       4301       4300       4410       4411       4422       4421  
      4291       4292       4303       4302       4412       4413       4424       4423  
      4292       4293       4304       4303       4413       4414       4425       4424  
      4293       4294       4305       4304       4414       4415       4426       4425  
      4294       4295       4306       4305       4415       4416       4427       4426  
      4295       4296       4307       4306       4416       4417       4428       4427  
      4296       4297       4308       4307       4417       4418       4429       4428  
      4297       4298       4309       4308       4418       4419       4430       4429  
      4298       4299       4310       4309       4419       4420       4431       4430  
      4299       4300       4311       4310       4420       4421       4432       4431  
      4300       4301       4312       4311       4421       4422       4433       4432  
      4302       4303       4314       4313       4423       4424       4435       4434  
      4303       4304       4315       4314       4424       4425       4436       4435  
      4304       4305       4316       4315       4425       4426       4437       4436  
      4305       4306       4317       4316       4426       4427       4438       4437  
      4306       4307       4318       4317       4427       4428       4439       4438  
      4307       4308       4319       4318       4428       4429       4440       4439  
      4308       4309       4320       4319       4429       4430       4441       4440  
      4309       4310       4321       4320       4430       4431       4442       4441  
      4310       4311       4322       4321       4431       4432       4443       4442  
      4311       4312       4323       4322       4432       4433       4444       4443  
      4313       4314       4325       4324       4434       4435       4446       4445  
      4314       4315       4326       4325       4435       4436       4447       4446  
      4315       4316       4327       4326       4436       4437       4448       4447  
      4316       4317       4328       4327       4437       4438       4449       4448  
      4317       4318       4329       4328       4438       4439       4450       4449  
      4318       4319       4330       4329       4439       4440       4451       4450  
      4319       4320       4331       4330       4440       4441       4452       4451  
      4320       4321       4332       4331       4441       4442       4453       4452  
      4321       4322       4333       4332       4442       4443       4454       4453  
      4322       4323       4334       4333       4443       4444       4455       4454  
      4324       4325       4336       4335       4445       4446       4457       4456  
      4325       4326       4337       4336       4446       4447       4458       4457  
      4326       4327       4338       4337       4447       4448       4459       4458  
      4327       4328       4339       4338       4448       4449       4460       4459  
      4328       4329       4340       4339       4449       4450       4461       4460  
      4329       4330       4341       4340       4450       4451       4462       4461  
      4330       4331       4342       4341       4451       4452       4463       4462  
      4331       4332       4343       4342       4452       4453       4464       4463  
      4332       4333       4344       4343       4453       4454       4465       4464  
      4333       4334       4345       4344       4454       4455       4466       4465  
      4335       4336       4347       4346       4456       4457       4468       4467  
      4336       4337       4348       4347       4457       4458       4469       4468  
      4337       4338       4349       4348       4458       4459       4470       4469  
      4338       4339       4350       4349       4459       4460       4471       4470  
      4339       4340       4351       4350       4460       4461       4472       4471  
      4340       4341       4352       4351       4461       4462       4473       4472  
      4341       4342       4353       4352       4462       4463       4474       4473  
      4342       4343       4354       4353       4463       4464       4475       4474  
      4343       4344       4355       4354       4464       4465       4476       4475  
      4344       4345       4356       4355       4465       4466       4477       4476  
      4357       4358       4369       4368       4478       4479       4490       4489  
      4358       4359       4370       4369       4479       4480       4491       4490  
      4359       4360       4371       4370       4480       4481       4492       4491  
      4360       4361       4372       4371       4481       4482       4493       4492  
      4361       4362       4373       4372       4482       4483       4494       4493  
      4362       4363       4374       4373       4483       4484       4495       4494  
      4363       4364       4375       4374       4484       4485       4496       4495  
      4364       4365       4376       4375       4485       4486       4497       4496  
      4365       4366       4377       4376       4486       4487       4498       4497  
      4366       4367       4378       4377       4487       4488       4499       4498  
      4368       4369       4380       4379       4489       4490       4501       4500  
      4369       4370       4381       4380       4490       4491       4502       4501  
      4370       4371       4382       4381       4491       4492       4503       4502  
      4371       4372       4383       4382       4492       4493       4504       4503  
      4372       4373       4384       4383       4493       4494       4505       4504  
      4373       4374       4385       4384       4494       4495       4506       4505  
      4374       4375       4386       4385       4495       4496       4507       4506  
      4375       4376       4387       4386       4496       4497       4508       4507  
      4376       4377       4388       4387       4497       4498       4509       4508  
      4377       4378       4389       4388       4498       4499       4510       4509  
      4379       4380       4391       4390       4500       4501       4512       4511  
      4380       4381       4392       4391       4501       4502       4513       4512  
      4381       4382       4393       4392       4502       4503       4514       4513  
      4382       4383       4394       4393       4503       4504       4515       4514  
      4383       4384       4395       4394       4504       4505       4516       4515  
      4384       4385       4396       4395       4505       4506       4517       4516  
      4385       4386       4397       4396       4506       4507       4518       4517  
      4386       4387       4398       4397       4507       4508       4519       4518  
      4387       4388       4399       4398       4508       4509       4520       4519  
      4388       4389       4400       4399       4509       4510       4521       4520  
      4390       4391       4402       4401       4511       4512       4523       4522  
      4391       4392       4403       4402       4512       4513       4524       4523  
      4392       4393       4404       4403       4513       4514       4525       4524  
      4393       4394       4405       4404       4514       4515       4526       4525  
      4394       4395       4406       4405       4515       4516       4527       4526  
      4395       4396       4407       4406       4516       4517       4528       4527  
      4396       4397       4408       4407       4517       4518       4529       4528  
      4397       4398       4409       4408       4518       4519       4530       4529  
      4398       4399       4410       4409       4519       4520       4531       4530  
      4399       4400       4411       4410       4520       4521       4532       4531  
      4401       4402       4413       4412       4522       4523       4534       4533  
      4402       4403       4414       4413       4523       4524       4535       4534  
      4403       4404       4415       4414       4524       4525       4536       4535  
      4404       4405       4416       4415       4525       4526       4537       4536  
      4405       4406       4417       4416       4526       4527       4538       4537  
      4406       4407       4418       4417       4527       4528       4539       4538  
      4407       4408       4419       4418       4528       4529       4540       4539  
      4408       4409       4420       4419       4529       4530       4541       4540  
      4409       4410       4421       4420       4530       4531       4542       4541  
      4410       4411       4422       4421       4531       4532       4543       4542  
      4412       4413       4424       4423       4533       4534       4545       4544  
      4413       4414       4425       4424       4534       4535       4546       4545  
      4414       4415       4426       4425       4535       4536       4547       4546  
      4415       4416       4427       4426       4536       4537       4548       4547  
      4416       4417       4428       4427       4537       4538       4549       4548  
      4417       4418       4429       4428       4538       4539       4550       4549  
      4418       4419       4430       4429       4539       4540       4551       4550  
      4419       4420       4431       4430       4540       4541       4552       4551  
      4420       4421       4432       4431       4541       4542       4553       4552  
      4421       4422       4433       4432       4542       4543       4554       4553  
      4423       4424       4435       4434       4544       4545       4556       4555  
      4424       4425       4436       4435       4545       4546       4557       4556  
      4425       4426       4437       4436       4546       4547       4558       4557  
      4426       4427       4438       4437       4547       4548       4559       4558  
      4427       4428       4439       4438       4548       4549       4560       4559  
      4428       4429       4440       4439       4549       4550       4561       4560  
      4429       4430       4441       4440       4550       4551       4562       4561  
      4430       4431       4442       4441       4551       4552       4563       4562  
      4431       4432       4443       4442       4552       4553       4564       4563  
      4432       4433       4444       4443       4553       4554       4565       4564  
      4434       4435       4446       4445       4555       4556       4567       4566  
      4435       4436       4447       4446       4556       4557       4568       4567  
      4436       4437       4448       4447       4557       4558       4569       4568  
      4437       4438       4449       4448       4558       4559       4570       4569  
      4438       4439       4450       4449       4559       4560       4571       4570  
      4439       4440       4451       4450       4560       4561       4572       4571  
      4440       4441       4452       4451       4561       4562       4573       4572  
      4441       4442       4453       4452       4562       4563       4574       4573  
      4442       4443       4454       4453       4563       4564       4575       4574  
      4443       4444       4455       4454       4564       4565       4576       4575  
      4445       4446       4457       4456       4566       4567       4578       4577  
      4446       4447       4458       4457       4567       4568       4579       4578  
      4447       4448       4459       4458       4568       4569       4580       4579  
      4448       4449       4460       4459       4569       4570       4581       4580  
      4449       4450       4461       4460       4570       4571       4582       4581  
      4450       4451       4462       4461       4571       4572       4583       4582  
      4451       4452       4463       4462       4572       4573       4584       4583  
      4452       4453       4464       4463       4573       4574       4585       4584  
      4453       4454       4465       4464       4574       4575       4586       4585  
      4454       4455       4466       4465       4575       4576       4587       4586  
      4456       4457       4468       4467       4577       4578       4589       4588  
      4457       4458       4469       4468       4578       4579       4590       4589  
      4458       4459       4470       4469       4579       4580       4591       4590  
      4459       4460       4471       4470       4580       4581       4592       4591  
      4460       4461       4472       4471       4581       4582       4593       4592  
      4461       4462       4473       4472       4582       4583       4594       4593  
      4462       4463       4474       4473       4583       4584       4595       4594  
      4463       4464       4475       4474       4584       4585       4596       4595  
      4464       4465       4476       4475       4585       4586       4597       4596  
      4465       4466       4477       4476       4586       4587       4598       4597  
      4478       4479       4490       4489       4599       4600       4611       4610  
      4479       4480       4491       4490       4600       4601       4612       4611  
      4480       4481       4492       4491       4601       4602       4613       4612  
      4481       4482       4493       4492       4602       4603       4614       4613  
      4482       4483       4494       4493       4603       4604       4615       4614  
      4483       4484       4495       4494       4604       4605       4616       4615  
      4484       4485       4496       4495       4605       4606       4617       4616  
      4485       4486       4497       4496       4606       4607       4618       4617  
      4486       4487       4498       4497       4607       4608       4619       4618  
      4487       4488       4499       4498       4608       4609       4620       4619  
      4489       4490       4501       4500       4610       4611       4622       4621  
      4490       4491       4502       4501       4611       4612       4623       4622  
      4491       4492       4503       4502       4612       4613       4624       4623  
      4492       4493       4504       4503       4613       4614       4625       4624  
      4493       4494       4505       4504       4614       4615       4626       4625  
      4494       4495       4506       4505       4615       4616       4627       4626  
      4495       4496       4507       4506       4616       4617       4628       4627  
      4496       4497       4508       4507       4617       4618       4629       4628  
      4497       4498       4509       4508       4618       4619       4630       4629  
      4498       4499       4510       4509       4619       4620       4631       4630  
      4500       4501       4512       4511       4621       4622       4633       4632  
      4501       4502       4513       4512       4622       4623       4634       4633  
      4502       4503       4514       4513       4623       4624       4635       4634  
      4503       4504       4515       4514       4624       4625       4636       4635  
      4504       4505       4516       4515       4625       4626       4637       4636  
      4505       4506       4517       4516       4626       4627       4638       4637  
      4506       4507       4518       4517       4627       4628       4639       4638  
      4507       4508       4519       4518       4628       4629       4640       4639  
      4508       4509       4520       4519       4629       4630       4641       4640  
      4509       4510       4521       4520       4630       4631       4642       4641  
      4511       4512       4523       4522       4632       4633       4644       4643  
      4512       4513       4524       4523       4633       4634       4645       4644  
      4513       4514       4525       4524       4634       4635       4646       4645  
      4514       4515       4526       4525       4635       4636       4647       4646  
      4515       4516       4527       4526       4636       4637       4648       4647  
      4516       4517       4528       4527       4637       4638       4649       4648  
      4517       4518       4529       4528       4638       4639       4650       4649  
      4518       4519       4530       4529       4639       4640       4651       4650  
      4519       4520       4531       4530       4640       4641       4652       4651  
      4520       4521       4532       4531       4641       4642       4653       4652  
      4522       4523       4534       4533       4643       4644       4655       4654  
      4523       4524       4535       4534       4644       4645       4656       4655  
      4524       4525       4536       4535       4645       4646       4657       4656  
      4525       4526       4537       4536       4646       4647       4658       4657  
      4526       4527       4538       4537       4647       4648       4659       4658  
      4527       4528       4539       4538       4648       4649       4660       4659  
      4528       4529       4540       4539       4649       4650       4661       4660  
      4529       4530       4541       4540       4650       4651       4662       4661  
      4530       4531       4542       4541       4651       4652       4663       4662  
      4531       4532       4543       4542       4652       4653       4664       4663  
      4533       4534       4545       4544       4654       4655       4666       4665  
      4534       4535       4546       4545       4655       4656       4667       4666  
      4535       4536       4547       4546       4656       4657       4668       4667  
      4536       4537       4548       4547       4657       4658       4669       4668  
      4537       4538       4549       4548       4658       4659       4670       4669  
      4538       4539       4550       4549       4659       4660       4671       4670  
      4539       4540       4551       4550       4660       4661       4672       4671  
      4540       4541       4552       4551       4661       4662       4673       4672  
      4541       4542       4553       4552       4662       4663       4674       4673  
      4542       4543       4554       4553       4663       4664       4675       4674  
      4544       4545       4556       4555       4665       4666       4677       4676  
      4545       4546       4557       4556       4666       4667       4678       4677  
      4546       4547       4558       4557       4667       4668       4679       4678  
      4547       4548       4559       4558       4668       4669       4680       4679  
      4548       4549       4560       4559       4669       4670       4681       4680  
      4549       4550       4561       4560       4670       4671       4682       4681  
      4550       4551       4562       4561       4671       4672       4683       4682  
      4551       4552       4563       4562       4672       4673       4684       4683  
      4552       4553       4564       4563       4673       4674       4685       4684  
      4553       4554       4565       4564       4674       4675       4686       4685  
      4555       4556       4567       4566       4676       4677       4688       4687  
      4556       4557       4568       4567       4677       4678       4689       4688  
      4557       4558       4569       4568       4678       4679       4690       4689  
      4558       4559       4570       4569       4679       4680       4691       4690  
      4559       4560       4571       4570       4680       4681       4692       4691  
      4560       4561       4572       4571       4681       4682       4693       4692  
      4561       4562       4573       4572       4682       4683       4694       4693  
      4562       4563       4574       4573       4683       4684       4695       4694  
      4563       4564       4575       4574       4684       4685       4696       4695  
      4564       4565       4576       4575       4685       4686       4697       4696  
      4566       4567       4578       4577       4687       4688       4699       4698  
      4567       4568       4579       4578       4688       4689       4700       4699  
      4568       4569       4580       4579       4689       4690       4701       4700  
      4569       4570       4581       4580       4690       4691       4702       4701  
      4570       4571       4582       4581       4691       4692       4703       4702  
      4571       4572       4583       4582       4692       4693       4704       4703  
      4572       4573       4584       4583       4693       4694       4705       4704  
      4573       4574       4585       4584       4694       4695       4706       4705  
      4574       4575       4586       4585       4695       4696       4707       4706  
      4575       4576       4587       4586       4696       4697       4708       4707  
      4577       4578       4589       4588       4698       4699       4710       4709  
      4578       4579       4590       4589       4699       4700       4711       4710  
      4579       4580       4591       4590       4700       4701       4712       4711  
      4580       4581       4592       4591       4701       4702       4713       4712  
      4581       4582       4593       4592       4702       4703       4714       4713  
      4582       4583       4594       4593       4703       4704       4715       4714  
      4583       4584       4595       4594       4704       4705       4716       4715  
      4584       4585       4596       4595       4705       4706       4717       4716  
      4585       4586       4597       4596       4706       4707       4718       4717  
      4586       4587       4598       4597       4707       4708       4719       4718  
      4599       4600       4611       4610       4720       4721       4732       4731  
      4600       4601       4612       4611       4721       4722       4733       4732  
      4601       4602       4613       4612       4722       4723       4734       4733  
      4602       4603       4614       4613       4723       4724       4735       4734  
      4603       4604       4615       4614       4724       4725       4736       4735  
      4604       4605       4616       4615       4725       4726       4737       4736  
      4605       4606       4617       4616       4726       4727       4738       4737  
      4606       4607       4618       4617       4727       4728       4739       4738  
      4607       4608       4619       4618       4728       4729       4740       4739  
      4608       4609       4620       4619       4729       4730       4741       4740  
      4610       4611       4622       4621       4731       4732       4743       4742  
      4611       4612       4623       4622       4732       4733       4744       4743  
      4612       4613       4624       4623       4733       4734       4745       4744  
      4613       4614       4625       4624       4734       4735       4746       4745  
      4614       4615       4626       4625       4735       4736       4747       4746  
      4615       4616       4627       4626       4736       4737       4748       4747  
      4616       4617       4628       4627       4737       4738       4749       4748  
      4617       4618       4629       4628       4738       4739       4750       4749  
      4618       4619       4630       4629       4739       4740       4751       4750  
      4619       4620       4631       4630       4740       4741       4752       4751  
      4621       4622       4633       4632       4742       4743       4754       4753  
      4622       4623       4634       4633       4743       4744       4755       4754  
      4623       4624       4635       4634       4744       4745       4756       4755  
      4624       4625       4636       4635       4745       4746       4757       4756  
      4625       4626       4637       4636       4746       4747       4758       4757  
      4626       4627       4638       4637       4747       4748       4759       4758  
      4627       4628       4639       4638       4748       4749       4760       4759  
      4628       4629       4640       4639       4749       4750       4761       4760  
      4629       4630       4641       4640       4750       4751       4762       4761  
      4630       4631       4642       4641       4751       4752       4763       4762  
      4632       4633       4644       4643       4753       4754       4765       4764  
      4633       4634       4645       4644       4754       4755       4766       4765  
      4634       4635       4646       4645       4755       4756       4767       4766  
      4635       4636       4647       4646       4756       4757       4768       4767  
      4636       4637       4648       4647       4757       4758       4769       4768  
      4637       4638       4649       4648       4758       4759       4770       4769  
      4638       4639       4650       4649       4759       4760       4771       4770  
      4639       4640       4651       4650       4760       4761       4772       4771  
      4640       4641       4652       4651       4761       4762       4773       4772  
      4641       4642       4653       4652       4762       4763       4774       4773  
      4643       4644       4655       4654       4764       4765       4776       4775  
      4644       4645       4656       4655       4765       4766       4777       4776  
      4645       4646       4657       4656       4766       4767       4778       4777  
      4646       4647       4658       4657       4767       4768       4779       4778  
      4647       4648       4659       4658       4768       4769       4780       4779  
      4648       4649       4660       4659       4769       4770       4781       4780  
      4649       4650       4661       4660       4770       4771       4782       4781  
      4650       4651       4662       4661       4771       4772       4783       4782  
      4651       4652       4663       4662       4772       4773       4784       4783  
      4652       4653       4664       4663       4773       4774       4785       4784  
      4654       4655       4666       4665       4775       4776       4787       4786  
      4655       4656       4667       4666       4776       4777       4788       4787  
      4656       4657       4668       4667       4777       4778       4789       4788  
      4657       4658       4669       4668       4778       4779       4790       4789  
      4658       4659       4670       4669       4779       4780       4791       4790  
      4659       4660       4671       4670       4780       4781       4792       4791  
      4660       4661       4672       4671       4781       4782       4793       4792  
      4661       4662       4673       4672       4782       4783       4794       4793  
      4662       4663       4674       4673       4783       4784       4795       4794  
      4663       4664       4675       4674       4784       4785       4796       4795  
      4665       4666       4677       4676       4786       4787       4798       4797  
      4666       4667       4678       4677       4787       4788       4799       4798  
      4667       4668       4679       4678       4788       4789       4800       4799  
      4668       4669       4680       4679       4789       4790       4801       4800  
      4669       4670       4681       4680       4790       4791       4802       4801  
      4670       4671       4682       4681       4791       4792       4803       4802  
      4671       4672       4683       4682       4792       4793       4804       4803  
      4672       4673       4684       4683       4793       4794       4805       4804  
      4673       4674       4685       4684       4794       4795       4806       4805  
      4674       4675       4686       4685       4795       4796       4807       4806  
      4676       4677       4688       4687       4797       4798       4809       4808  
      4677       4678       4689       4688       4798       4799       4810       4809  
      4678       4679       4690       4689       4799       4800       4811       4810  
      4679       4680       4691       4690       4800       4801       4812       4811  
      4680       4681       4692       4691       4801       4802       4813       4812  
      4681       4682       4693       4692       4802       4803       4814       4813  
      4682       4683       4694       4693       4803       4804       4815       4814  
      4683       4684       4695       4694       4804       4805       4816       4815  
      4684       4685       4696       4695       4805       4806       4817       4816  
      4685       4686       4697       4696       4806       4807       4818       4817  
      4687       4688       4699       4698       4808       4809       4820       4819  
      4688       4689       4700       4699       4809       4810       4821       4820  
      4689       4690       4701       4700       4810       4811       4822       4821  
      4690       4691       4702       4701       4811       4812       4823       4822  
      4691       4692       4703       4702       4812       4813       4824       4823  
      4692       4693       4704       4703       4813       4814       4825       4824  
      4693       4694       4705       4704       4814       4815       4826       4825  
      4694       4695       4706       4705       4815       4816       4827       4826  
      4695       4696       4707       4706       4816       4817       4828       4827  
      4696       4697       4708       4707       4817       4818       4829       4828  
      4698       4699       4710       4709       4819       4820       4831       4830  
      4699       4700       4711       4710       4820       4821       4832       4831  
      4700       4701       4712       4711       4821       4822       4833       4832  
      4701       4702       4713       4712       4822       4823       4834       4833  
      4702       4703       4714       4713       4823       4824       4835       4834  
      4703       4704       4715       4714       4824       4825       4836       4835  
      4704       4705       4716       4715       4825       4826       4837       4836  
      4705       4706       4717       4716       4826       4827       4838       4837  
      4706       4707       4718       4717       4827       4828       4839       4838  
      4707       4708       4719       4718       4828       4829       4840       4839  
      4720       4721       4732       4731       4841       4842       4853       4852  
      4721       4722       4733       4732       4842       4843       4854       4853  
      4722       4723       4734       4733       4843       4844       4855       4854  
      4723       4724       4735       4734       4844       4845       4856       4855  
      4724       4725       4736       4735       4845       4846       4857       4856  
      4725       4726       4737       4736       4846       4847       4858       4857  
      4726       4727       4738       4737       4847       4848       4859       4858  
      4727       4728       4739       4738       4848       4849       4860       4859  
      4728       4729       4740       4739       4849       4850       4861       4860  
      4729       4730       4741       4740       4850       4851       4862       4861  
      4731       4732       4743       4742       4852       4853       4864       4863  
      4732       4733       4744       4743       4853       4854       4865       4864  
      4733       4734       4745       4744       4854       4855       4866       4865  
      4734       4735       4746       4745       4855       4856       4867       4866  
      4735       4736       4747       4746       4856       4857       4868       4867  
      4736       4737       4748       4747       4857       4858       4869       4868  
      4737       4738       4749       4748       4858       4859       4870       4869  
      4738       4739       4750       4749       4859       4860       4871       4870  
      4739       4740       4751       4750       4860       4861       4872       4871  
      4740       4741       4752       4751       4861       4862       4873       4872  
      4742       4743       4754       4753       4863       4864       4875       4874  
      4743       4744       4755       4754       4864       4865       4876       4875  
      4744       4745       4756       4755       4865       4866       4877       4876  
      4745       4746       4757       4756       4866       4867       4878       4877  
      4746       4747       4758       4757       4867       4868       4879       4878  
      4747       4748       4759       4758       4868       4869       4880       4879  
      4748       4749       4760       4759       4869       4870       4881       4880  
      4749       4750       4761       4760       4870       4871       4882       4881  
      4750       4751       4762       4761       4871       4872       4883       4882  
      4751       4752       4763       4762       4872       4873       4884       4883  
      4753       4754       4765       4764       4874       4875       4886       4885  
      4754       4755       4766       4765       4875       4876       4887       4886  
      4755       4756       4767       4766       4876       4877       4888       4887  
      4756       4757       4768       4767       4877       4878       4889       4888  
      4757       4758       4769       4768       4878       4879       4890       4889  
      4758       4759       4770       4769       4879       4880       4891       4890  
      4759       4760       4771       4770       4880       4881       4892       4891  
      4760       4761       4772       4771       4881       4882       4893       4892  
      4761       4762       4773       4772       4882       4883       4894       4893  
      4762       4763       4774       4773       4883       4884       4895       4894  
      4764       4765       4776       4775       4885       4886       4897       4896  
      4765       4766       4777       4776       4886       4887       4898       4897  
      4766       4767       4778       4777       4887       4888       4899       4898  
      4767       4768       4779       4778       4888       4889       4900       4899  
      4768       4769       4780       4779       4889       4890       4901       4900  
      4769       4770       4781       4780       4890       4891       4902       4901  
      4770       4771       4782       4781       4891       4892       4903       4902  
      4771       4772       4783       4782       4892       4893       4904       4903  
      4772       4773       4784       4783       4893       4894       4905       4904  
      4773       4774       4785       4784       4894       4895       4906       4905  
      4775       4776       4787       4786       4896       4897       4908       4907  
      4776       4777       4788       4787       4897       4898       4909       4908  
      4777       4778       4789       4788       4898       4899       4910       4909  
      4778       4779       4790       4789       4899       4900       4911       4910  
      4779       4780       4791       4790       4900       4901       4912       4911  
      4780       4781       4792       4791       4901       4902       4913       4912  
      4781       4782       4793       4792       4902       4903       4914       4913  
      4782       4783       4794       4793       4903       4904       4915       4914  
      4783       4784       4795       4794       4904       4905       4916       4915  
      4784       4785       4796       4795       4905       4906       4917       4916  
      4786       4787       4798       4797       4907       4908       4919       4918  
      4787       4788       4799       4798       4908       4909       4920       4919  
      4788       4789       4800       4799       4909       4910       4921       4920  
      4789       4790       4801       4800       4910       4911       4922       4921  
      4790       4791       4802       4801       4911       4912       4923       4922  
      4791       4792       4803       4802       4912       4913       4924       4923  
      4792       4793       4804       4803       4913       4914       4925       4924  
      4793       4794       4805       4804       4914       4915       4926       4925  
      4794       4795       4806       4805       4915       4916       4927       4926  
      4795       4796       4807       4806       4916       4917       4928       4927  
      4797       4798       4809       4808       4918       4919       4930       4929  
      4798       4799       4810       4809       4919       4920       4931       4930  
      4799       4800       4811       4810       4920       4921       4932       4931  
      4800       4801       4812       4811       4921       4922       4933       4932  
      4801       4802       4813       4812       4922       4923       4934       4933  
      4802       4803       4814       4813       4923       4924       4935       4934  
      4803       4804       4815       4814       4924       4925       4936       4935  
      4804       4805       4816       4815       4925       4926       4937       4936  
      4805       4806       4817       4816       4926       4927       4938       4937  
      4806       4807       4818       4817       4927       4928       4939       4938  
      4808       4809       4820       4819       4929       4930       4941       4940  
      4809       4810       4821       4820       4930       4931       4942       4941  
      4810       4811       4822       4821       4931       4932       4943       4942  
      4811       4812       4823       4822       4932       4933       4944       4943  
      4812       4813       4824       4823       4933       4934       4945       4944  
      4813       4814       4825       4824       4934       4935       4946       4945  
      4814       4815       4826       4825       4935       4936       4947       4946  
      4815       4816       4827       4826       4936       4937       4948       4947  
      4816       4817       4828       4827       4937       4938       4949       4948  
      4817       4818       4829       4828       4938       4939       4950       4949  
      4819       4820       4831       4830       4940       4941       4952       4951  
      4820       4821       4832       4831       4941       4942       4953       4952  
      4821       4822       4833       4832       4942       4943       4954       4953  
      4822       4823       4834       4833       4943       4944       4955       4954  
      4823       4824       4835       4834       4944       4945       4956       4955  
      4824       4825       4836       4835       4945       4946       4957       4956  
      4825       4826       4837       4836       4946       4947       4958       4957  
      4826       4827       4838       4837       4947       4948       4959       4958  
      4827       4828       4839       4838       4948       4949       4960       4959  
      4828       4829       4840       4839       4949       4950       4961       4960  
      4841       4842       4853       4852       4962       4963       4974       4973  
      4842       4843       4854       4853       4963       4964       4975       4974  
      4843       4844       4855       4854       4964       4965       4976       4975  
      4844       4845       4856       4855       4965       4966       4977       4976  
      4845       4846       4857       4856       4966       4967       4978       4977  
      4846       4847       4858       4857       4967       4968       4979       4978  
      4847       4848       4859       4858       4968       4969       4980       4979  
      4848       4849       4860       4859       4969       4970       4981       4980  
      4849       4850       4861       4860       4970       4971       4982       4981  
      4850       4851       4862       4861       4971       4972       4983       4982  
      4852       4853       4864       4863       4973       4974       4985       4984  
      4853       4854       4865       4864       4974       4975       4986       4985  
      4854       4855       4866       4865       4975       4976       4987       4986  
      4855       4856       4867       4866       4976       4977       4988       4987  
      4856       4857       4868       4867       4977       4978       4989       4988  
      4857       4858       4869       4868       4978       4979       4990       4989  
      4858       4859       4870       4869       4979       4980       4991       4990  
      4859       4860       4871       4870       4980       4981       4992       4991  
      4860       4861       4872       4871       4981       4982       4993       4992  
      4861       4862       4873       4872       4982       4983       4994       4993  
      4863       4864       4875       4874       4984       4985       4996       4995  
      4864       4865       4876       4875       4985       4986       4997       4996  
      4865       4866       4877       4876       4986       4987       4998       4997  
      4866       4867       4878       4877       4987       4988       4999       4998  
      4867       4868       4879       4878       4988       4989       5000       4999  
      4868       4869       4880       4879       4989       4990       5001       5000  
      4869       4870       4881       4880       4990       4991       5002       5001  
      4870       4871       4882       4881       4991       4992       5003       5002  
      4871       4872       4883       4882       4992       4993       5004       5003  
      4872       4873       4884       4883       4993       4994       5005       5004  
      4874       4875       4886       4885       4995       4996       5007       5006  
      4875       4876       4887       4886       4996       4997       5008       5007  
      4876       4877       4888       4887       4997       4998       5009       5008  
      4877       4878       4889       4888       4998       4999       5010       5009  
      4878       4879       4890       4889       4999       5000       5011       5010  
      4879       4880       4891       4890       5000       5001       5012       5011  
      4880       4881       4892       4891       5001       5002       5013       5012  
      4881       4882       4893       4892       5002       5003       5014       5013  
      4882       4883       4894       4893       5003       5004       5015       5014  
      4883       4884       4895       4894       5004       5005       5016       5015  
      4885       4886       4897       4896       5006       5007       5018       5017  
      4886       4887       4898       4897       5007       5008       5019       5018  
      4887       4888       4899       4898       5008       5009       5020       5019  
      4888       4889       4900       4899       5009       5010       5021       5020  
      4889       4890       4901       4900       5010       5011       5022       5021  
      4890       4891       4902       4901       5011       5012       5023       5022  
      4891       4892       4903       4902       5012       5013       5024       5023  
      4892       4893       4904       4903       5013       5014       5025       5024  
      4893       4894       4905       4904       5014       5015       5026       5025  
      4894       4895       4906       4905       5015       5016       5027       5026  
      4896       4897       4908       4907       5017       5018       5029       5028  
      4897       4898       4909       4908       5018       5019       5030       5029  
      4898       4899       4910       4909       5019       5020       5031       5030  
      4899       4900       4911       4910       5020       5021       5032       5031  
      4900       4901       4912       4911       5021       5022       5033       5032  
      4901       4902       4913       4912       5022       5023       5034       5033  
      4902       4903       4914       4913       5023       5024       5035       5034  
      4903       4904       4915       4914       5024       5025       5036       5035  
      4904       4905       4916       4915       5025       5026       5037       5036  
      4905       4906       4917       4916       5026       5027       5038       5037  
      4907       4908       4919       4918       5028       5029       5040       5039  
      4908       4909       4920       4919       5029       5030       5041       5040  
      4909       4910       4921       4920       5030       5031       5042       5041  
      4910       4911       4922       4921       5031       5032       5043       5042  
      4911       4912       4923       4922       5032       5033       5044       5043  
      4912       4913       4924       4923       5033       5034       5045       5044  
      4913       4914       4925       4924       5034       5035       5046       5045  
      4914       4915       4926       4925       5035       5036       5047       5046  
      4915       4916       4927       4926       5036       5037       5048       5047  
      4916       4917       4928       4927       5037       5038       5049       5048  
      4918       4919       4930       4929       5039       5040       5051       5050  
      4919       4920       4931       4930       5040       5041       5052       5051  
      4920       4921       4932       4931       5041       5042       5053       5052  
      4921       4922       4933       4932       5042       5043       5054       5053  
      4922       4923       4934       4933       5043       5044       5055       5054  
      4923       4924       4935       4934       5044       5045       5056       5055  
      4924       4925       4936       4935       5045       5046       5057       5056  
      4925       4926       4937       4936       5046       5047       5058       5057  
      4926       4927       4938       4937       5047       5048       5059       5058  
      4927       4928       4939       4938       5048       5049       5060       5059  
      4929       4930       4941       4940       5050       5051       5062       5061  
      4930       4931       4942       4941       5051       5052       5063       5062  
      4931       4932       4943       4942       5052       5053       5064       5063  
      4932       4933       4944       4943       5053       5054       5065       5064  
      4933       4934       4945       4944       5054       5055       5066       5065  
      4934       4935       4946       4945       5055       5056       5067       5066  
      4935       4936       4947       4946       5056       5057       5068       5067  
      4936       4937       4948       4947       5057       5058       5069       5068  
      4937       4938       4949       4948       5058       5059       5070       5069  
      4938       4939       4950       4949       5059       5060       5071       5070  
      4940       4941       4952       4951       5061       5062       5073       5072  
      4941       4942       4953       4952       5062       5063       5074       5073  
      4942       4943       4954       4953       5063       5064       5075       5074  
      4943       4944       4955       4954       5064       5065       5076       5075  
      4944       4945       4956       4955       5065       5066       5077       5076  
      4945       4946       4957       4956       5066       5067       5078       5077  
      4946       4947       4958       4957       5067       5068       5079       5078  
      4947       4948       4959       4958       5068       5069       5080       5079  
      4948       4949       4960       4959       5069       5070       5081       5080  
      4949       4950       4961       4960       5070       5071       5082       5081  
      4962       4963       4974       4973       5083       5084       5095       5094  
      4963       4964       4975       4974       5084       5085       5096       5095  
      4964       4965       4976       4975       5085       5086       5097       5096  
      4965       4966       4977       4976       5086       5087       5098       5097  
      4966       4967       4978       4977       5087       5088       5099       5098  
      4967       4968       4979       4978       5088       5089       5100       5099  
      4968       4969       4980       4979       5089       5090       5101       5100  
      4969       4970       4981       4980       5090       5091       5102       5101  
      4970       4971       4982       4981       5091       5092       5103       5102  
      4971       4972       4983       4982       5092       5093       5104       5103  
      4973       4974       4985       4984       5094       5095       5106       5105  
      4974       4975       4986       4985       5095       5096       5107       5106  
      4975       4976       4987       4986       5096       5097       5108       5107  
      4976       4977       4988       4987       5097       5098       5109       5108  
      4977       4978       4989       4988       5098       5099       5110       5109  
      4978       4979       4990       4989       5099       5100       5111       5110  
      4979       4980       4991       4990       5100       5101       5112       5111  
      4980       4981       4992       4991       5101       5102       5113       5112  
      4981       4982       4993       4992       5102       5103       5114       5113  
      4982       4983       4994       4993       5103       5104       5115       5114  
      4984       4985       4996       4995       5105       5106       5117       5116  
      4985       4986       4997       4996       5106       5107       5118       5117  
      4986       4987       4998       4997       5107       5108       5119       5118  
      4987       4988       4999       4998       5108       5109       5120       5119  
      4988       4989       5000       4999       5109       5110       5121       5120  
      4989       4990       5001       5000       5110       5111       5122       5121  
      4990       4991       5002       5001       5111       5112       5123       5122  
      4991       4992       5003       5002       5112       5113       5124       5123  
      4992       4993       5004       5003       5113       5114       5125       5124  
      4993       4994       5005       5004       5114       5115       5126       5125  
      4995       4996       5007       5006       5116       5117       5128       5127  
      4996       4997       5008       5007       5117       5118       5129       5128  
      4997       4998       5009       5008       5118       5119       5130       5129  
      4998       4999       5010       5009       5119       5120       5131       5130  
      4999       5000       5011       5010       5120       5121       5132       5131  
      5000       5001       5012       5011       5121       5122       5133       5132  
      5001       5002       5013       5012       5122       5123       5134       5133  
      5002       5003       5014       5013       5123       5124       5135       5134  
      5003       5004       5015       5014       5124       5125       5136       5135  
      5004       5005       5016       5015       5125       5126       5137       5136  
      5006       5007       5018       5017       5127       5128       5139       5138  
      5007       5008       5019       5018       5128       5129       5140       5139  
      5008       5009       5020       5019       5129       5130       5141       5140  
      5009       5010       5021       5020       5130       5131       5142       5141  
      5010       5011       5022       5021       5131       5132       5143       5142  
      5011       5012       5023       5022       5132       5133       5144       5143  
      5012       5013       5024       5023       5133       5134       5145       5144  
      5013       5014       5025       5024       5134       5135       5146       5145  
      5014       5015       5026       5025       5135       5136       5147       5146  
      5015       5016       5027       5026       5136       5137       5148       5147  
      5017       5018       5029       5028       5138       5139       5150       5149  
      5018       5019       5030       5029       5139       5140       5151       5150  
      5019       5020       5031       5030       5140       5141       5152       5151  
      5020       5021       5032       5031       5141       5142       5153       5152  
      5021       5022       5033       5032       5142       5143       5154       5153  
      5022       5023       5034       5033       5143       5144       5155       5154  
      5023       5024       5035       5034       5144       5145       5156       5155  
      5024       5025       5036       5035       5145       5146       5157       5156  
      5025       5026       5037       5036       5146       5147       5158       5157  
      5026       5027       5038       5037       5147       5148       5159       5158  
      5028       5029       5040       5039       5149       5150       5161       5160  
      5029       5030       5041       5040       5150       5151       5162       5161  
      5030       5031       5042       5041       5151       5152       5163       5162  
      5031       5032       5043       5042       5152       5153       5164       5163  
      5032       5033       5044       5043       5153       5154       5165       5164  
      5033       5034       5045       5044       5154       5155       5166       5165  
      5034       5035       5046       5045       5155       5156       5167       5166  
      5035       5036       5047       5046       5156       5157       5168       5167  
      5036       5037       5048       5047       5157       5158       5169       5168  
      5037       5038       5049       5048       5158       5159       5170       5169  
      5039       5040       5051       5050       5160       5161       5172       5171  
      5040       5041       5052       5051       5161       5162       5173       5172  
      5041       5042       5053       5052       5162       5163       5174       5173  
      5042       5043       5054       5053       5163       5164       5175       5174  
      5043       5044       5055       5054       5164       5165       5176       5175  
      5044       5045       5056       5055       5165       5166       5177       5176  
      5045       5046       5057       5056       5166       5167       5178       5177  
      5046       5047       5058       5057       5167       5168       5179       5178  
      5047       5048       5059       5058       5168       5169       5180       5179  
      5048       5049       5060       5059       5169       5170       5181       5180  
      5050       5051       5062       5061       5171       5172       5183       5182  
      5051       5052       5063       5062       5172       5173       5184       5183  
      5052       5053       5064       5063       5173       5174       5185       5184  
      5053       5054       5065       5064       5174       5175       5186       5185  
      5054       5055       5066       5065       5175       5176       5187       5186  
      5055       5056       5067       5066       5176       5177       5188       5187  
      5056       5057       5068       5067       5177       5178       5189       5188  
      5057       5058       5069       5068       5178       5179       5190       5189  
      5058       5059       5070       5069       5179       5180       5191       5190  
      5059       5060       5071       5070       5180       5181       5192       5191  
      5061       5062       5073       5072       5182       5183       5194       5193  
      5062       5063       5074       5073       5183       5184       5195       5194  
      5063       5064       5075       5074       5184       5185       5196       5195  
      5064       5065       5076       5075       5185       5186       5197       5196  
      5065       5066       5077       5076       5186       5187       5198       5197  
      5066       5067       5078       5077       5187       5188       5199       5198  
      5067       5068       5079       5078       5188       5189       5200       5199  
      5068       5069       5080       5079       5189       5190       5201       5200  
      5069       5070       5081       5080       5190       5191       5202       5201  
      5070       5071       5082       5081       5191       5192       5203       5202  
      5083       5084       5095       5094       5204       5205       5216       5215  
      5084       5085       5096       5095       5205       5206       5217       5216  
      5085       5086       5097       5096       5206       5207       5218       5217  
      5086       5087       5098       5097       5207       5208       5219       5218  
      5087       5088       5099       5098       5208       5209       5220       5219  
      5088       5089       5100       5099       5209       5210       5221       5220  
      5089       5090       5101       5100       5210       5211       5222       5221  
      5090       5091       5102       5101       5211       5212       5223       5222  
      5091       5092       5103       5102       5212       5213       5224       5223  
      5092       5093       5104       5103       5213       5214       5225       5224  
      5094       5095       5106       5105       5215       5216       5227       5226  
      5095       5096       5107       5106       5216       5217       5228       5227  
      5096       5097       5108       5107       5217       5218       5229       5228  
      5097       5098       5109       5108       5218       5219       5230       5229  
      5098       5099       5110       5109       5219       5220       5231       5230  
      5099       5100       5111       5110       5220       5221       5232       5231  
      5100       5101       5112       5111       5221       5222       5233       5232  
      5101       5102       5113       5112       5222       5223       5234       5233  
      5102       5103       5114       5113       5223       5224       5235       5234  
      5103       5104       5115       5114       5224       5225       5236       5235  
      5105       5106       5117       5116       5226       5227       5238       5237  
      5106       5107       5118       5117       5227       5228       5239       5238  
      5107       5108       5119       5118       5228       5229       5240       5239  
      5108       5109       5120       5119       5229       5230       5241       5240  
      5109       5110       5121       5120       5230       5231       5242       5241  
      5110       5111       5122       5121       5231       5232       5243       5242  
      5111       5112       5123       5122       5232       5233       5244       5243  
      5112       5113       5124       5123       5233       5234       5245       5244  
      5113       5114       5125       5124       5234       5235       5246       5245  
      5114       5115       5126       5125       5235       5236       5247       5246  
      5116       5117       5128       5127       5237       5238       5249       5248  
      5117       5118       5129       5128       5238       5239       5250       5249  
      5118       5119       5130       5129       5239       5240       5251       5250  
      5119       5120       5131       5130       5240       5241       5252       5251  
      5120       5121       5132       5131       5241       5242       5253       5252  
      5121       5122       5133       5132       5242       5243       5254       5253  
      5122       5123       5134       5133       5243       5244       5255       5254  
      5123       5124       5135       5134       5244       5245       5256       5255  
      5124       5125       5136       5135       5245       5246       5257       5256  
      5125       5126       5137       5136       5246       5247       5258       5257  
      5127       5128       5139       5138       5248       5249       5260       5259  
      5128       5129       5140       5139       5249       5250       5261       5260  
      5129       5130       5141       5140       5250       5251       5262       5261  
      5130       5131       5142       5141       5251       5252       5263       5262  
      5131       5132       5143       5142       5252       5253       5264       5263  
      5132       5133       5144       5143       5253       5254       5265       5264  
      5133       5134       5145       5144       5254       5255       5266       5265  
      5134       5135       5146       5145       5255       5256       5267       5266  
      5135       5136       5147       5146       5256       5257       5268       5267  
      5136       5137       5148       5147       5257       5258       5269       5268  
      5138       5139       5150       5149       5259       5260       5271       5270  
      5139       5140       5151       5150       5260       5261       5272       5271  
      5140       5141       5152       5151       5261       5262       5273       5272  
      5141       5142       5153       5152       5262       5263       5274       5273  
      5142       5143       5154       5153       5263       5264       5275       5274  
      5143       5144       5155       5154       5264       5265       5276       5275  
      5144       5145       5156       5155       5265       5266       5277       5276  
      5145       5146       5157       5156       5266       5267       5278       5277  
      5146       5147       5158       5157       5267       5268       5279       5278  
      5147       5148       5159       5158       5268       5269       5280       5279  
      5149       5150       5161       5160       5270       5271       5282       5281  
      5150       5151       5162       5161       5271       5272       5283       5282  
      5151       5152       5163       5162       5272       5273       5284       5283  
      5152       5153       5164       5163       5273       5274       5285       5284  
      5153       5154       5165       5164       5274       5275       5286       5285  
      5154       5155       5166       5165       5275       5276       5287       5286  
      5155       5156       5167       5166       5276       5277       5288       5287  
      5156       5157       5168       5167       5277       5278       5289       5288  
      5157       5158       5169       5168       5278       5279       5290       5289  
      5158       5159       5170       5169       5279       5280       5291       5290  
      5160       5161       5172       5171       5281       5282       5293       5292  
      5161       5162       5173       5172       5282       5283       5294       5293  
      5162       5163       5174       5173       5283       5284       5295       5294  
      5163       5164       5175       5174       5284       5285       5296       5295  
      5164       5165       5176       5175       5285       5286       5297       5296  
      5165       5166       5177       5176       5286       5287       5298       5297  
      5166       5167       5178       5177       5287       5288       5299       5298  
      5167       5168       5179       5178       5288       5289       5300       5299  
      5168       5169       5180       5179       5289       5290       5301       5300  
      5169       5170       5181       5180       5290       5291       5302       5301  
      5171       5172       5183       5182       5292       5293       5304       5303  
      5172       5173       5184       5183       5293       5294       5305       5304  
      5173       5174       5185       5184       5294       5295       5306       5305  
      5174       5175       5186       5185       5295       5296       5307       5306  
      5175       5176       5187       5186       5296       5297       5308       5307  
      5176       5177       5188       5187       5297       5298       5309       5308  
      5177       5178       5189       5188       5298       5299       5310       5309  
      5178       5179       5190       5189       5299       5300       5311       5310  
      5179       5180       5191       5190       5300       5301       5312       5311  
      5180       5181       5192       5191       5301       5302       5313       5312  
      5182       5183       5194       5193       5303       5304       5315       5314  
      5183       5184       5195       5194       5304       5305       5316       5315  
      5184       5185       5196       5195       5305       5306       5317       5316  
      5185       5186       5197       5196       5306       5307       5318       5317  
      5186       5187       5198       5197       5307       5308       5319       5318  
      5187       5188       5199       5198       5308       5309       5320       5319  
      5188       5189       5200       5199       5309       5310       5321       5320  
      5189       5190       5201       5200       5310       5311       5322       5321  
      5190       5191       5202       5201       5311       5312       5323       5322  
      5191       5192       5203       5202       5312       5313       5324       5323  
      5204       5205       5216       5215       5325       5326       5337       5336  
      5205       5206       5217       5216       5326       5327       5338       5337  
      5206       5207       5218       5217       5327       5328       5339       5338  
      5207       5208       5219       5218       5328       5329       5340       5339  
      5208       5209       5220       5219       5329       5330       5341       5340  
      5209       5210       5221       5220       5330       5331       5342       5341  
      5210       5211       5222       5221       5331       5332       5343       5342  
      5211       5212       5223       5222       5332       5333       5344       5343  
      5212       5213       5224       5223       5333       5334       5345       5344  
      5213       5214       5225       5224       5334       5335       5346       5345  
      5215       5216       5227       5226       5336       5337       5348       5347  
      5216       5217       5228       5227       5337       5338       5349       5348  
      5217       5218       5229       5228       5338       5339       5350       5349  
      5218       5219       5230       5229       5339       5340       5351       5350  
      5219       5220       5231       5230       5340       5341       5352       5351  
      5220       5221       5232       5231       5341       5342       5353       5352  
      5221       5222       5233       5232       5342       5343       5354       5353  
      5222       5223       5234       5233       5343       5344       5355       5354  
      5223       5224       5235       5234       5344       5345       5356       5355  
      5224       5225       5236       5235       5345       5346       5357       5356  
      5226       5227       5238       5237       5347       5348       5359       5358  
      5227       5228       5239       5238       5348       5349       5360       5359  
      5228       5229       5240       5239       5349       5350       5361       5360  
      5229       5230       5241       5240       5350       5351       5362       5361  
      5230       5231       5242       5241       5351       5352       5363       5362  
      5231       5232       5243       5242       5352       5353       5364       5363  
      5232       5233       5244       5243       5353       5354       5365       5364  
      5233       5234       5245       5244       5354       5355       5366       5365  
      5234       5235       5246       5245       5355       5356       5367       5366  
      5235       5236       5247       5246       5356       5357       5368       5367  
      5237       5238       5249       5248       5358       5359       5370       5369  
      5238       5239       5250       5249       5359       5360       5371       5370  
      5239       5240       5251       5250       5360       5361       5372       5371  
      5240       5241       5252       5251       5361       5362       5373       5372  
      5241       5242       5253       5252       5362       5363       5374       5373  
      5242       5243       5254       5253       5363       5364       5375       5374  
      5243       5244       5255       5254       5364       5365       5376       5375  
      5244       5245       5256       5255       5365       5366       5377       5376  
      5245       5246       5257       5256       5366       5367       5378       5377  
      5246       5247       5258       5257       5367       5368       5379       5378  
      5248       5249       5260       5259       5369       5370       5381       5380  
      5249       5250       5261       5260       5370       5371       5382       5381  
      5250       5251       5262       5261       5371       5372       5383       5382  
      5251       5252       5263       5262       5372       5373       5384       5383  
      5252       5253       5264       5263       5373       5374       5385       5384  
      5253       5254       5265       5264       5374       5375       5386       5385  
      5254       5255       5266       5265       5375       5376       5387       5386  
      5255       5256       5267       5266       5376       5377       5388       5387  
      5256       5257       5268       5267       5377       5378       5389       5388  
      5257       5258       5269       5268       5378       5379       5390       5389  
      5259       5260       5271       5270       5380       5381       5392       5391  
      5260       5261       5272       5271       5381       5382       5393       5392  
      5261       5262       5273       5272       5382       5383       5394       5393  
      5262       5263       5274       5273       5383       5384       5395       5394  
      5263       5264       5275       5274       5384       5385       5396       5395  
      5264       5265       5276       5275       5385       5386       5397       5396  
      5265       5266       5277       5276       5386       5387       5398       5397  
      5266       5267       5278       5277       5387       5388       5399       5398  
      5267       5268       5279       5278       5388       5389       5400       5399  
      5268       5269       5280       5279       5389       5390       5401       5400  
      5270       5271       5282       5281       5391       5392       5403       5402  
      5271       5272       5283       5282       5392       5393       5404       5403  
      5272       5273       5284       5283       5393       5394       5405       5404  
      5273       5274       5285       5284       5394       5395       5406       5405  
      5274       5275       5286       5285       5395       5396       5407       5406  
      5275       5276       5287       5286       5396       5397       5408       5407  
      5276       5277       5288       5287       5397       5398       5409       5408  
      5277       5278       5289       5288       5398       5399       5410       5409  
      5278       5279       5290       5289       5399       5400       5411       5410  
      5279       5280       5291       5290       5400       5401       5412       5411  
      5281       5282       5293       5292       5402       5403       5414       5413  
      5282       5283       5294       5293       5403       5404       5415       5414  
      5283       5284       5295       5294       5404       5405       5416       5415  
      5284       5285       5296       5295       5405       5406       5417       5416  
      5285       5286       5297       5296       5406       5407       5418       5417  
      5286       5287       5298       5297       5407       5408       5419       5418  
      5287       5288       5299       5298       5408       5409       5420       5419  
      5288       5289       5300       5299       5409       5410       5421       5420  
      5289       5290       5301       5300       5410       5411       5422       5421  
      5290       5291       5302       5301       5411       5412       5423       5422  
      5292       5293       5304       5303       5413       5414       5425       5424  
      5293       5294       5305       5304       5414       5415       5426       5425  
      5294       5295       5306       5305       5415       5416       5427       5426  
      5295       5296       5307       5306       5416       5417       5428       5427  
      5296       5297       5308       5307       5417       5418       5429       5428  
      5297       5298       5309       5308       5418       5419       5430       5429  
      5298       5299       5310       5309       5419       5420       5431       5430  
      5299       5300       5311       5310       5420       5421       5432       5431  
      5300       5301       5312       5311       5421       5422       5433       5432  
      5301       5302       5313       5312       5422       5423       5434       5433  
      5303       5304       5315       5314       5424       5425       5436       5435  
      5304       5305       5316       5315       5425       5426       5437       5436  
      5305       5306       5317       5316       5426       5427       5438       5437  
      5306       5307       5318       5317       5427       5428       5439       5438  
      5307       5308       5319       5318       5428       5429       5440       5439  
      5308       5309       5320       5319       5429       5430       5441       5440  
      5309       5310       5321       5320       5430       5431       5442       5441  
      5310       5311       5322       5321       5431       5432       5443       5442  
      5311       5312       5323       5322       5432       5433       5444       5443  
      5312       5313       5324       5323       5433       5434       5445       5444  
      5325       5326       5337       5336       5446       5447       5458       5457  
      5326       5327       5338       5337       5447       5448       5459       5458  
      5327       5328       5339       5338       5448       5449       5460       5459  
      5328       5329       5340       5339       5449       5450       5461       5460  
      5329       5330       5341       5340       5450       5451       5462       5461  
      5330       5331       5342       5341       5451       5452       5463       5462  
      5331       5332       5343       5342       5452       5453       5464       5463  
      5332       5333       5344       5343       5453       5454       5465       5464  
      5333       5334       5345       5344       5454       5455       5466       5465  
      5334       5335       5346       5345       5455       5456       5467       5466  
      5336       5337       5348       5347       5457       5458       5469       5468  
      5337       5338       5349       5348       5458       5459       5470       5469  
      5338       5339       5350       5349       5459       5460       5471       5470  
      5339       5340       5351       5350       5460       5461       5472       5471  
      5340       5341       5352       5351       5461       5462       5473       5472  
      5341       5342       5353       5352       5462       5463       5474       5473  
      5342       5343       5354       5353       5463       5464       5475       5474  
      5343       5344       5355       5354       5464       5465       5476       5475  
      5344       5345       5356       5355       5465       5466       5477       5476  
      5345       5346       5357       5356       5466       5467       5478       5477  
      5347       5348       5359       5358       5468       5469       5480       5479  
      5348       5349       5360       5359       5469       5470       5481       5480  
      5349       5350       5361       5360       5470       5471       5482       5481  
      5350       5351       5362       5361       5471       5472       5483       5482  
      5351       5352       5363       5362       5472       5473       5484       5483  
      5352       5353       5364       5363       5473       5474       5485       5484  
      5353       5354       5365       5364       5474       5475       5486       5485  
      5354       5355       5366       5365       5475       5476       5487       5486  
      5355       5356       5367       5366       5476       5477       5488       5487  
      5356       5357       5368       5367       5477       5478       5489       5488  
      5358       5359       5370       5369       5479       5480       5491       5490  
      5359       5360       5371       5370       5480       5481       5492       5491  
      5360       5361       5372       5371       5481       5482       5493       5492  
      5361       5362       5373       5372       5482       5483       5494       5493  
      5362       5363       5374       5373       5483       5484       5495       5494  
      5363       5364       5375       5374       5484       5485       5496       5495  
      5364       5365       5376       5375       5485       5486       5497       5496  
      5365       5366       5377       5376       5486       5487       5498       5497  
      5366       5367       5378       5377       5487       5488       5499       5498  
      5367       5368       5379       5378       5488       5489       5500       5499  
      5369       5370       5381       5380       5490       5491       5502       5501  
      5370       5371       5382       5381       5491       5492       5503       5502  
      5371       5372       5383       5382       5492       5493       5504       5503  
      5372       5373       5384       5383       5493       5494       5505       5504  
      5373       5374       5385       5384       5494       5495       5506       5505  
      5374       5375       5386       5385       5495       5496       5507       5506  
      5375       5376       5387       5386       5496       5497       5508       5507  
      5376       5377       5388       5387       5497       5498       5509       5508  
      5377       5378       5389       5388       5498       5499       5510       5509  
      5378       5379       5390       5389       5499       5500       5511       5510  
      5380       5381       5392       5391       5501       5502       5513       5512  
      5381       5382       5393       5392       5502       5503       5514       5513  
      5382       5383       5394       5393       5503       5504       5515       5514  
      5383       5384       5395       5394       5504       5505       5516       5515  
      5384       5385       5396       5395       5505       5506       5517       5516  
      5385       5386       5397       5396       5506       5507       5518       5517  
      5386       5387       5398       5397       5507       5508       5519       5518  
      5387       5388       5399       5398       5508       5509       5520       5519  
      5388       5389       5400       5399       5509       5510       5521       5520  
      5389       5390       5401       5400       5510       5511       5522       5521  
      5391       5392       5403       5402       5512       5513       5524       5523  
      5392       5393       5404       5403       5513       5514       5525       5524  
      5393       5394       5405       5404       5514       5515       5526       5525  
      5394       5395       5406       5405       5515       5516       5527       5526  
      5395       5396       5407       5406       5516       5517       5528       5527  
      5396       5397       5408       5407       5517       5518       5529       5528  
      5397       5398       5409       5408       5518       5519       5530       5529  
      5398       5399       5410       5409       5519       5520       5531       5530  
      5399       5400       5411       5410       5520       5521       5532       5531  
      5400       5401       5412       5411       5521       5522       5533       5532  
      5402       5403       5414       5413       5523       5524       5535       5534  
      5403       5404       5415       5414       5524       5525       5536       5535  
      5404       5405       5416       5415       5525       5526       5537       5536  
      5405       5406       5417       5416       5526       5527       5538       5537  
      5406       5407       5418       5417       5527       5528       5539       5538  
      5407       5408       5419       5418       5528       5529       5540       5539  
      5408       5409       5420       5419       5529       5530       5541       5540  
      5409       5410       5421       5420       5530       5531       5542       5541  
      5410       5411       5422       5421       5531       5532       5543       5542  
      5411       5412       5423       5422       5532       5533       5544       5543  
      5413       5414       5425       5424       5534       5535       5546       5545  
      5414       5415       5426       5425       5535       5536       5547       5546  
      5415       5416       5427       5426       5536       5537       5548       5547  
      5416       5417       5428       5427       5537       5538       5549       5548  
      5417       5418       5429       5428       5538       5539       5550       5549  
      5418       5419       5430       5429       5539       5540       5551       5550  
      5419       5420       5431       5430       5540       5541       5552       5551  
      5420       5421       5432       5431       5541       5542       5553       5552  
      5421       5422       5433       5432       5542       5543       5554       5553  
      5422       5423       5434       5433       5543       5544       5555       5554  
      5424       5425       5436       5435       5545       5546       5557       5556  
      5425       5426       5437       5436       5546       5547       5558       5557  
      5426       5427       5438       5437       5547       5548       5559       5558  
      5427       5428       5439       5438       5548       5549       5560       5559  
      5428       5429       5440       5439       5549       5550       5561       5560  
      5429       5430       5441       5440       5550       5551       5562       5561  
      5430       5431       5442       5441       5551       5552       5563       5562  
      5431       5432       5443       5442       5552       5553       5564       5563  
      5432       5433       5444       5443       5553       5554       5565       5564  
      5433       5434       5445       5444       5554       5555       5566       5565  
      5446       5447       5458       5457       5567       5568       5579       5578  
      5447       5448       5459       5458       5568       5569       5580       5579  
      5448       5449       5460       5459       5569       5570       5581       5580  
      5449       5450       5461       5460       5570       5571       5582       5581  
      5450       5451       5462       5461       5571       5572       5583       5582  
      5451       5452       5463       5462       5572       5573       5584       5583  
      5452       5453       5464       5463       5573       5574       5585       5584  
      5453       5454       5465       5464       5574       5575       5586       5585  
      5454       5455       5466       5465       5575       5576       5587       5586  
      5455       5456       5467       5466       5576       5577       5588       5587  
      5457       5458       5469       5468       5578       5579       5590       5589  
      5458       5459       5470       5469       5579       5580       5591       5590  
      5459       5460       5471       5470       5580       5581       5592       5591  
      5460       5461       5472       5471       5581       5582       5593       5592  
      5461       5462       5473       5472       5582       5583       5594       5593  
      5462       5463       5474       5473       5583       5584       5595       5594  
      5463       5464       5475       5474       5584       5585       5596       5595  
      5464       5465       5476       5475       5585       5586       5597       5596  
      5465       5466       5477       5476       5586       5587       5598       5597  
      5466       5467       5478       5477       5587       5588       5599       5598  
      5468       5469       5480       5479       5589       5590       5601       5600  
      5469       5470       5481       5480       5590       5591       5602       5601  
      5470       5471       5482       5481       5591       5592       5603       5602  
      5471       5472       5483       5482       5592       5593       5604       5603  
      5472       5473       5484       5483       5593       5594       5605       5604  
      5473       5474       5485       5484       5594       5595       5606       5605  
      5474       5475       5486       5485       5595       5596       5607       5606  
      5475       5476       5487       5486       5596       5597       5608       5607  
      5476       5477       5488       5487       5597       5598       5609       5608  
      5477       5478       5489       5488       5598       5599       5610       5609  
      5479       5480       5491       5490       5600       5601       5612       5611  
      5480       5481       5492       5491       5601       5602       5613       5612  
      5481       5482       5493       5492       5602       5603       5614       5613  
      5482       5483       5494       5493       5603       5604       5615       5614  
      5483       5484       5495       5494       5604       5605       5616       5615  
      5484       5485       5496       5495       5605       5606       5617       5616  
      5485       5486       5497       5496       5606       5607       5618       5617  
      5486       5487       5498       5497       5607       5608       5619       5618  
      5487       5488       5499       5498       5608       5609       5620       5619  
      5488       5489       5500       5499       5609       5610       5621       5620  
      5490       5491       5502       5501       5611       5612       5623       5622  
      5491       5492       5503       5502       5612       5613       5624       5623  
      5492       5493       5504       5503       5613       5614       5625       5624  
      5493       5494       5505       5504       5614       5615       5626       5625  
      5494       5495       5506       5505       5615       5616       5627       5626  
      5495       5496       5507       5506       5616       5617       5628       5627  
      5496       5497       5508       5507       5617       5618       5629       5628  
      5497       5498       5509       5508       5618       5619       5630       5629  
      5498       5499       5510       5509       5619       5620       5631       5630  
      5499       5500       5511       5510       5620       5621       5632       5631  
      5501       5502       5513       5512       5622       5623       5634       5633  
      5502       5503       5514       5513       5623       5624       5635       5634  
      5503       5504       5515       5514       5624       5625       5636       5635  
      5504       5505       5516       5515       5625       5626       5637       5636  
      5505       5506       5517       5516       5626       5627       5638       5637  
      5506       5507       5518       5517       5627       5628       5639       5638  
      5507       5508       5519       5518       5628       5629       5640       5639  
      5508       5509       5520       5519       5629       5630       5641       5640  
      5509       5510       5521       5520       5630       5631       5642       5641  
      5510       5511       5522       5521       5631       5632       5643       5642  
      5512       5513       5524       5523       5633       5634       5645       5644  
      5513       5514       5525       5524       5634       5635       5646       5645  
      5514       5515       5526       5525       5635       5636       5647       5646  
      5515       5516       5527       5526       5636       5637       5648       5647  
      5516       5517       5528       5527       5637       5638       5649       5648  
      5517       5518       5529       5528       5638       5639       5650       5649  
      5518       5519       5530       5529       5639       5640       5651       5650  
      5519       5520       5531       5530       5640       5641       5652       5651  
      5520       5521       5532       5531       5641       5642       5653       5652  
      5521       5522       5533       5532       5642       5643       5654       5653  
      5523       5524       5535       5534       5644       5645       5656       5655  
      5524       5525       5536       5535       5645       5646       5657       5656  
      5525       5526       5537       5536       5646       5647       5658       5657  
      5526       5527       5538       5537       5647       5648       5659       5658  
      5527       5528       5539       5538       5648       5649       5660       5659  
      5528       5529       5540       5539       5649       5650       5661       5660  
      5529       5530       5541       5540       5650       5651       5662       5661  
      5530       5531       5542       5541       5651       5652       5663       5662  
      5531       5532       5543       5542       5652       5653       5664       5663  
      5532       5533       5544       5543       5653       5654       5665       5664  
      5534       5535       5546       5545       5655       5656       5667       5666  
      5535       5536       5547       5546       5656       5657       5668       5667  
      5536       5537       5548       5547       5657       5658       5669       5668  
      5537       5538       5549       5548       5658       5659       5670       5669  
      5538       5539       5550       5549       5659       5660       5671       5670  
      5539       5540       5551       5550       5660       5661       5672       5671  
      5540       5541       5552       5551       5661       5662       5673       5672  
      5541       5542       5553       5552       5662       5663       5674       5673  
      5542       5543       5554       5553       5663       5664       5675       5674  
      5543       5544       5555       5554       5664       5665       5676       5675  
      5545       5546       5557       5556       5666       5667       5678       5677  
      5546       5547       5558       5557       5667       5668       5679       5678  
      5547       5548       5559       5558       5668       5669       5680       5679  
      5548       5549       5560       5559       5669       5670       5681       5680  
      5549       5550       5561       5560       5670       5671       5682       5681  
      5550       5551       5562       5561       5671       5672       5683       5682  
      5551       5552       5563       5562       5672       5673       5684       5683  
      5552       5553       5564       5563       5673       5674       5685       5684  
      5553       5554       5565       5564       5674       5675       5686       5685  
      5554       5555       5566       5565       5675       5676       5687       5686  
      5567       5568       5579       5578       5688       5689       5700       5699  
      5568       5569       5580       5579       5689       5690       5701       5700  
      5569       5570       5581       5580       5690       5691       5702       5701  
      5570       5571       5582       5581       5691       5692       5703       5702  
      5571       5572       5583       5582       5692       5693       5704       5703  
      5572       5573       5584       5583       5693       5694       5705       5704  
      5573       5574       5585       5584       5694       5695       5706       5705  
      5574       5575       5586       5585       5695       5696       5707       5706  
      5575       5576       5587       5586       5696       5697       5708       5707  
      5576       5577       5588       5587       5697       5698       5709       5708  
      5578       5579       5590       5589       5699       5700       5711       5710  
      5579       5580       5591       5590       5700       5701       5712       5711  
      5580       5581       5592       5591       5701       5702       5713       5712  
      5581       5582       5593       5592       5702       5703       5714       5713  
      5582       5583       5594       5593       5703       5704       5715       5714  
      5583       5584       5595       5594       5704       5705       5716       5715  
      5584       5585       5596       5595       5705       5706       5717       5716  
      5585       5586       5597       5596       5706       5707       5718       5717  
      5586       5587       5598       5597       5707       5708       5719       5718  
      5587       5588       5599       5598       5708       5709       5720       5719  
      5589       5590       5601       5600       5710       5711       5722       5721  
      5590       5591       5602       5601       5711       5712       5723       5722  
      5591       5592       5603       5602       5712       5713       5724       5723  
      5592       5593       5604       5603       5713       5714       5725       5724  
      5593       5594       5605       5604       5714       5715       5726       5725  
      5594       5595       5606       5605       5715       5716       5727       5726  
      5595       5596       5607       5606       5716       5717       5728       5727  
      5596       5597       5608       5607       5717       5718       5729       5728  
      5597       5598       5609       5608       5718       5719       5730       5729  
      5598       5599       5610       5609       5719       5720       5731       5730  
      5600       5601       5612       5611       5721       5722       5733       5732  
      5601       5602       5613       5612       5722       5723       5734       5733  
      5602       5603       5614       5613       5723       5724       5735       5734  
      5603       5604       5615       5614       5724       5725       5736       5735  
      5604       5605       5616       5615       5725       5726       5737       5736  
      5605       5606       5617       5616       5726       5727       5738       5737  
      5606       5607       5618       5617       5727       5728       5739       5738  
      5607       5608       5619       5618       5728       5729       5740       5739  
      5608       5609       5620       5619       5729       5730       5741       5740  
      5609       5610       5621       5620       5730       5731       5742       5741  
      5611       5612       5623       5622       5732       5733       5744       5743  
      5612       5613       5624       5623       5733       5734       5745       5744  
      5613       5614       5625       5624       5734       5735       5746       5745  
      5614       5615       5626       5625       5735       5736       5747       5746  
      5615       5616       5627       5626       5736       5737       5748       5747  
      5616       5617       5628       5627       5737       5738       5749       5748  
      5617       5618       5629       5628       5738       5739       5750       5749  
      5618       5619       5630       5629       5739       5740       5751       5750  
      5619       5620       5631       5630       5740       5741       5752       5751  
      5620       5621       5632       5631       5741       5742       5753       5752  
      5622       5623       5634       5633       5743       5744       5755       5754  
      5623       5624       5635       5634       5744       5745       5756       5755  
      5624       5625       5636       5635       5745       5746       5757       5756  
      5625       5626       5637       5636       5746       5747       5758       5757  
      5626       5627       5638       5637       5747       5748       5759       5758  
      5627       5628       5639       5638       5748       5749       5760       5759  
      5628       5629       5640       5639       5749       5750       5761       5760  
      5629       5630       5641       5640       5750       5751       5762       5761  
      5630       5631       5642       5641       5751       5752       5763       5762  
      5631       5632       5643       5642       5752       5753       5764       5763  
      5633       5634       5645       5644       5754       5755       5766       5765  
      5634       5635       5646       5645       5755       5756       5767       5766  
      5635       5636       5647       5646       5756       5757       5768       5767  
      5636       5637       5648       5647       5757       5758       5769       5768  
      5637       5638       5649       5648       5758       5759       5770       5769  
      5638       5639       5650       5649       5759       5760       5771       5770  
      5639       5640       5651       5650       5760       5761       5772       5771  
      5640       5641       5652       5651       5761       5762       5773       5772  
      5641       5642       5653       5652       5762       5763       5774       5773  
      5642       5643       5654       5653       5763       5764       5775       5774  
      5644       5645       5656       5655       5765       5766       5777       5776  
      5645       5646       5657       5656       5766       5767       5778       5777  
      5646       5647       5658       5657       5767       5768       5779       5778  
      5647       5648       5659       5658       5768       5769       5780       5779  
      5648       5649       5660       5659       5769       5770       5781       5780  
      5649       5650       5661       5660       5770       5771       5782       5781  
      5650       5651       5662       5661       5771       5772       5783       5782  
      5651       5652       5663       5662       5772       5773       5784       5783  
      5652       5653       5664       5663       5773       5774       5785       5784  
      5653       5654       5665       5664       5774       5775       5786       5785  
      5655       5656       5667       5666       5776       5777       5788       5787  
      5656       5657       5668       5667       5777       5778       5789       5788  
      5657       5658       5669       5668       5778       5779       5790       5789  
      5658       5659       5670       5669       5779       5780       5791       5790  
      5659       5660       5671       5670       5780       5781       5792       5791  
      5660       5661       5672       5671       5781       5782       5793       5792  
      5661       5662       5673       5672       5782       5783       5794       5793  
      5662       5663       5674       5673       5783       5784       5795       5794  
      5663       5664       5675       5674       5784       5785       5796       5795  
      5664       5665       5676       5675       5785       5786       5797       5796  
      5666       5667       5678       5677       5787       5788       5799       5798  
      5667       5668       5679       5678       5788       5789       5800       5799  
      5668       5669       5680       5679       5789       5790       5801       5800  
      5669       5670       5681       5680       5790       5791       5802       5801  
      5670       5671       5682       5681       5791       5792       5803       5802  
      5671       5672       5683       5682       5792       5793       5804       5803  
      5672       5673       5684       5683       5793       5794       5805       5804  
      5673       5674       5685       5684       5794       5795       5806       5805  
      5674       5675       5686       5685       5795       5796       5807       5806  
      5675       5676       5687       5686       5796       5797       5808       5807  
      5688       5689       5700       5699       5809       5810       5821       5820  
      5689       5690       5701       5700       5810       5811       5822       5821  
      5690       5691       5702       5701       5811       5812       5823       5822  
      5691       5692       5703       5702       5812       5813       5824       5823  
      5692       5693       5704       5703       5813       5814       5825       5824  
      5693       5694       5705       5704       5814       5815       5826       5825  
      5694       5695       5706       5705       5815       5816       5827       5826  
      5695       5696       5707       5706       5816       5817       5828       5827  
      5696       5697       5708       5707       5817       5818       5829       5828  
      5697       5698       5709       5708       5818       5819       5830       5829  
      5699       5700       5711       5710       5820       5821       5832       5831  
      5700       5701       5712       5711       5821       5822       5833       5832  
      5701       5702       5713       5712       5822       5823       5834       5833  
      5702       5703       5714       5713       5823       5824       5835       5834  
      5703       5704       5715       5714       5824       5825       5836       5835  
      5704       5705       5716       5715       5825       5826       5837       5836  
      5705       5706       5717       5716       5826       5827       5838       5837  
      5706       5707       5718       5717       5827       5828       5839       5838  
      5707       5708       5719       5718       5828       5829       5840       5839  
      5708       5709       5720       5719       5829       5830       5841       5840  
      5710       5711       5722       5721       5831       5832       5843       5842  
      5711       5712       5723       5722       5832       5833       5844       5843  
      5712       5713       5724       5723       5833       5834       5845       5844  
      5713       5714       5725       5724       5834       5835       5846       5845  
      5714       5715       5726       5725       5835       5836       5847       5846  
      5715       5716       5727       5726       5836       5837       5848       5847  
      5716       5717       5728       5727       5837       5838       5849       5848  
      5717       5718       5729       5728       5838       5839       5850       5849  
      5718       5719       5730       5729       5839       5840       5851       5850  
      5719       5720       5731       5730       5840       5841       5852       5851  
      5721       5722       5733       5732       5842       5843       5854       5853  
      5722       5723       5734       5733       5843       5844       5855       5854  
      5723       5724       5735       5734       5844       5845       5856       5855  
      5724       5725       5736       5735       5845       5846       5857       5856  
      5725       5726       5737       5736       5846       5847       5858       5857  
      5726       5727       5738       5737       5847       5848       5859       5858  
      5727       5728       5739       5738       5848       5849       5860       5859  
      5728       5729       5740       5739       5849       5850       5861       5860  
      5729       5730       5741       5740       5850       5851       5862       5861  
      5730       5731       5742       5741       5851       5852       5863       5862  
      5732       5733       5744       5743       5853       5854       5865       5864  
      5733       5734       5745       5744       5854       5855       5866       5865  
      5734       5735       5746       5745       5855       5856       5867       5866  
      5735       5736       5747       5746       5856       5857       5868       5867  
      5736       5737       5748       5747       5857       5858       5869       5868  
      5737       5738       5749       5748       5858       5859       5870       5869  
      5738       5739       5750       5749       5859       5860       5871       5870  
      5739       5740       5751       5750       5860       5861       5872       5871  
      5740       5741       5752       5751       5861       5862       5873       5872  
      5741       5742       5753       5752       5862       5863       5874       5873  
      5743       5744       5755       5754       5864       5865       5876       5875  
      5744       5745       5756       5755       5865       5866       5877       5876  
      5745       5746       5757       5756       5866       5867       5878       5877  
      5746       5747       5758       5757       5867       5868       5879       5878  
      5747       5748       5759       5758       5868       5869       5880       5879  
      5748       5749       5760       5759       5869       5870       5881       5880  
      5749       5750       5761       5760       5870       5871       5882       5881  
      5750       5751       5762       5761       5871       5872       5883       5882  
      5751       5752       5763       5762       5872       5873       5884       5883  
      5752       5753       5764       5763       5873       5874       5885       5884  
      5754       5755       5766       5765       5875       5876       5887       5886  
      5755       5756       5767       5766       5876       5877       5888       5887  
      5756       5757       5768       5767       5877       5878       5889       5888  
      5757       5758       5769       5768       5878       5879       5890       5889  
      5758       5759       5770       5769       5879       5880       5891       5890  
      5759       5760       5771       5770       5880       5881       5892       5891  
      5760       5761       5772       5771       5881       5882       5893       5892  
      5761       5762       5773       5772       5882       5883       5894       5893  
      5762       5763       5774       5773       5883       5884       5895       5894  
      5763       5764       5775       5774       5884       5885       5896       5895  
      5765       5766       5777       5776       5886       5887       5898       5897  
      5766       5767       5778       5777       5887       5888       5899       5898  
      5767       5768       5779       5778       5888       5889       5900       5899  
      5768       5769       5780       5779       5889       5890       5901       5900  
      5769       5770       5781       5780       5890       5891       5902       5901  
      5770       5771       5782       5781       5891       5892       5903       5902  
      5771       5772       5783       5782       5892       5893       5904       5903  
      5772       5773       5784       5783       5893       5894       5905       5904  
      5773       5774       5785       5784       5894       5895       5906       5905  
      5774       5775       5786       5785       5895       5896       5907       5906  
      5776       5777       5788       5787       5897       5898       5909       5908  
      5777       5778       5789       5788       5898       5899       5910       5909  
      5778       5779       5790       5789       5899       5900       5911       5910  
      5779       5780       5791       5790       5900       5901       5912       5911  
      5780       5781       5792       5791       5901       5902       5913       5912  
      5781       5782       5793       5792       5902       5903       5914       5913  
      5782       5783       5794       5793       5903       5904       5915       5914  
      5783       5784       5795       5794       5904       5905       5916       5915  
      5784       5785       5796       5795       5905       5906       5917       5916  
      5785       5786       5797       5796       5906       5907       5918       5917  
      5787       5788       5799       5798       5908       5909       5920       5919  
      5788       5789       5800       5799       5909       5910       5921       5920  
      5789       5790       5801       5800       5910       5911       5922       5921  
      5790       5791       5802       5801       5911       5912       5923       5922  
      5791       5792       5803       5802       5912       5913       5924       5923  
      5792       5793       5804       5803       5913       5914       5925       5924  
      5793       5794       5805       5804       5914       5915       5926       5925  
      5794       5795       5806       5805       5915       5916       5927       5926  
      5795       5796       5807       5806       5916       5917       5928       5927  
      5796       5797       5808       5807       5917       5918       5929       5928  
      5809       5810       5821       5820       5930       5931       5942       5941  
      5810       5811       5822       5821       5931       5932       5943       5942  
      5811       5812       5823       5822       5932       5933       5944       5943  
      5812       5813       5824       5823       5933       5934       5945       5944  
      5813       5814       5825       5824       5934       5935       5946       5945  
      5814       5815       5826       5825       5935       5936       5947       5946  
      5815       5816       5827       5826       5936       5937       5948       5947  
      5816       5817       5828       5827       5937       5938       5949       5948  
      5817       5818       5829       5828       5938       5939       5950       5949  
      5818       5819       5830       5829       5939       5940       5951       5950  
      5820       5821       5832       5831       5941       5942       5953       5952  
      5821       5822       5833       5832       5942       5943       5954       5953  
      5822       5823       5834       5833       5943       5944       5955       5954  
      5823       5824       5835       5834       5944       5945       5956       5955  
      5824       5825       5836       5835       5945       5946       5957       5956  
      5825       5826       5837       5836       5946       5947       5958       5957  
      5826       5827       5838       5837       5947       5948       5959       5958  
      5827       5828       5839       5838       5948       5949       5960       5959  
      5828       5829       5840       5839       5949       5950       5961       5960  
      5829       5830       5841       5840       5950       5951       5962       5961  
      5831       5832       5843       5842       5952       5953       5964       5963  
      5832       5833       5844       5843       5953       5954       5965       5964  
      5833       5834       5845       5844       5954       5955       5966       5965  
      5834       5835       5846       5845       5955       5956       5967       5966  
      5835       5836       5847       5846       5956       5957       5968       5967  
      5836       5837       5848       5847       5957       5958       5969       5968  
      5837       5838       5849       5848       5958       5959       5970       5969  
      5838       5839       5850       5849       5959       5960       5971       5970  
      5839       5840       5851       5850       5960       5961       5972       5971  
      5840       5841       5852       5851       5961       5962       5973       5972  
      5842       5843       5854       5853       5963       5964       5975       5974  
      5843       5844       5855       5854       5964       5965       5976       5975  
      5844       5845       5856       5855       5965       5966       5977       5976  
      5845       5846       5857       5856       5966       5967       5978       5977  
      5846       5847       5858       5857       5967       5968       5979       5978  
      5847       5848       5859       5858       5968       5969       5980       5979  
      5848       5849       5860       5859       5969       5970       5981       5980  
      5849       5850       5861       5860       5970       5971       5982       5981  
      5850       5851       5862       5861       5971       5972       5983       5982  
      5851       5852       5863       5862       5972       5973       5984       5983  
      5853       5854       5865       5864       5974       5975       5986       5985  
      5854       5855       5866       5865       5975       5976       5987       5986  
      5855       5856       5867       5866       5976       5977       5988       5987  
      5856       5857       5868       5867       5977       5978       5989       5988  
      5857       5858       5869       5868       5978       5979       5990       5989  
      5858       5859       5870       5869       5979       5980       5991       5990  
      5859       5860       5871       5870       5980       5981       5992       5991  
      5860       5861       5872       5871       5981       5982       5993       5992  
      5861       5862       5873       5872       5982       5983       5994       5993  
      5862       5863       5874       5873       5983       5984       5995       5994  
      5864       5865       5876       5875       5985       5986       5997       5996  
      5865       5866       5877       5876       5986       5987       5998       5997  
      5866       5867       5878       5877       5987       5988       5999       5998  
      5867       5868       5879       5878       5988       5989       6000       5999  
      5868       5869       5880       5879       5989       5990       6001       6000  
      5869       5870       5881       5880       5990       5991       6002       6001  
      5870       5871       5882       5881       5991       5992       6003       6002  
      5871       5872       5883       5882       5992       5993       6004       6003  
      5872       5873       5884       5883       5993       5994       6005       6004  
      5873       5874       5885       5884       5994       5995       6006       6005  
      5875       5876       5887       5886       5996       5997       6008       6007  
      5876       5877       5888       5887       5997       5998       6009       6008  
      5877       5878       5889       5888       5998       5999       6010       6009  
      5878       5879       5890       5889       5999       6000       6011       6010  
      5879       5880       5891       5890       6000       6001       6012       6011  
      5880       5881       5892       5891       6001       6002       6013       6012  
      5881       5882       5893       5892       6002       6003       6014       6013  
      5882       5883       5894       5893       6003       6004       6015       6014  
      5883       5884       5895       5894       6004       6005       6016       6015  
      5884       5885       5896       5895       6005       6006       6017       6016  
      5886       5887       5898       5897       6007       6008       6019       6018  
      5887       5888       5899       5898       6008       6009       6020       6019  
      5888       5889       5900       5899       6009       6010       6021       6020  
      5889       5890       5901       5900       6010       6011       6022       6021  
      5890       5891       5902       5901       6011       6012       6023       6022  
      5891       5892       5903       5902       6012       6013       6024       6023  
      5892       5893       5904       5903       6013       6014       6025       6024  
      5893       5894       5905       5904       6014       6015       6026       6025  
      5894       5895       5906       5905       6015       6016       6027       6026  
      5895       5896       5907       5906       6016       6017       6028       6027  
      5897       5898       5909       5908       6018       6019       6030       6029  
      5898       5899       5910       5909       6019       6020       6031       6030  
      5899       5900       5911       5910       6020       6021       6032       6031  
      5900       5901       5912       5911       6021       6022       6033       6032  
      5901       5902       5913       5912       6022       6023       6034       6033  
      5902       5903       5914       5913       6023       6024       6035       6034  
      5903       5904       5915       5914       6024       6025       6036       6035  
      5904       5905       5916       5915       6025       6026       6037       6036  
      5905       5906       5917       5916       6026       6027       6038       6037  
      5906       5907       5918       5917       6027       6028       6039       6038  
      5908       5909       5920       5919       6029       6030       6041       6040  
      5909       5910       5921       5920       6030       6031       6042       6041  
      5910       5911       5922       5921       6031       6032       6043       6042  
      5911       5912       5923       5922       6032       6033       6044       6043  
      5912       5913       5924       5923       6033       6034       6045       6044  
      5913       5914       5925       5924       6034       6035       6046       6045  
      5914       5915       5926       5925       6035       6036       6047       6046  
      5915       5916       5927       5926       6036       6037       6048       6047  
      5916       5917       5928       5927       6037       6038       6049       6048  
      5917       5918       5929       5928       6038       6039       6050       6049  
      5930       5931       5942       5941       6051       6052       6063       6062  
      5931       5932       5943       5942       6052       6053       6064       6063  
      5932       5933       5944       5943       6053       6054       6065       6064  
      5933       5934       5945       5944       6054       6055       6066       6065  
      5934       5935       5946       5945       6055       6056       6067       6066  
      5935       5936       5947       5946       6056       6057       6068       6067  
      5936       5937       5948       5947       6057       6058       6069       6068  
      5937       5938       5949       5948       6058       6059       6070       6069  
      5938       5939       5950       5949       6059       6060       6071       6070  
      5939       5940       5951       5950       6060       6061       6072       6071  
      5941       5942       5953       5952       6062       6063       6074       6073  
      5942       5943       5954       5953       6063       6064       6075       6074  
      5943       5944       5955       5954       6064       6065       6076       6075  
      5944       5945       5956       5955       6065       6066       6077       6076  
      5945       5946       5957       5956       6066       6067       6078       6077  
      5946       5947       5958       5957       6067       6068       6079       6078  
      5947       5948       5959       5958       6068       6069       6080       6079  
      5948       5949       5960       5959       6069       6070       6081       6080  
      5949       5950       5961       5960       6070       6071       6082       6081  
      5950       5951       5962       5961       6071       6072       6083       6082  
      5952       5953       5964       5963       6073       6074       6085       6084  
      5953       5954       5965       5964       6074       6075       6086       6085  
      5954       5955       5966       5965       6075       6076       6087       6086  
      5955       5956       5967       5966       6076       6077       6088       6087  
      5956       5957       5968       5967       6077       6078       6089       6088  
      5957       5958       5969       5968       6078       6079       6090       6089  
      5958       5959       5970       5969       6079       6080       6091       6090  
      5959       5960       5971       5970       6080       6081       6092       6091  
      5960       5961       5972       5971       6081       6082       6093       6092  
      5961       5962       5973       5972       6082       6083       6094       6093  
      5963       5964       5975       5974       6084       6085       6096       6095  
      5964       5965       5976       5975       6085       6086       6097       6096  
      5965       5966       5977       5976       6086       6087       6098       6097  
      5966       5967       5978       5977       6087       6088       6099       6098  
      5967       5968       5979       5978       6088       6089       6100       6099  
      5968       5969       5980       5979       6089       6090       6101       6100  
      5969       5970       5981       5980       6090       6091       6102       6101  
      5970       5971       5982       5981       6091       6092       6103       6102  
      5971       5972       5983       5982       6092       6093       6104       6103  
      5972       5973       5984       5983       6093       6094       6105       6104  
      5974       5975       5986       5985       6095       6096       6107       6106  
      5975       5976       5987       5986       6096       6097       6108       6107  
      5976       5977       5988       5987       6097       6098       6109       6108  
      5977       5978       5989       5988       6098       6099       6110       6109  
      5978       5979       5990       5989       6099       6100       6111       6110  
      5979       5980       5991       5990       6100       6101       6112       6111  
      5980       5981       5992       5991       6101       6102       6113       6112  
      5981       5982       5993       5992       6102       6103       6114       6113  
      5982       5983       5994       5993       6103       6104       6115       6114  
      5983       5984       5995       5994       6104       6105       6116       6115  
      5985       5986       5997       5996       6106       6107       6118       6117  
      5986       5987       5998       5997       6107       6108       6119       6118  
      5987       5988       5999       5998       6108       6109       6120       6119  
      5988       5989       6000       5999       6109       6110       6121       6120  
      5989       5990       6001       6000       6110       6111       6122       6121  
      5990       5991       6002       6001       6111       6112       6123       6122  
      5991       5992       6003       6002       6112       6113       6124       6123  
      5992       5993       6004       6003       6113       6114       6125       6124  
      5993       5994       6005       6004       6114       6115       6126       6125  
      5994       5995       6006       6005       6115       6116       6127       6126  
      5996       5997       6008       6007       6117       6118       6129       6128  
      5997       5998       6009       6008       6118       6119       6130       6129  
      5998       5999       6010       6009       6119       6120       6131       6130  
      5999       6000       6011       6010       6120       6121       6132       6131  
      6000       6001       6012       6011       6121       6122       6133       6132  
      6001       6002       6013       6012       6122       6123       6134       6133  
      6002       6003       6014       6013       6123       6124       6135       6134  
      6003       6004       6015       6014       6124       6125       6136       6135  
      6004       6005       6016       6015       6125       6126       6137       6136  
      6005       6006       6017       6016       6126       6127       6138       6137  
      6007       6008       6019       6018       6128       6129       6140       6139  
      6008       6009       6020       6019       6129       6130       6141       6140  
      6009       6010       6021       6020       6130       6131       6142       6141  
      6010       6011       6022       6021       6131       6132       6143       6142  
      6011       6012       6023       6022       6132       6133       6144       6143  
      6012       6013       6024       6023       6133       6134       6145       6144  
      6013       6014       6025       6024       6134       6135       6146       6145  
      6014       6015       6026       6025       6135       6136       6147       6146  
      6015       6016       6027       6026       6136       6137       6148       6147  
      6016       6017       6028       6027       6137       6138       6149       6148  
      6018       6019       6030       6029       6139       6140       6151       6150  
      6019       6020       6031       6030       6140       6141       6152       6151  
      6020       6021       6032       6031       6141       6142       6153       6152  
      6021       6022       6033       6032       6142       6143       6154       6153  
      6022       6023       6034       6033       6143       6144       6155       6154  
      6023       6024       6035       6034       6144       6145       6156       6155  
      6024       6025       6036       6035       6145       6146       6157       6156  
      6025       6026       6037       6036       6146       6147       6158       6157  
      6026       6027       6038       6037       6147       6148       6159       6158  
      6027       6028       6039       6038       6148       6149       6160       6159  
      6029       6030       6041       6040       6150       6151       6162       6161  
      6030       6031       6042       6041       6151       6152       6163       6162  
      6031       6032       6043       6042       6152       6153       6164       6163  
      6032       6033       6044       6043       6153       6154       6165       6164  
      6033       6034       6045       6044       6154       6155       6166       6165  
      6034       6035       6046       6045       6155       6156       6167       6166  
      6035       6036       6047       6046       6156       6157       6168       6167  
      6036       6037       6048       6047       6157       6158       6169       6168  
      6037       6038       6049       6048       6158       6159       6170       6169  
      6038       6039       6050       6049       6159       6160       6171       6170  
      6051       6052       6063       6062       6172       6173       6184       6183  
      6052       6053       6064       6063       6173       6174       6185       6184  
      6053       6054       6065       6064       6174       6175       6186       6185  
      6054       6055       6066       6065       6175       6176       6187       6186  
      6055       6056       6067       6066       6176       6177       6188       6187  
      6056       6057       6068       6067       6177       6178       6189       6188  
      6057       6058       6069       6068       6178       6179       6190       6189  
      6058       6059       6070       6069       6179       6180       6191       6190  
      6059       6060       6071       6070       6180       6181       6192       6191  
      6060       6061       6072       6071       6181       6182       6193       6192  
      6062       6063       6074       6073       6183       6184       6195       6194  
      6063       6064       6075       6074       6184       6185       6196       6195  
      6064       6065       6076       6075       6185       6186       6197       6196  
      6065       6066       6077       6076       6186       6187       6198       6197  
      6066       6067       6078       6077       6187       6188       6199       6198  
      6067       6068       6079       6078       6188       6189       6200       6199  
      6068       6069       6080       6079       6189       6190       6201       6200  
      6069       6070       6081       6080       6190       6191       6202       6201  
      6070       6071       6082       6081       6191       6192       6203       6202  
      6071       6072       6083       6082       6192       6193       6204       6203  
      6073       6074       6085       6084       6194       6195       6206       6205  
      6074       6075       6086       6085       6195       6196       6207       6206  
      6075       6076       6087       6086       6196       6197       6208       6207  
      6076       6077       6088       6087       6197       6198       6209       6208  
      6077       6078       6089       6088       6198       6199       6210       6209  
      6078       6079       6090       6089       6199       6200       6211       6210  
      6079       6080       6091       6090       6200       6201       6212       6211  
      6080       6081       6092       6091       6201       6202       6213       6212  
      6081       6082       6093       6092       6202       6203       6214       6213  
      6082       6083       6094       6093       6203       6204       6215       6214  
      6084       6085       6096       6095       6205       6206       6217       6216  
      6085       6086       6097       6096       6206       6207       6218       6217  
      6086       6087       6098       6097       6207       6208       6219       6218  
      6087       6088       6099       6098       6208       6209       6220       6219  
      6088       6089       6100       6099       6209       6210       6221       6220  
      6089       6090       6101       6100       6210       6211       6222       6221  
      6090       6091       6102       6101       6211       6212       6223       6222  
      6091       6092       6103       6102       6212       6213       6224       6223  
      6092       6093       6104       6103       6213       6214       6225       6224  
      6093       6094       6105       6104       6214       6215       6226       6225  
      6095       6096       6107       6106       6216       6217       6228       6227  
      6096       6097       6108       6107       6217       6218       6229       6228  
      6097       6098       6109       6108       6218       6219       6230       6229  
      6098       6099       6110       6109       6219       6220       6231       6230  
      6099       6100       6111       6110       6220       6221       6232       6231  
      6100       6101       6112       6111       6221       6222       6233       6232  
      6101       6102       6113       6112       6222       6223       6234       6233  
      6102       6103       6114       6113       6223       6224       6235       6234  
      6103       6104       6115       6114       6224       6225       6236       6235  
      6104       6105       6116       6115       6225       6226       6237       6236  
      6106       6107       6118       6117       6227       6228       6239       6238  
      6107       6108       6119       6118       6228       6229       6240       6239  
      6108       6109       6120       6119       6229       6230       6241       6240  
      6109       6110       6121       6120       6230       6231       6242       6241  
      6110       6111       6122       6121       6231       6232       6243       6242  
      6111       6112       6123       6122       6232       6233       6244       6243  
      6112       6113       6124       6123       6233       6234       6245       6244  
      6113       6114       6125       6124       6234       6235       6246       6245  
      6114       6115       6126       6125       6235       6236       6247       6246  
      6115       6116       6127       6126       6236       6237       6248       6247  
      6117       6118       6129       6128       6238       6239       6250       6249  
      6118       6119       6130       6129       6239       6240       6251       6250  
      6119       6120       6131       6130       6240       6241       6252       6251  
      6120       6121       6132       6131       6241       6242       6253       6252  
      6121       6122       6133       6132       6242       6243       6254       6253  
      6122       6123       6134       6133       6243       6244       6255       6254  
      6123       6124       6135       6134       6244       6245       6256       6255  
      6124       6125       6136       6135       6245       6246       6257       6256  
      6125       6126       6137       6136       6246       6247       6258       6257  
      6126       6127       6138       6137       6247       6248       6259       6258  
      6128       6129       6140       6139       6249       6250       6261       6260  
      6129       6130       6141       6140       6250       6251       6262       6261  
      6130       6131       6142       6141       6251       6252       6263       6262  
      6131       6132       6143       6142       6252       6253       6264       6263  
      6132       6133       6144       6143       6253       6254       6265       6264  
      6133       6134       6145       6144       6254       6255       6266       6265  
      6134       6135       6146       6145       6255       6256       6267       6266  
      6135       6136       6147       6146       6256       6257       6268       6267  
      6136       6137       6148       6147       6257       6258       6269       6268  
      6137       6138       6149       6148       6258       6259       6270       6269  
      6139       6140       6151       6150       6260       6261       6272       6271  
      6140       6141       6152       6151       6261       6262       6273       6272  
      6141       6142       6153       6152       6262       6263       6274       6273  
      6142       6143       6154       6153       6263       6264       6275       6274  
      6143       6144       6155       6154       6264       6265       6276       6275  
      6144       6145       6156       6155       6265       6266       6277       6276  
      6145       6146       6157       6156       6266       6267       6278       6277  
      6146       6147       6158       6157       6267       6268       6279       6278  
      6147       6148       6159       6158       6268       6269       6280       6279  
      6148       6149       6160       6159       6269       6270       6281       6280  
      6150       6151       6162       6161       6271       6272       6283       6282  
      6151       6152       6163       6162       6272       6273       6284       6283  
      6152       6153       6164       6163       6273       6274       6285       6284  
      6153       6154       6165       6164       6274       6275       6286       6285  
      6154       6155       6166       6165       6275       6276       6287       6286  
      6155       6156       6167       6166       6276       6277       6288       6287  
      6156       6157       6168       6167       6277       6278       6289       6288  
      6157       6158       6169       6168       6278       6279       6290       6289  
      6158       6159       6170       6169       6279       6280       6291       6290  
      6159       6160       6171       6170       6280       6281       6292       6291  
      6172       6173       6184       6183       6293       6294       6305       6304  
      6173       6174       6185       6184       6294       6295       6306       6305  
      6174       6175       6186       6185       6295       6296       6307       6306  
      6175       6176       6187       6186       6296       6297       6308       6307  
      6176       6177       6188       6187       6297       6298       6309       6308  
      6177       6178       6189       6188       6298       6299       6310       6309  
      6178       6179       6190       6189       6299       6300       6311       6310  
      6179       6180       6191       6190       6300       6301       6312       6311  
      6180       6181       6192       6191       6301       6302       6313       6312  
      6181       6182       6193       6192       6302       6303       6314       6313  
      6183       6184       6195       6194       6304       6305       6316       6315  
      6184       6185       6196       6195       6305       6306       6317       6316  
      6185       6186       6197       6196       6306       6307       6318       6317  
      6186       6187       6198       6197       6307       6308       6319       6318  
      6187       6188       6199       6198       6308       6309       6320       6319  
      6188       6189       6200       6199       6309       6310       6321       6320  
      6189       6190       6201       6200       6310       6311       6322       6321  
      6190       6191       6202       6201       6311       6312       6323       6322  
      6191       6192       6203       6202       6312       6313       6324       6323  
      6192       6193       6204       6203       6313       6314       6325       6324  
      6194       6195       6206       6205       6315       6316       6327       6326  
      6195       6196       6207       6206       6316       6317       6328       6327  
      6196       6197       6208       6207       6317       6318       6329       6328  
      6197       6198       6209       6208       6318       6319       6330       6329  
      6198       6199       6210       6209       6319       6320       6331       6330  
      6199       6200       6211       6210       6320       6321       6332       6331  
      6200       6201       6212       6211       6321       6322       6333       6332  
      6201       6202       6213       6212       6322       6323       6334       6333  
      6202       6203       6214       6213       6323       6324       6335       6334  
      6203       6204       6215       6214       6324       6325       6336       6335  
      6205       6206       6217       6216       6326       6327       6338       6337  
      6206       6207       6218       6217       6327       6328       6339       6338  
      6207       6208       6219       6218       6328       6329       6340       6339  
      6208       6209       6220       6219       6329       6330       6341       6340  
      6209       6210       6221       6220       6330       6331       6342       6341  
      6210       6211       6222       6221       6331       6332       6343       6342  
      6211       6212       6223       6222       6332       6333       6344       6343  
      6212       6213       6224       6223       6333       6334       6345       6344  
      6213       6214       6225       6224       6334       6335       6346       6345  
      6214       6215       6226       6225       6335       6336       6347       6346  
      6216       6217       6228       6227       6337       6338       6349       6348  
      6217       6218       6229       6228       6338       6339       6350       6349  
      6218       6219       6230       6229       6339       6340       6351       6350  
      6219       6220       6231       6230       6340       6341       6352       6351  
      6220       6221       6232       6231       6341       6342       6353       6352  
      6221       6222       6233       6232       6342       6343       6354       6353  
      6222       6223       6234       6233       6343       6344       6355       6354  
      6223       6224       6235       6234       6344       6345       6356       6355  
      6224       6225       6236       6235       6345       6346       6357       6356  
      6225       6226       6237       6236       6346       6347       6358       6357  
      6227       6228       6239       6238       6348       6349       6360       6359  
      6228       6229       6240       6239       6349       6350       6361       6360  
      6229       6230       6241       6240       6350       6351       6362       6361  
      6230       6231       6242       6241       6351       6352       6363       6362  
      6231       6232       6243       6242       6352       6353       6364       6363  
      6232       6233       6244       6243       6353       6354       6365       6364  
      6233       6234       6245       6244       6354       6355       6366       6365  
      6234       6235       6246       6245       6355       6356       6367       6366  
      6235       6236       6247       6246       6356       6357       6368       6367  
      6236       6237       6248       6247       6357       6358       6369       6368  
      6238       6239       6250       6249       6359       6360       6371       6370  
      6239       6240       6251       6250       6360       6361       6372       6371  
      6240       6241       6252       6251       6361       6362       6373       6372  
      6241       6242       6253       6252       6362       6363       6374       6373  
      6242       6243       6254       6253       6363       6364       6375       6374  
      6243       6244       6255       6254       6364       6365       6376       6375  
      6244       6245       6256       6255       6365       6366       6377       6376  
      6245       6246       6257       6256       6366       6367       6378       6377  
      6246       6247       6258       6257       6367       6368       6379       6378  
      6247       6248       6259       6258       6368       6369       6380       6379  
      6249       6250       6261       6260       6370       6371       6382       6381  
      6250       6251       6262       6261       6371       6372       6383       6382  
      6251       6252       6263       6262       6372       6373       6384       6383  
      6252       6253       6264       6263       6373       6374       6385       6384  
      6253       6254       6265       6264       6374       6375       6386       6385  
      6254       6255       6266       6265       6375       6376       6387       6386  
      6255       6256       6267       6266       6376       6377       6388       6387  
      6256       6257       6268       6267       6377       6378       6389       6388  
      6257       6258       6269       6268       6378       6379       6390       6389  
      6258       6259       6270       6269       6379       6380       6391       6390  
      6260       6261       6272       6271       6381       6382       6393       6392  
      6261       6262       6273       6272       6382       6383       6394       6393  
      6262       6263       6274       6273       6383       6384       6395       6394  
      6263       6264       6275       6274       6384       6385       6396       6395  
      6264       6265       6276       6275       6385       6386       6397       6396  
      6265       6266       6277       6276       6386       6387       6398       6397  
      6266       6267       6278       6277       6387       6388       6399       6398  
      6267       6268       6279       6278       6388       6389       6400       6399  
      6268       6269       6280       6279       6389       6390       6401       6400  
      6269       6270       6281       6280       6390       6391       6402       6401  
      6271       6272       6283       6282       6392       6393       6404       6403  
      6272       6273       6284       6283       6393       6394       6405       6404  
      6273       6274       6285       6284       6394       6395       6406       6405  
      6274       6275       6286       6285       6395       6396       6407       6406  
      6275       6276       6287       6286       6396       6397       6408       6407  
      6276       6277       6288       6287       6397       6398       6409       6408  
      6277       6278       6289       6288       6398       6399       6410       6409  
      6278       6279       6290       6289       6399       6400       6411       6410  
      6279       6280       6291       6290       6400       6401       6412       6411  
      6280       6281       6292       6291       6401       6402       6413       6412  
      6293       6294       6305       6304       6414       6415       6426       6425  
      6294       6295       6306       6305       6415       6416       6427       6426  
      6295       6296       6307       6306       6416       6417       6428       6427  
      6296       6297       6308       6307       6417       6418       6429       6428  
      6297       6298       6309       6308       6418       6419       6430       6429  
      6298       6299       6310       6309       6419       6420       6431       6430  
      6299       6300       6311       6310       6420       6421       6432       6431  
      6300       6301       6312       6311       6421       6422       6433       6432  
      6301       6302       6313       6312       6422       6423       6434       6433  
      6302       6303       6314       6313       6423       6424       6435       6434  
      6304       6305       6316       6315       6425       6426       6437       6436  
      6305       6306       6317       6316       6426       6427       6438       6437  
      6306       6307       6318       6317       6427       6428       6439       6438  
      6307       6308       6319       6318       6428       6429       6440       6439  
      6308       6309       6320       6319       6429       6430       6441       6440  
      6309       6310       6321       6320       6430       6431       6442       6441  
      6310       6311       6322       6321       6431       6432       6443       6442  
      6311       6312       6323       6322       6432       6433       6444       6443  
      6312       6313       6324       6323       6433       6434       6445       6444  
      6313       6314       6325       6324       6434       6435       6446       6445  
      6315       6316       6327       6326       6436       6437       6448       6447  
      6316       6317       6328       6327       6437       6438       6449       6448  
      6317       6318       6329       6328       6438       6439       6450       6449  
      6318       6319       6330       6329       6439       6440       6451       6450  
      6319       6320       6331       6330       6440       6441       6452       6451  
      6320       6321       6332       6331       6441       6442       6453       6452  
      6321       6322       6333       6332       6442       6443       6454       6453  
      6322       6323       6334       6333       6443       6444       6455       6454  
      6323       6324       6335       6334       6444       6445       6456       6455  
      6324       6325       6336       6335       6445       6446       6457       6456  
      6326       6327       6338       6337       6447       6448       6459       6458  
      6327       6328       6339       6338       6448       6449       6460       6459  
      6328       6329       6340       6339       6449       6450       6461       6460  
      6329       6330       6341       6340       6450       6451       6462       6461  
      6330       6331       6342       6341       6451       6452       6463       6462  
      6331       6332       6343       6342       6452       6453       6464       6463  
      6332       6333       6344       6343       6453       6454       6465       6464  
      6333       6334       6345       6344       6454       6455       6466       6465  
      6334       6335       6346       6345       6455       6456       6467       6466  
      6335       6336       6347       6346       6456       6457       6468       6467  
      6337       6338       6349       6348       6458       6459       6470       6469  
      6338       6339       6350       6349       6459       6460       6471       6470  
      6339       6340       6351       6350       6460       6461       6472       6471  
      6340       6341       6352       6351       6461       6462       6473       6472  
      6341       6342       6353       6352       6462       6463       6474       6473  
      6342       6343       6354       6353       6463       6464       6475       6474  
      6343       6344       6355       6354       6464       6465       6476       6475  
      6344       6345       6356       6355       6465       6466       6477       6476  
      6345       6346       6357       6356       6466       6467       6478       6477  
      6346       6347       6358       6357       6467       6468       6479       6478  
      6348       6349       6360       6359       6469       6470       6481       6480  
      6349       6350       6361       6360       6470       6471       6482       6481  
      6350       6351       6362       6361       6471       6472       6483       6482  
      6351       6352       6363       6362       6472       6473       6484       6483  
      6352       6353       6364       6363       6473       6474       6485       6484  
      6353       6354       6365       6364       6474       6475       6486       6485  
      6354       6355       6366       6365       6475       6476       6487       6486  
      6355       6356       6367       6366       6476       6477       6488       6487  
      6356       6357       6368       6367       6477       6478       6489       6488  
      6357       6358       6369       6368       6478       6479       6490       6489  
      6359       6360       6371       6370       6480       6481       6492       6491  
      6360       6361       6372       6371       6481       6482       6493       6492  
      6361       6362       6373       6372       6482       6483       6494       6493  
      6362       6363       6374       6373       6483       6484       6495       6494  
      6363       6364       6375       6374       6484       6485       6496       6495  
      6364       6365       6376       6375       6485       6486       6497       6496  
      6365       6366       6377       6376       6486       6487       6498       6497  
      6366       6367       6378       6377       6487       6488       6499       6498  
      6367       6368       6379       6378       6488       6489       6500       6499  
      6368       6369       6380       6379       6489       6490       6501       6500  
      6370       6371       6382       6381       6491       6492       6503       6502  
      6371       6372       6383       6382       6492       6493       6504       6503  
      6372       6373       6384       6383       6493       6494       6505       6504  
      6373       6374       6385       6384       6494       6495       6506       6505  
      6374       6375       6386       6385       6495       6496       6507       6506  
      6375       6376       6387       6386       6496       6497       6508       6507  
      6376       6377       6388       6387       6497       6498       6509       6508  
      6377       6378       6389       6388       6498       6499       6510       6509  
      6378       6379       6390       6389       6499       6500       6511       6510  
      6379       6380       6391       6390       6500       6501       6512       6511  
      6381       6382       6393       6392       6502       6503       6514       6513  
      6382       6383       6394       6393       6503       6504       6515       6514  
      6383       6384       6395       6394       6504       6505       6516       6515  
      6384       6385       6396       6395       6505       6506       6517       6516  
      6385       6386       6397       6396       6506       6507       6518       6517  
      6386       6387       6398       6397       6507       6508       6519       6518  
      6387       6388       6399       6398       6508       6509       6520       6519  
      6388       6389       6400       6399       6509       6510       6521       6520  
      6389       6390       6401       6400       6510       6511       6522       6521  
      6390       6391       6402       6401       6511       6512       6523       6522  
      6392       6393       6404       6403       6513       6514       6525       6524  
      6393       6394       6405       6404       6514       6515       6526       6525  
      6394       6395       6406       6405       6515       6516       6527       6526  
      6395       6396       6407       6406       6516       6517       6528       6527  
      6396       6397       6408       6407       6517       6518       6529       6528  
      6397       6398       6409       6408       6518       6519       6530       6529  
      6398       6399       6410       6409       6519       6520       6531       6530  
      6399       6400       6411       6410       6520       6521       6532       6531  
      6400       6401       6412       6411       6521       6522       6533       6532  
      6401       6402       6413       6412       6522       6523       6534       6533  
      6414       6415       6426       6425       6535       6536       6547       6546  
      6415       6416       6427       6426       6536       6537       6548       6547  
      6416       6417       6428       6427       6537       6538       6549       6548  
      6417       6418       6429       6428       6538       6539       6550       6549  
      6418       6419       6430       6429       6539       6540       6551       6550  
      6419       6420       6431       6430       6540       6541       6552       6551  
      6420       6421       6432       6431       6541       6542       6553       6552  
      6421       6422       6433       6432       6542       6543       6554       6553  
      6422       6423       6434       6433       6543       6544       6555       6554  
      6423       6424       6435       6434       6544       6545       6556       6555  
      6425       6426       6437       6436       6546       6547       6558       6557  
      6426       6427       6438       6437       6547       6548       6559       6558  
      6427       6428       6439       6438       6548       6549       6560       6559  
      6428       6429       6440       6439       6549       6550       6561       6560  
      6429       6430       6441       6440       6550       6551       6562       6561  
      6430       6431       6442       6441       6551       6552       6563       6562  
      6431       6432       6443       6442       6552       6553       6564       6563  
      6432       6433       6444       6443       6553       6554       6565       6564  
      6433       6434       6445       6444       6554       6555       6566       6565  
      6434       6435       6446       6445       6555       6556       6567       6566  
      6436       6437       6448       6447       6557       6558       6569       6568  
      6437       6438       6449       6448       6558       6559       6570       6569  
      6438       6439       6450       6449       6559       6560       6571       6570  
      6439       6440       6451       6450       6560       6561       6572       6571  
      6440       6441       6452       6451       6561       6562       6573       6572  
      6441       6442       6453       6452       6562       6563       6574       6573  
      6442       6443       6454       6453       6563       6564       6575       6574  
      6443       6444       6455       6454       6564       6565       6576       6575  
      6444       6445       6456       6455       6565       6566       6577       6576  
      6445       6446       6457       6456       6566       6567       6578       6577  
      6447       6448       6459       6458       6568       6569       6580       6579  
      6448       6449       6460       6459       6569       6570       6581       6580  
      6449       6450       6461       6460       6570       6571       6582       6581  
      6450       6451       6462       6461       6571       6572       6583       6582  
      6451       6452       6463       6462       6572       6573       6584       6583  
      6452       6453       6464       6463       6573       6574       6585       6584  
      6453       6454       6465       6464       6574       6575       6586       6585  
      6454       6455       6466       6465       6575       6576       6587       6586  
      6455       6456       6467       6466       6576       6577       6588       6587  
      6456       6457       6468       6467       6577       6578       6589       6588  
      6458       6459       6470       6469       6579       6580       6591       6590  
      6459       6460       6471       6470       6580       6581       6592       6591  
      6460       6461       6472       6471       6581       6582       6593       6592  
      6461       6462       6473       6472       6582       6583       6594       6593  
      6462       6463       6474       6473       6583       6584       6595       6594  
      6463       6464       6475       6474       6584       6585       6596       6595  
      6464       6465       6476       6475       6585       6586       6597       6596  
      6465       6466       6477       6476       6586       6587       6598       6597  
      6466       6467       6478       6477       6587       6588       6599       6598  
      6467       6468       6479       6478       6588       6589       6600       6599  
      6469       6470       6481       6480       6590       6591       6602       6601  
      6470       6471       6482       6481       6591       6592       6603       6602  
      6471       6472       6483       6482       6592       6593       6604       6603  
      6472       6473       6484       6483       6593       6594       6605       6604  
      6473       6474       6485       6484       6594       6595       6606       6605  
      6474       6475       6486       6485       6595       6596       6607       6606  
      6475       6476       6487       6486       6596       6597       6608       6607  
      6476       6477       6488       6487       6597       6598       6609       6608  
      6477       6478       6489       6488       6598       6599       6610       6609  
      6478       6479       6490       6489       6599       6600       6611       6610  
      6480       6481       6492       6491       6601       6602       6613       6612  
      6481       6482       6493       6492       6602       6603       6614       6613  
      6482       6483       6494       6493       6603       6604       6615       6614  
      6483       6484       6495       6494       6604       6605       6616       6615  
      6484       6485       6496       6495       6605       6606       6617       6616  
      6485       6486       6497       6496       6606       6607       6618       6617  
      6486       6487       6498       6497       6607       6608       6619       6618  
      6487       6488       6499       6498       6608       6609       6620       6619  
      6488       6489       6500       6499       6609       6610       6621       6620  
      6489       6490       6501       6500       6610       6611       6622       6621  
      6491       6492       6503       6502       6612       6613       6624       6623  
      6492       6493       6504       6503       6613       6614       6625       6624  
      6493       6494       6505       6504       6614       6615       6626       6625  
      6494       6495       6506       6505       6615       6616       6627       6626  
      6495       6496       6507       6506       6616       6617       6628       6627  
      6496       6497       6508       6507       6617       6618       6629       6628  
      6497       6498       6509       6508       6618       6619       6630       6629  
      6498       6499       6510       6509       6619       6620       6631       6630  
      6499       6500       6511       6510       6620       6621       6632       6631  
      6500       6501       6512       6511       6621       6622       6633       6632  
      6502       6503       6514       6513       6623       6624       6635       6634  
      6503       6504       6515       6514       6624       6625       6636       6635  
      6504       6505       6516       6515       6625       6626       6637       6636  
      6505       6506       6517       6516       6626       6627       6638       6637  
      6506       6507       6518       6517       6627       6628       6639       6638  
      6507       6508       6519       6518       6628       6629       6640       6639  
      6508       6509       6520       6519       6629       6630       6641       6640  
      6509       6510       6521       6520       6630       6631       6642       6641  
      6510       6511       6522       6521       6631       6632       6643       6642  
      6511       6512       6523       6522       6632       6633       6644       6643  
      6513       6514       6525       6524       6634       6635       6646       6645  
      6514       6515       6526       6525       6635       6636       6647       6646  
      6515       6516       6527       6526       6636       6637       6648       6647  
      6516       6517       6528       6527       6637       6638       6649       6648  
      6517       6518       6529       6528       6638       6639       6650       6649  
      6518       6519       6530       6529       6639       6640       6651       6650  
      6519       6520       6531       6530       6640       6641       6652       6651  
      6520       6521       6532       6531       6641       6642       6653       6652  
      6521       6522       6533       6532       6642       6643       6654       6653  
      6522       6523       6534       6533       6643       6644       6655       6654  
      6535       6536       6547       6546       6656       6657       6668       6667  
      6536       6537       6548       6547       6657       6658       6669       6668  
      6537       6538       6549       6548       6658       6659       6670       6669  
      6538       6539       6550       6549       6659       6660       6671       6670  
      6539       6540       6551       6550       6660       6661       6672       6671  
      6540       6541       6552       6551       6661       6662       6673       6672  
      6541       6542       6553       6552       6662       6663       6674       6673  
      6542       6543       6554       6553       6663       6664       6675       6674  
      6543       6544       6555       6554       6664       6665       6676       6675  
      6544       6545       6556       6555       6665       6666       6677       6676  
      6546       6547       6558       6557       6667       6668       6679       6678  
      6547       6548       6559       6558       6668       6669       6680       6679  
      6548       6549       6560       6559       6669       6670       6681       6680  
      6549       6550       6561       6560       6670       6671       6682       6681  
      6550       6551       6562       6561       6671       6672       6683       6682  
      6551       6552       6563       6562       6672       6673       6684       6683  
      6552       6553       6564       6563       6673       6674       6685       6684  
      6553       6554       6565       6564       6674       6675       6686       6685  
      6554       6555       6566       6565       6675       6676       6687       6686  
      6555       6556       6567       6566       6676       6677       6688       6687  
      6557       6558       6569       6568       6678       6679       6690       6689  
      6558       6559       6570       6569       6679       6680       6691       6690  
      6559       6560       6571       6570       6680       6681       6692       6691  
      6560       6561       6572       6571       6681       6682       6693       6692  
      6561       6562       6573       6572       6682       6683       6694       6693  
      6562       6563       6574       6573       6683       6684       6695       6694  
      6563       6564       6575       6574       6684       6685       6696       6695  
      6564       6565       6576       6575       6685       6686       6697       6696  
      6565       6566       6577       6576       6686       6687       6698       6697  
      6566       6567       6578       6577       6687       6688       6699       6698  
      6568       6569       6580       6579       6689       6690       6701       6700  
      6569       6570       6581       6580       6690       6691       6702       6701  
      6570       6571       6582       6581       6691       6692       6703       6702  
      6571       6572       6583       6582       6692       6693       6704       6703  
      6572       6573       6584       6583       6693       6694       6705       6704  
      6573       6574       6585       6584       6694       6695       6706       6705  
      6574       6575       6586       6585       6695       6696       6707       6706  
      6575       6576       6587       6586       6696       6697       6708       6707  
      6576       6577       6588       6587       6697       6698       6709       6708  
      6577       6578       6589       6588       6698       6699       6710       6709  
      6579       6580       6591       6590       6700       6701       6712       6711  
      6580       6581       6592       6591       6701       6702       6713       6712  
      6581       6582       6593       6592       6702       6703       6714       6713  
      6582       6583       6594       6593       6703       6704       6715       6714  
      6583       6584       6595       6594       6704       6705       6716       6715  
      6584       6585       6596       6595       6705       6706       6717       6716  
      6585       6586       6597       6596       6706       6707       6718       6717  
      6586       6587       6598       6597       6707       6708       6719       6718  
      6587       6588       6599       6598       6708       6709       6720       6719  
      6588       6589       6600       6599       6709       6710       6721       6720  
      6590       6591       6602       6601       6711       6712       6723       6722  
      6591       6592       6603       6602       6712       6713       6724       6723  
      6592       6593       6604       6603       6713       6714       6725       6724  
      6593       6594       6605       6604       6714       6715       6726       6725  
      6594       6595       6606       6605       6715       6716       6727       6726  
      6595       6596       6607       6606       6716       6717       6728       6727  
      6596       6597       6608       6607       6717       6718       6729       6728  
      6597       6598       6609       6608       6718       6719       6730       6729  
      6598       6599       6610       6609       6719       6720       6731       6730  
      6599       6600       6611       6610       6720       6721       6732       6731  
      6601       6602       6613       6612       6722       6723       6734       6733  
      6602       6603       6614       6613       6723       6724       6735       6734  
      6603       6604       6615       6614       6724       6725       6736       6735  
      6604       6605       6616       6615       6725       6726       6737       6736  
      6605       6606       6617       6616       6726       6727       6738       6737  
      6606       6607       6618       6617       6727       6728       6739       6738  
      6607       6608       6619       6618       6728       6729       6740       6739  
      6608       6609       6620       6619       6729       6730       6741       6740  
      6609       6610       6621       6620       6730       6731       6742       6741  
      6610       6611       6622       6621       6731       6732       6743       6742  
      6612       6613       6624       6623       6733       6734       6745       6744  
      6613       6614       6625       6624       6734       6735       6746       6745  
      6614       6615       6626       6625       6735       6736       6747       6746  
      6615       6616       6627       6626       6736       6737       6748       6747  
      6616       6617       6628       6627       6737       6738       6749       6748  
      6617       6618       6629       6628       6738       6739       6750       6749  
      6618       6619       6630       6629       6739       6740       6751       6750  
      6619       6620       6631       6630       6740       6741       6752       6751  
      6620       6621       6632       6631       6741       6742       6753       6752  
      6621       6622       6633       6632       6742       6743       6754       6753  
      6623       6624       6635       6634       6744       6745       6756       6755  
      6624       6625       6636       6635       6745       6746       6757       6756  
      6625       6626       6637       6636       6746       6747       6758       6757  
      6626       6627       6638       6637       6747       6748       6759       6758  
      6627       6628       6639       6638       6748       6749       6760       6759  
      6628       6629       6640       6639       6749       6750       6761       6760  
      6629       6630       6641       6640       6750       6751       6762       6761  
      6630       6631       6642       6641       6751       6752       6763       6762  
      6631       6632       6643       6642       6752       6753       6764       6763  
      6632       6633       6644       6643       6753       6754       6765       6764  
      6634       6635       6646       6645       6755       6756       6767       6766  
      6635       6636       6647       6646       6756       6757       6768       6767  
      6636       6637       6648       6647       6757       6758       6769       6768  
      6637       6638       6649       6648       6758       6759       6770       6769  
      6638       6639       6650       6649       6759       6760       6771       6770  
      6639       6640       6651       6650       6760       6761       6772       6771  
      6640       6641       6652       6651       6761       6762       6773       6772  
      6641       6642       6653       6652       6762       6763       6774       6773  
      6642       6643       6654       6653       6763       6764       6775       6774  
      6643       6644       6655       6654       6764       6765       6776       6775  
      6656       6657       6668       6667       6777       6778       6789       6788  
      6657       6658       6669       6668       6778       6779       6790       6789  
      6658       6659       6670       6669       6779       6780       6791       6790  
      6659       6660       6671       6670       6780       6781       6792       6791  
      6660       6661       6672       6671       6781       6782       6793       6792  
      6661       6662       6673       6672       6782       6783       6794       6793  
      6662       6663       6674       6673       6783       6784       6795       6794  
      6663       6664       6675       6674       6784       6785       6796       6795  
      6664       6665       6676       6675       6785       6786       6797       6796  
      6665       6666       6677       6676       6786       6787       6798       6797  
      6667       6668       6679       6678       6788       6789       6800       6799  
      6668       6669       6680       6679       6789       6790       6801       6800  
      6669       6670       6681       6680       6790       6791       6802       6801  
      6670       6671       6682       6681       6791       6792       6803       6802  
      6671       6672       6683       6682       6792       6793       6804       6803  
      6672       6673       6684       6683       6793       6794       6805       6804  
      6673       6674       6685       6684       6794       6795       6806       6805  
      6674       6675       6686       6685       6795       6796       6807       6806  
      6675       6676       6687       6686       6796       6797       6808       6807  
      6676       6677       6688       6687       6797       6798       6809       6808  
      6678       6679       6690       6689       6799       6800       6811       6810  
      6679       6680       6691       6690       6800       6801       6812       6811  
      6680       6681       6692       6691       6801       6802       6813       6812  
      6681       6682       6693       6692       6802       6803       6814       6813  
      6682       6683       6694       6693       6803       6804       6815       6814  
      6683       6684       6695       6694       6804       6805       6816       6815  
      6684       6685       6696       6695       6805       6806       6817       6816  
      6685       6686       6697       6696       6806       6807       6818       6817  
      6686       6687       6698       6697       6807       6808       6819       6818  
      6687       6688       6699       6698       6808       6809       6820       6819  
      6689       6690       6701       6700       6810       6811       6822       6821  
      6690       6691       6702       6701       6811       6812       6823       6822  
      6691       6692       6703       6702       6812       6813       6824       6823  
      6692       6693       6704       6703       6813       6814       6825       6824  
      6693       6694       6705       6704       6814       6815       6826       6825  
      6694       6695       6706       6705       6815       6816       6827       6826  
      6695       6696       6707       6706       6816       6817       6828       6827  
      6696       6697       6708       6707       6817       6818       6829       6828  
      6697       6698       6709       6708       6818       6819       6830       6829  
      6698       6699       6710       6709       6819       6820       6831       6830  
      6700       6701       6712       6711       6821       6822       6833       6832  
      6701       6702       6713       6712       6822       6823       6834       6833  
      6702       6703       6714       6713       6823       6824       6835       6834  
      6703       6704       6715       6714       6824       6825       6836       6835  
      6704       6705       6716       6715       6825       6826       6837       6836  
      6705       6706       6717       6716       6826       6827       6838       6837  
      6706       6707       6718       6717       6827       6828       6839       6838  
      6707       6708       6719       6718       6828       6829       6840       6839  
      6708       6709       6720       6719       6829       6830       6841       6840  
      6709       6710       6721       6720       6830       6831       6842       6841  
      6711       6712       6723       6722       6832       6833       6844       6843  
      6712       6713       6724       6723       6833       6834       6845       6844  
      6713       6714       6725       6724       6834       6835       6846       6845  
      6714       6715       6726       6725       6835       6836       6847       6846  
      6715       6716       6727       6726       6836       6837       6848       6847  
      6716       6717       6728       6727       6837       6838       6849       6848  
      6717       6718       6729       6728       6838       6839       6850       6849  
      6718       6719       6730       6729       6839       6840       6851       6850  
      6719       6720       6731       6730       6840       6841       6852       6851  
      6720       6721       6732       6731       6841       6842       6853       6852  
      6722       6723       6734       6733       6843       6844       6855       6854  
      6723       6724       6735       6734       6844       6845       6856       6855  
      6724       6725       6736       6735       6845       6846       6857       6856  
      6725       6726       6737       6736       6846       6847       6858       6857  
      6726       6727       6738       6737       6847       6848       6859       6858  
      6727       6728       6739       6738       6848       6849       6860       6859  
      6728       6729       6740       6739       6849       6850       6861       6860  
      6729       6730       6741       6740       6850       6851       6862       6861  
      6730       6731       6742       6741       6851       6852       6863       6862  
      6731       6732       6743       6742       6852       6853       6864       6863  
      6733       6734       6745       6744       6854       6855       6866       6865  
      6734       6735       6746       6745       6855       6856       6867       6866  
      6735       6736       6747       6746       6856       6857       6868       6867  
      6736       6737       6748       6747       6857       6858       6869       6868  
      6737       6738       6749       6748       6858       6859       6870       6869  
      6738       6739       6750       6749       6859       6860       6871       6870  
      6739       6740       6751       6750       6860       6861       6872       6871  
      6740       6741       6752       6751       6861       6862       6873       6872  
      6741       6742       6753       6752       6862       6863       6874       6873  
      6742       6743       6754       6753       6863       6864       6875       6874  
      6744       6745       6756       6755       6865       6866       6877       6876  
      6745       6746       6757       6756       6866       6867       6878       6877  
      6746       6747       6758       6757       6867       6868       6879       6878  
      6747       6748       6759       6758       6868       6869       6880       6879  
      6748       6749       6760       6759       6869       6870       6881       6880  
      6749       6750       6761       6760       6870       6871       6882       6881  
      6750       6751       6762       6761       6871       6872       6883       6882  
      6751       6752       6763       6762       6872       6873       6884       6883  
      6752       6753       6764       6763       6873       6874       6885       6884  
      6753       6754       6765       6764       6874       6875       6886       6885  
      6755       6756       6767       6766       6876       6877       6888       6887  
      6756       6757       6768       6767       6877       6878       6889       6888  
      6757       6758       6769       6768       6878       6879       6890       6889  
      6758       6759       6770       6769       6879       6880       6891       6890  
      6759       6760       6771       6770       6880       6881       6892       6891  
      6760       6761       6772       6771       6881       6882       6893       6892  
      6761       6762       6773       6772       6882       6883       6894       6893  
      6762       6763       6774       6773       6883       6884       6895       6894  
      6763       6764       6775       6774       6884       6885       6896       6895  
      6764       6765       6776       6775       6885       6886       6897       6896  
      6777       6778       6789       6788       6898       6899       6910       6909  
      6778       6779       6790       6789       6899       6900       6911       6910  
      6779       6780       6791       6790       6900       6901       6912       6911  
      6780       6781       6792       6791       6901       6902       6913       6912  
      6781       6782       6793       6792       6902       6903       6914       6913  
      6782       6783       6794       6793       6903       6904       6915       6914  
      6783       6784       6795       6794       6904       6905       6916       6915  
      6784       6785       6796       6795       6905       6906       6917       6916  
      6785       6786       6797       6796       6906       6907       6918       6917  
      6786       6787       6798       6797       6907       6908       6919       6918  
      6788       6789       6800       6799       6909       6910       6921       6920  
      6789       6790       6801       6800       6910       6911       6922       6921  
      6790       6791       6802       6801       6911       6912       6923       6922  
      6791       6792       6803       6802       6912       6913       6924       6923  
      6792       6793       6804       6803       6913       6914       6925       6924  
      6793       6794       6805       6804       6914       6915       6926       6925  
      6794       6795       6806       6805       6915       6916       6927       6926  
      6795       6796       6807       6806       6916       6917       6928       6927  
      6796       6797       6808       6807       6917       6918       6929       6928  
      6797       6798       6809       6808       6918       6919       6930       6929  
      6799       6800       6811       6810       6920       6921       6932       6931  
      6800       6801       6812       6811       6921       6922       6933       6932  
      6801       6802       6813       6812       6922       6923       6934       6933  
      6802       6803       6814       6813       6923       6924       6935       6934  
      6803       6804       6815       6814       6924       6925       6936       6935  
      6804       6805       6816       6815       6925       6926       6937       6936  
      6805       6806       6817       6816       6926       6927       6938       6937  
      6806       6807       6818       6817       6927       6928       6939       6938  
      6807       6808       6819       6818       6928       6929       6940       6939  
      6808       6809       6820       6819       6929       6930       6941       6940  
      6810       6811       6822       6821       6931       6932       6943       6942  
      6811       6812       6823       6822       6932       6933       6944       6943  
      6812       6813       6824       6823       6933       6934       6945       6944  
      6813       6814       6825       6824       6934       6935       6946       6945  
      6814       6815       6826       6825       6935       6936       6947       6946  
      6815       6816       6827       6826       6936       6937       6948       6947  
      6816       6817       6828       6827       6937       6938       6949       6948  
      6817       6818       6829       6828       6938       6939       6950       6949  
      6818       6819       6830       6829       6939       6940       6951       6950  
      6819       6820       6831       6830       6940       6941       6952       6951  
      6821       6822       6833       6832       6942       6943       6954       6953  
      6822       6823       6834       6833       6943       6944       6955       6954  
      6823       6824       6835       6834       6944       6945       6956       6955  
      6824       6825       6836       6835       6945       6946       6957       6956  
      6825       6826       6837       6836       6946       6947       6958       6957  
      6826       6827       6838       6837       6947       6948       6959       6958  
      6827       6828       6839       6838       6948       6949       6960       6959  
      6828       6829       6840       6839       6949       6950       6961       6960  
      6829       6830       6841       6840       6950       6951       6962       6961  
      6830       6831       6842       6841       6951       6952       6963       6962  
      6832       6833       6844       6843       6953       6954       6965       6964  
      6833       6834       6845       6844       6954       6955       6966       6965  
      6834       6835       6846       6845       6955       6956       6967       6966  
      6835       6836       6847       6846       6956       6957       6968       6967  
      6836       6837       6848       6847       6957       6958       6969       6968  
      6837       6838       6849       6848       6958       6959       6970       6969  
      6838       6839       6850       6849       6959       6960       6971       6970  
      6839       6840       6851       6850       6960       6961       6972       6971  
      6840       6841       6852       6851       6961       6962       6973       6972  
      6841       6842       6853       6852       6962       6963       6974       6973  
      6843       6844       6855       6854       6964       6965       6976       6975  
      6844       6845       6856       6855       6965       6966       6977       6976  
      6845       6846       6857       6856       6966       6967       6978       6977  
      6846       6847       6858       6857       6967       6968       6979       6978  
      6847       6848       6859       6858       6968       6969       6980       6979  
      6848       6849       6860       6859       6969       6970       6981       6980  
      6849       6850       6861       6860       6970       6971       6982       6981  
      6850       6851       6862       6861       6971       6972       6983       6982  
      6851       6852       6863       6862       6972       6973       6984       6983  
      6852       6853       6864       6863       6973       6974       6985       6984  
      6854       6855       6866       6865       6975       6976       6987       6986  
      6855       6856       6867       6866       6976       6977       6988       6987  
      6856       6857       6868       6867       6977       6978       6989       6988  
      6857       6858       6869       6868       6978       6979       6990       6989  
      6858       6859       6870       6869       6979       6980       6991       6990  
      6859       6860       6871       6870       6980       6981       6992       6991  
      6860       6861       6872       6871       6981       6982       6993       6992  
      6861       6862       6873       6872       6982       6983       6994       6993  
      6862       6863       6874       6873       6983       6984       6995       6994  
      6863       6864       6875       6874       6984       6985       6996       6995  
      6865       6866       6877       6876       6986       6987       6998       6997  
      6866       6867       6878       6877       6987       6988       6999       6998  
      6867       6868       6879       6878       6988       6989       7000       6999  
      6868       6869       6880       6879       6989       6990       7001       7000  
      6869       6870       6881       6880       6990       6991       7002       7001  
      6870       6871       6882       6881       6991       6992       7003       7002  
      6871       6872       6883       6882       6992       6993       7004       7003  
      6872       6873       6884       6883       6993       6994       7005       7004  
      6873       6874       6885       6884       6994       6995       7006       7005  
      6874       6875       6886       6885       6995       6996       7007       7006  
      6876       6877       6888       6887       6997       6998       7009       7008  
      6877       6878       6889       6888       6998       6999       7010       7009  
      6878       6879       6890       6889       6999       7000       7011       7010  
      6879       6880       6891       6890       7000       7001       7012       7011  
      6880       6881       6892       6891       7001       7002       7013       7012  
      6881       6882       6893       6892       7002       7003       7014       7013  
      6882       6883       6894       6893       7003       7004       7015       7014  
      6883       6884       6895       6894       7004       7005       7016       7015  
      6884       6885       6896       6895       7005       7006       7017       7016  
      6885       6886       6897       6896       7006       7007       7018       7017  
      6898       6899       6910       6909       7019       7020       7031       7030  
      6899       6900       6911       6910       7020       7021       7032       7031  
      6900       6901       6912       6911       7021       7022       7033       7032  
      6901       6902       6913       6912       7022       7023       7034       7033  
      6902       6903       6914       6913       7023       7024       7035       7034  
      6903       6904       6915       6914       7024       7025       7036       7035  
      6904       6905       6916       6915       7025       7026       7037       7036  
      6905       6906       6917       6916       7026       7027       7038       7037  
      6906       6907       6918       6917       7027       7028       7039       7038  
      6907       6908       6919       6918       7028       7029       7040       7039  
      6909       6910       6921       6920       7030       7031       7042       7041  
      6910       6911       6922       6921       7031       7032       7043       7042  
      6911       6912       6923       6922       7032       7033       7044       7043  
      6912       6913       6924       6923       7033       7034       7045       7044  
      6913       6914       6925       6924       7034       7035       7046       7045  
      6914       6915       6926       6925       7035       7036       7047       7046  
      6915       6916       6927       6926       7036       7037       7048       7047  
      6916       6917       6928       6927       7037       7038       7049       7048  
      6917       6918       6929       6928       7038       7039       7050       7049  
      6918       6919       6930       6929       7039       7040       7051       7050  
      6920       6921       6932       6931       7041       7042       7053       7052  
      6921       6922       6933       6932       7042       7043       7054       7053  
      6922       6923       6934       6933       7043       7044       7055       7054  
      6923       6924       6935       6934       7044       7045       7056       7055  
      6924       6925       6936       6935       7045       7046       7057       7056  
      6925       6926       6937       6936       7046       7047       7058       7057  
      6926       6927       6938       6937       7047       7048       7059       7058  
      6927       6928       6939       6938       7048       7049       7060       7059  
      6928       6929       6940       6939       7049       7050       7061       7060  
      6929       6930       6941       6940       7050       7051       7062       7061  
      6931       6932       6943       6942       7052       7053       7064       7063  
      6932       6933       6944       6943       7053       7054       7065       7064  
      6933       6934       6945       6944       7054       7055       7066       7065  
      6934       6935       6946       6945       7055       7056       7067       7066  
      6935       6936       6947       6946       7056       7057       7068       7067  
      6936       6937       6948       6947       7057       7058       7069       7068  
      6937       6938       6949       6948       7058       7059       7070       7069  
      6938       6939       6950       6949       7059       7060       7071       7070  
      6939       6940       6951       6950       7060       7061       7072       7071  
      6940       6941       6952       6951       7061       7062       7073       7072  
      6942       6943       6954       6953       7063       7064       7075       7074  
      6943       6944       6955       6954       7064       7065       7076       7075  
      6944       6945       6956       6955       7065       7066       7077       7076  
      6945       6946       6957       6956       7066       7067       7078       7077  
      6946       6947       6958       6957       7067       7068       7079       7078  
      6947       6948       6959       6958       7068       7069       7080       7079  
      6948       6949       6960       6959       7069       7070       7081       7080  
      6949       6950       6961       6960       7070       7071       7082       7081  
      6950       6951       6962       6961       7071       7072       7083       7082  
      6951       6952       6963       6962       7072       7073       7084       7083  
      6953       6954       6965       6964       7074       7075       7086       7085  
      6954       6955       6966       6965       7075       7076       7087       7086  
      6955       6956       6967       6966       7076       7077       7088       7087  
      6956       6957       6968       6967       7077       7078       7089       7088  
      6957       6958       6969       6968       7078       7079       7090       7089  
      6958       6959       6970       6969       7079       7080       7091       7090  
      6959       6960       6971       6970       7080       7081       7092       7091  
      6960       6961       6972       6971       7081       7082       7093       7092  
      6961       6962       6973       6972       7082       7083       7094       7093  
      6962       6963       6974       6973       7083       7084       7095       7094  
      6964       6965       6976       6975       7085       7086       7097       7096  
      6965       6966       6977       6976       7086       7087       7098       7097  
      6966       6967       6978       6977       7087       7088       7099       7098  
      6967       6968       6979       6978       7088       7089       7100       7099  
      6968       6969       6980       6979       7089       7090       7101       7100  
      6969       6970       6981       6980       7090       7091       7102       7101  
      6970       6971       6982       6981       7091       7092       7103       7102  
      6971       6972       6983       6982       7092       7093       7104       7103  
      6972       6973       6984       6983       7093       7094       7105       7104  
      6973       6974       6985       6984       7094       7095       7106       7105  
      6975       6976       6987       6986       7096       7097       7108       7107  
      6976       6977       6988       6987       7097       7098       7109       7108  
      6977       6978       6989       6988       7098       7099       7110       7109  
      6978       6979       6990       6989       7099       7100       7111       7110  
      6979       6980       6991       6990       7100       7101       7112       7111  
      6980       6981       6992       6991       7101       7102       7113       7112  
      6981       6982       6993       6992       7102       7103       7114       7113  
      6982       6983       6994       6993       7103       7104       7115       7114  
      6983       6984       6995       6994       7104       7105       7116       7115  
      6984       6985       6996       6995       7105       7106       7117       7116  
      6986       6987       6998       6997       7107       7108       7119       7118  
      6987       6988       6999       6998       7108       7109       7120       7119  
      6988       6989       7000       6999       7109       7110       7121       7120  
      6989       6990       7001       7000       7110       7111       7122       7121  
      6990       6991       7002       7001       7111       7112       7123       7122  
      6991       6992       7003       7002       7112       7113       7124       7123  
      6992       6993       7004       7003       7113       7114       7125       7124  
      6993       6994       7005       7004       7114       7115       7126       7125  
      6994       6995       7006       7005       7115       7116       7127       7126  
      6995       6996       7007       7006       7116       7117       7128       7127  
      6997       6998       7009       7008       7118       7119       7130       7129  
      6998       6999       7010       7009       7119       7120       7131       7130  
      6999       7000       7011       7010       7120       7121       7132       7131  
      7000       7001       7012       7011       7121       7122       7133       7132  
      7001       7002       7013       7012       7122       7123       7134       7133  
      7002       7003       7014       7013       7123       7124       7135       7134  
      7003       7004       7015       7014       7124       7125       7136       7135  
      7004       7005       7016       7015       7125       7126       7137       7136  
      7005       7006       7017       7016       7126       7127       7138       7137  
      7006       7007       7018       7017       7127       7128       7139       7138  
      7019       7020       7031       7030       7140       7141       7152       7151  
      7020       7021       7032       7031       7141       7142       7153       7152  
      7021       7022       7033       7032       7142       7143       7154       7153  
      7022       7023       7034       7033       7143       7144       7155       7154  
      7023       7024       7035       7034       7144       7145       7156       7155  
      7024       7025       7036       7035       7145       7146       7157       7156  
      7025       7026       7037       7036       7146       7147       7158       7157  
      7026       7027       7038       7037       7147       7148       7159       7158  
      7027       7028       7039       7038       7148       7149       7160       7159  
      7028       7029       7040       7039       7149       7150       7161       7160  
      7030       7031       7042       7041       7151       7152       7163       7162  
      7031       7032       7043       7042       7152       7153       7164       7163  
      7032       7033       7044       7043       7153       7154       7165       7164  
      7033       7034       7045       7044       7154       7155       7166       7165  
      7034       7035       7046       7045       7155       7156       7167       7166  
      7035       7036       7047       7046       7156       7157       7168       7167  
      7036       7037       7048       7047       7157       7158       7169       7168  
      7037       7038       7049       7048       7158       7159       7170       7169  
      7038       7039       7050       7049       7159       7160       7171       7170  
      7039       7040       7051       7050       7160       7161       7172       7171  
      7041       7042       7053       7052       7162       7163       7174       7173  
      7042       7043       7054       7053       7163       7164       7175       7174  
      7043       7044       7055       7054       7164       7165       7176       7175  
      7044       7045       7056       7055       7165       7166       7177       7176  
      7045       7046       7057       7056       7166       7167       7178       7177  
      7046       7047       7058       7057       7167       7168       7179       7178  
      7047       7048       7059       7058       7168       7169       7180       7179  
      7048       7049       7060       7059       7169       7170       7181       7180  
      7049       7050       7061       7060       7170       7171       7182       7181  
      7050       7051       7062       7061       7171       7172       7183       7182  
      7052       7053       7064       7063       7173       7174       7185       7184  
      7053       7054       7065       7064       7174       7175       7186       7185  
      7054       7055       7066       7065       7175       7176       7187       7186  
      7055       7056       7067       7066       7176       7177       7188       7187  
      7056       7057       7068       7067       7177       7178       7189       7188  
      7057       7058       7069       7068       7178       7179       7190       7189  
      7058       7059       7070       7069       7179       7180       7191       7190  
      7059       7060       7071       7070       7180       7181       7192       7191  
      7060       7061       7072       7071       7181       7182       7193       7192  
      7061       7062       7073       7072       7182       7183       7194       7193  
      7063       7064       7075       7074       7184       7185       7196       7195  
      7064       7065       7076       7075       7185       7186       7197       7196  
      7065       7066       7077       7076       7186       7187       7198       7197  
      7066       7067       7078       7077       7187       7188       7199       7198  
      7067       7068       7079       7078       7188       7189       7200       7199  
      7068       7069       7080       7079       7189       7190       7201       7200  
      7069       7070       7081       7080       7190       7191       7202       7201  
      7070       7071       7082       7081       7191       7192       7203       7202  
      7071       7072       7083       7082       7192       7193       7204       7203  
      7072       7073       7084       7083       7193       7194       7205       7204  
      7074       7075       7086       7085       7195       7196       7207       7206  
      7075       7076       7087       7086       7196       7197       7208       7207  
      7076       7077       7088       7087       7197       7198       7209       7208  
      7077       7078       7089       7088       7198       7199       7210       7209  
      7078       7079       7090       7089       7199       7200       7211       7210  
      7079       7080       7091       7090       7200       7201       7212       7211  
      7080       7081       7092       7091       7201       7202       7213       7212  
      7081       7082       7093       7092       7202       7203       7214       7213  
      7082       7083       7094       7093       7203       7204       7215       7214  
      7083       7084       7095       7094       7204       7205       7216       7215  
      7085       7086       7097       7096       7206       7207       7218       7217  
      7086       7087       7098       7097       7207       7208       7219       7218  
      7087       7088       7099       7098       7208       7209       7220       7219  
      7088       7089       7100       7099       7209       7210       7221       7220  
      7089       7090       7101       7100       7210       7211       7222       7221  
      7090       7091       7102       7101       7211       7212       7223       7222  
      7091       7092       7103       7102       7212       7213       7224       7223  
      7092       7093       7104       7103       7213       7214       7225       7224  
      7093       7094       7105       7104       7214       7215       7226       7225  
      7094       7095       7106       7105       7215       7216       7227       7226  
      7096       7097       7108       7107       7217       7218       7229       7228  
      7097       7098       7109       7108       7218       7219       7230       7229  
      7098       7099       7110       7109       7219       7220       7231       7230  
      7099       7100       7111       7110       7220       7221       7232       7231  
      7100       7101       7112       7111       7221       7222       7233       7232  
      7101       7102       7113       7112       7222       7223       7234       7233  
      7102       7103       7114       7113       7223       7224       7235       7234  
      7103       7104       7115       7114       7224       7225       7236       7235  
      7104       7105       7116       7115       7225       7226       7237       7236  
      7105       7106       7117       7116       7226       7227       7238       7237  
      7107       7108       7119       7118       7228       7229       7240       7239  
      7108       7109       7120       7119       7229       7230       7241       7240  
      7109       7110       7121       7120       7230       7231       7242       7241  
      7110       7111       7122       7121       7231       7232       7243       7242  
      7111       7112       7123       7122       7232       7233       7244       7243  
      7112       7113       7124       7123       7233       7234       7245       7244  
      7113       7114       7125       7124       7234       7235       7246       7245  
      7114       7115       7126       7125       7235       7236       7247       7246  
      7115       7116       7127       7126       7236       7237       7248       7247  
      7116       7117       7128       7127       7237       7238       7249       7248  
      7118       7119       7130       7129       7239       7240       7251       7250  
      7119       7120       7131       7130       7240       7241       7252       7251  
      7120       7121       7132       7131       7241       7242       7253       7252  
      7121       7122       7133       7132       7242       7243       7254       7253  
      7122       7123       7134       7133       7243       7244       7255       7254  
      7123       7124       7135       7134       7244       7245       7256       7255  
      7124       7125       7136       7135       7245       7246       7257       7256  
      7125       7126       7137       7136       7246       7247       7258       7257  
      7126       7127       7138       7137       7247       7248       7259       7258  
      7127       7128       7139       7138       7248       7249       7260       7259  
      7140       7141       7152       7151       7261       7262       7273       7272  
      7141       7142       7153       7152       7262       7263       7274       7273  
      7142       7143       7154       7153       7263       7264       7275       7274  
      7143       7144       7155       7154       7264       7265       7276       7275  
      7144       7145       7156       7155       7265       7266       7277       7276  
      7145       7146       7157       7156       7266       7267       7278       7277  
      7146       7147       7158       7157       7267       7268       7279       7278  
      7147       7148       7159       7158       7268       7269       7280       7279  
      7148       7149       7160       7159       7269       7270       7281       7280  
      7149       7150       7161       7160       7270       7271       7282       7281  
      7151       7152       7163       7162       7272       7273       7284       7283  
      7152       7153       7164       7163       7273       7274       7285       7284  
      7153       7154       7165       7164       7274       7275       7286       7285  
      7154       7155       7166       7165       7275       7276       7287       7286  
      7155       7156       7167       7166       7276       7277       7288       7287  
      7156       7157       7168       7167       7277       7278       7289       7288  
      7157       7158       7169       7168       7278       7279       7290       7289  
      7158       7159       7170       7169       7279       7280       7291       7290  
      7159       7160       7171       7170       7280       7281       7292       7291  
      7160       7161       7172       7171       7281       7282       7293       7292  
      7162       7163       7174       7173       7283       7284       7295       7294  
      7163       7164       7175       7174       7284       7285       7296       7295  
      7164       7165       7176       7175       7285       7286       7297       7296  
      7165       7166       7177       7176       7286       7287       7298       7297  
      7166       7167       7178       7177       7287       7288       7299       7298  
      7167       7168       7179       7178       7288       7289       7300       7299  
      7168       7169       7180       7179       7289       7290       7301       7300  
      7169       7170       7181       7180       7290       7291       7302       7301  
      7170       7171       7182       7181       7291       7292       7303       7302  
      7171       7172       7183       7182       7292       7293       7304       7303  
      7173       7174       7185       7184       7294       7295       7306       7305  
      7174       7175       7186       7185       7295       7296       7307       7306  
      7175       7176       7187       7186       7296       7297       7308       7307  
      7176       7177       7188       7187       7297       7298       7309       7308  
      7177       7178       7189       7188       7298       7299       7310       7309  
      7178       7179       7190       7189       7299       7300       7311       7310  
      7179       7180       7191       7190       7300       7301       7312       7311  
      7180       7181       7192       7191       7301       7302       7313       7312  
      7181       7182       7193       7192       7302       7303       7314       7313  
      7182       7183       7194       7193       7303       7304       7315       7314  
      7184       7185       7196       7195       7305       7306       7317       7316  
      7185       7186       7197       7196       7306       7307       7318       7317  
      7186       7187       7198       7197       7307       7308       7319       7318  
      7187       7188       7199       7198       7308       7309       7320       7319  
      7188       7189       7200       7199       7309       7310       7321       7320  
      7189       7190       7201       7200       7310       7311       7322       7321  
      7190       7191       7202       7201       7311       7312       7323       7322  
      7191       7192       7203       7202       7312       7313       7324       7323  
      7192       7193       7204       7203       7313       7314       7325       7324  
      7193       7194       7205       7204       7314       7315       7326       7325  
      7195       7196       7207       7206       7316       7317       7328       7327  
      7196       7197       7208       7207       7317       7318       7329       7328  
      7197       7198       7209       7208       7318       7319       7330       7329  
      7198       7199       7210       7209       7319       7320       7331       7330  
      7199       7200       7211       7210       7320       7321       7332       7331  
      7200       7201       7212       7211       7321       7322       7333       7332  
      7201       7202       7213       7212       7322       7323       7334       7333  
      7202       7203       7214       7213       7323       7324       7335       7334  
      7203       7204       7215       7214       7324       7325       7336       7335  
      7204       7205       7216       7215       7325       7326       7337       7336  
      7206       7207       7218       7217       7327       7328       7339       7338  
      7207       7208       7219       7218       7328       7329       7340       7339  
      7208       7209       7220       7219       7329       7330       7341       7340  
      7209       7210       7221       7220       7330       7331       7342       7341  
      7210       7211       7222       7221       7331       7332       7343       7342  
      7211       7212       7223       7222       7332       7333       7344       7343  
      7212       7213       7224       7223       7333       7334       7345       7344  
      7213       7214       7225       7224       7334       7335       7346       7345  
      7214       7215       7226       7225       7335       7336       7347       7346  
      7215       7216       7227       7226       7336       7337       7348       7347  
      7217       7218       7229       7228       7338       7339       7350       7349  
      7218       7219       7230       7229       7339       7340       7351       7350  
      7219       7220       7231       7230       7340       7341       7352       7351  
      7220       7221       7232       7231       7341       7342       7353       7352  
      7221       7222       7233       7232       7342       7343       7354       7353  
      7222       7223       7234       7233       7343       7344       7355       7354  
      7223       7224       7235       7234       7344       7345       7356       7355  
      7224       7225       7236       7235       7345       7346       7357       7356  
      7225       7226       7237       7236       7346       7347       7358       7357  
      7226       7227       7238       7237       7347       7348       7359       7358  
      7228       7229       7240       7239       7349       7350       7361       7360  
      7229       7230       7241       7240       7350       7351       7362       7361  
      7230       7231       7242       7241       7351       7352       7363       7362  
      7231       7232       7243       7242       7352       7353       7364       7363  
      7232       7233       7244       7243       7353       7354       7365       7364  
      7233       7234       7245       7244       7354       7355       7366       7365  
      7234       7235       7246       7245       7355       7356       7367       7366  
      7235       7236       7247       7246       7356       7357       7368       7367  
      7236       7237       7248       7247       7357       7358       7369       7368  
      7237       7238       7249       7248       7358       7359       7370       7369  
      7239       7240       7251       7250       7360       7361       7372       7371  
      7240       7241       7252       7251       7361       7362       7373       7372  
      7241       7242       7253       7252       7362       7363       7374       7373  
      7242       7243       7254       7253       7363       7364       7375       7374  
      7243       7244       7255       7254       7364       7365       7376       7375  
      7244       7245       7256       7255       7365       7366       7377       7376  
      7245       7246       7257       7256       7366       7367       7378       7377  
      7246       7247       7258       7257       7367       7368       7379       7378  
      7247       7248       7259       7258       7368       7369       7380       7379  
      7248       7249       7260       7259       7369       7370       7381       7380  
      7261       7262       7273       7272       7382       7383       7394       7393  
      7262       7263       7274       7273       7383       7384       7395       7394  
      7263       7264       7275       7274       7384       7385       7396       7395  
      7264       7265       7276       7275       7385       7386       7397       7396  
      7265       7266       7277       7276       7386       7387       7398       7397  
      7266       7267       7278       7277       7387       7388       7399       7398  
      7267       7268       7279       7278       7388       7389       7400       7399  
      7268       7269       7280       7279       7389       7390       7401       7400  
      7269       7270       7281       7280       7390       7391       7402       7401  
      7270       7271       7282       7281       7391       7392       7403       7402  
      7272       7273       7284       7283       7393       7394       7405       7404  
      7273       7274       7285       7284       7394       7395       7406       7405  
      7274       7275       7286       7285       7395       7396       7407       7406  
      7275       7276       7287       7286       7396       7397       7408       7407  
      7276       7277       7288       7287       7397       7398       7409       7408  
      7277       7278       7289       7288       7398       7399       7410       7409  
      7278       7279       7290       7289       7399       7400       7411       7410  
      7279       7280       7291       7290       7400       7401       7412       7411  
      7280       7281       7292       7291       7401       7402       7413       7412  
      7281       7282       7293       7292       7402       7403       7414       7413  
      7283       7284       7295       7294       7404       7405       7416       7415  
      7284       7285       7296       7295       7405       7406       7417       7416  
      7285       7286       7297       7296       7406       7407       7418       7417  
      7286       7287       7298       7297       7407       7408       7419       7418  
      7287       7288       7299       7298       7408       7409       7420       7419  
      7288       7289       7300       7299       7409       7410       7421       7420  
      7289       7290       7301       7300       7410       7411       7422       7421  
      7290       7291       7302       7301       7411       7412       7423       7422  
      7291       7292       7303       7302       7412       7413       7424       7423  
      7292       7293       7304       7303       7413       7414       7425       7424  
      7294       7295       7306       7305       7415       7416       7427       7426  
      7295       7296       7307       7306       7416       7417       7428       7427  
      7296       7297       7308       7307       7417       7418       7429       7428  
      7297       7298       7309       7308       7418       7419       7430       7429  
      7298       7299       7310       7309       7419       7420       7431       7430  
      7299       7300       7311       7310       7420       7421       7432       7431  
      7300       7301       7312       7311       7421       7422       7433       7432  
      7301       7302       7313       7312       7422       7423       7434       7433  
      7302       7303       7314       7313       7423       7424       7435       7434  
      7303       7304       7315       7314       7424       7425       7436       7435  
      7305       7306       7317       7316       7426       7427       7438       7437  
      7306       7307       7318       7317       7427       7428       7439       7438  
      7307       7308       7319       7318       7428       7429       7440       7439  
      7308       7309       7320       7319       7429       7430       7441       7440  
      7309       7310       7321       7320       7430       7431       7442       7441  
      7310       7311       7322       7321       7431       7432       7443       7442  
      7311       7312       7323       7322       7432       7433       7444       7443  
      7312       7313       7324       7323       7433       7434       7445       7444  
      7313       7314       7325       7324       7434       7435       7446       7445  
      7314       7315       7326       7325       7435       7436       7447       7446  
      7316       7317       7328       7327       7437       7438       7449       7448  
      7317       7318       7329       7328       7438       7439       7450       7449  
      7318       7319       7330       7329       7439       7440       7451       7450  
      7319       7320       7331       7330       7440       7441       7452       7451  
      7320       7321       7332       7331       7441       7442       7453       7452  
      7321       7322       7333       7332       7442       7443       7454       7453  
      7322       7323       7334       7333       7443       7444       7455       7454  
      7323       7324       7335       7334       7444       7445       7456       7455  
      7324       7325       7336       7335       7445       7446       7457       7456  
      7325       7326       7337       7336       7446       7447       7458       7457  
      7327       7328       7339       7338       7448       7449       7460       7459  
      7328       7329       7340       7339       7449       7450       7461       7460  
      7329       7330       7341       7340       7450       7451       7462       7461  
      7330       7331       7342       7341       7451       7452       7463       7462  
      7331       7332       7343       7342       7452       7453       7464       7463  
      7332       7333       7344       7343       7453       7454       7465       7464  
      7333       7334       7345       7344       7454       7455       7466       7465  
      7334       7335       7346       7345       7455       7456       7467       7466  
      7335       7336       7347       7346       7456       7457       7468       7467  
      7336       7337       7348       7347       7457       7458       7469       7468  
      7338       7339       7350       7349       7459       7460       7471       7470  
      7339       7340       7351       7350       7460       7461       7472       7471  
      7340       7341       7352       7351       7461       7462       7473       7472  
      7341       7342       7353       7352       7462       7463       7474       7473  
      7342       7343       7354       7353       7463       7464       7475       7474  
      7343       7344       7355       7354       7464       7465       7476       7475  
      7344       7345       7356       7355       7465       7466       7477       7476  
      7345       7346       7357       7356       7466       7467       7478       7477  
      7346       7347       7358       7357       7467       7468       7479       7478  
      7347       7348       7359       7358       7468       7469       7480       7479  
      7349       7350       7361       7360       7470       7471       7482       7481  
      7350       7351       7362       7361       7471       7472       7483       7482  
      7351       7352       7363       7362       7472       7473       7484       7483  
      7352       7353       7364       7363       7473       7474       7485       7484  
      7353       7354       7365       7364       7474       7475       7486       7485  
      7354       7355       7366       7365       7475       7476       7487       7486  
      7355       7356       7367       7366       7476       7477       7488       7487  
      7356       7357       7368       7367       7477       7478       7489       7488  
      7357       7358       7369       7368       7478       7479       7490       7489  
      7358       7359       7370       7369       7479       7480       7491       7490  
      7360       7361       7372       7371       7481       7482       7493       7492  
      7361       7362       7373       7372       7482       7483       7494       7493  
      7362       7363       7374       7373       7483       7484       7495       7494  
      7363       7364       7375       7374       7484       7485       7496       7495  
      7364       7365       7376       7375       7485       7486       7497       7496  
      7365       7366       7377       7376       7486       7487       7498       7497  
      7366       7367       7378       7377       7487       7488       7499       7498  
      7367       7368       7379       7378       7488       7489       7500       7499  
      7368       7369       7380       7379       7489       7490       7501       7500  
      7369       7370       7381       7380       7490       7491       7502       7501  
      7382       7383       7394       7393       7503       7504       7515       7514  
      7383       7384       7395       7394       7504       7505       7516       7515  
      7384       7385       7396       7395       7505       7506       7517       7516  
      7385       7386       7397       7396       7506       7507       7518       7517  
      7386       7387       7398       7397       7507       7508       7519       7518  
      7387       7388       7399       7398       7508       7509       7520       7519  
      7388       7389       7400       7399       7509       7510       7521       7520  
      7389       7390       7401       7400       7510       7511       7522       7521  
      7390       7391       7402       7401       7511       7512       7523       7522  
      7391       7392       7403       7402       7512       7513       7524       7523  
      7393       7394       7405       7404       7514       7515       7526       7525  
      7394       7395       7406       7405       7515       7516       7527       7526  
      7395       7396       7407       7406       7516       7517       7528       7527  
      7396       7397       7408       7407       7517       7518       7529       7528  
      7397       7398       7409       7408       7518       7519       7530       7529  
      7398       7399       7410       7409       7519       7520       7531       7530  
      7399       7400       7411       7410       7520       7521       7532       7531  
      7400       7401       7412       7411       7521       7522       7533       7532  
      7401       7402       7413       7412       7522       7523       7534       7533  
      7402       7403       7414       7413       7523       7524       7535       7534  
      7404       7405       7416       7415       7525       7526       7537       7536  
      7405       7406       7417       7416       7526       7527       7538       7537  
      7406       7407       7418       7417       7527       7528       7539       7538  
      7407       7408       7419       7418       7528       7529       7540       7539  
      7408       7409       7420       7419       7529       7530       7541       7540  
      7409       7410       7421       7420       7530       7531       7542       7541  
      7410       7411       7422       7421       7531       7532       7543       7542  
      7411       7412       7423       7422       7532       7533       7544       7543  
      7412       7413       7424       7423       7533       7534       7545       7544  
      7413       7414       7425       7424       7534       7535       7546       7545  
      7415       7416       7427       7426       7536       7537       7548       7547  
      7416       7417       7428       7427       7537       7538       7549       7548  
      7417       7418       7429       7428       7538       7539       7550       7549  
      7418       7419       7430       7429       7539       7540       7551       7550  
      7419       7420       7431       7430       7540       7541       7552       7551  
      7420       7421       7432       7431       7541       7542       7553       7552  
      7421       7422       7433       7432       7542       7543       7554       7553  
      7422       7423       7434       7433       7543       7544       7555       7554  
      7423       7424       7435       7434       7544       7545       7556       7555  
      7424       7425       7436       7435       7545       7546       7557       7556  
      7426       7427       7438       7437       7547       7548       7559       7558  
      7427       7428       7439       7438       7548       7549       7560       7559  
      7428       7429       7440       7439       7549       7550       7561       7560  
      7429       7430       7441       7440       7550       7551       7562       7561  
      7430       7431       7442       7441       7551       7552       7563       7562  
      7431       7432       7443       7442       7552       7553       7564       7563  
      7432       7433       7444       7443       7553       7554       7565       7564  
      7433       7434       7445       7444       7554       7555       7566       7565  
      7434       7435       7446       7445       7555       7556       7567       7566  
      7435       7436       7447       7446       7556       7557       7568       7567  
      7437       7438       7449       7448       7558       7559       7570       7569  
      7438       7439       7450       7449       7559       7560       7571       7570  
      7439       7440       7451       7450       7560       7561       7572       7571  
      7440       7441       7452       7451       7561       7562       7573       7572  
      7441       7442       7453       7452       7562       7563       7574       7573  
      7442       7443       7454       7453       7563       7564       7575       7574  
      7443       7444       7455       7454       7564       7565       7576       7575  
      7444       7445       7456       7455       7565       7566       7577       7576  
      7445       7446       7457       7456       7566       7567       7578       7577  
      7446       7447       7458       7457       7567       7568       7579       7578  
      7448       7449       7460       7459       7569       7570       7581       7580  
      7449       7450       7461       7460       7570       7571       7582       7581  
      7450       7451       7462       7461       7571       7572       7583       7582  
      7451       7452       7463       7462       7572       7573       7584       7583  
      7452       7453       7464       7463       7573       7574       7585       7584  
      7453       7454       7465       7464       7574       7575       7586       7585  
      7454       7455       7466       7465       7575       7576       7587       7586  
      7455       7456       7467       7466       7576       7577       7588       7587  
      7456       7457       7468       7467       7577       7578       7589       7588  
      7457       7458       7469       7468       7578       7579       7590       7589  
      7459       7460       7471       7470       7580       7581       7592       7591  
      7460       7461       7472       7471       7581       7582       7593       7592  
      7461       7462       7473       7472       7582       7583       7594       7593  
      7462       7463       7474       7473       7583       7584       7595       7594  
      7463       7464       7475       7474       7584       7585       7596       7595  
      7464       7465       7476       7475       7585       7586       7597       7596  
      7465       7466       7477       7476       7586       7587       7598       7597  
      7466       7467       7478       7477       7587       7588       7599       7598  
      7467       7468       7479       7478       7588       7589       7600       7599  
      7468       7469       7480       7479       7589       7590       7601       7600  
      7470       7471       7482       7481       7591       7592       7603       7602  
      7471       7472       7483       7482       7592       7593       7604       7603  
      7472       7473       7484       7483       7593       7594       7605       7604  
      7473       7474       7485       7484       7594       7595       7606       7605  
      7474       7475       7486       7485       7595       7596       7607       7606  
      7475       7476       7487       7486       7596       7597       7608       7607  
      7476       7477       7488       7487       7597       7598       7609       7608  
      7477       7478       7489       7488       7598       7599       7610       7609  
      7478       7479       7490       7489       7599       7600       7611       7610  
      7479       7480       7491       7490       7600       7601       7612       7611  
      7481       7482       7493       7492       7602       7603       7614       7613  
      7482       7483       7494       7493       7603       7604       7615       7614  
      7483       7484       7495       7494       7604       7605       7616       7615  
      7484       7485       7496       7495       7605       7606       7617       7616  
      7485       7486       7497       7496       7606       7607       7618       7617  
      7486       7487       7498       7497       7607       7608       7619       7618  
      7487       7488       7499       7498       7608       7609       7620       7619  
      7488       7489       7500       7499       7609       7610       7621       7620  
      7489       7490       7501       7500       7610       7611       7622       7621  
      7490       7491       7502       7501       7611       7612       7623       7622  
      7503       7504       7515       7514       7624       7625       7636       7635  
      7504       7505       7516       7515       7625       7626       7637       7636  
      7505       7506       7517       7516       7626       7627       7638       7637  
      7506       7507       7518       7517       7627       7628       7639       7638  
      7507       7508       7519       7518       7628       7629       7640       7639  
      7508       7509       7520       7519       7629       7630       7641       7640  
      7509       7510       7521       7520       7630       7631       7642       7641  
      7510       7511       7522       7521       7631       7632       7643       7642  
      7511       7512       7523       7522       7632       7633       7644       7643  
      7512       7513       7524       7523       7633       7634       7645       7644  
      7514       7515       7526       7525       7635       7636       7647       7646  
      7515       7516       7527       7526       7636       7637       7648       7647  
      7516       7517       7528       7527       7637       7638       7649       7648  
      7517       7518       7529       7528       7638       7639       7650       7649  
      7518       7519       7530       7529       7639       7640       7651       7650  
      7519       7520       7531       7530       7640       7641       7652       7651  
      7520       7521       7532       7531       7641       7642       7653       7652  
      7521       7522       7533       7532       7642       7643       7654       7653  
      7522       7523       7534       7533       7643       7644       7655       7654  
      7523       7524       7535       7534       7644       7645       7656       7655  
      7525       7526       7537       7536       7646       7647       7658       7657  
      7526       7527       7538       7537       7647       7648       7659       7658  
      7527       7528       7539       7538       7648       7649       7660       7659  
      7528       7529       7540       7539       7649       7650       7661       7660  
      7529       7530       7541       7540       7650       7651       7662       7661  
      7530       7531       7542       7541       7651       7652       7663       7662  
      7531       7532       7543       7542       7652       7653       7664       7663  
      7532       7533       7544       7543       7653       7654       7665       7664  
      7533       7534       7545       7544       7654       7655       7666       7665  
      7534       7535       7546       7545       7655       7656       7667       7666  
      7536       7537       7548       7547       7657       7658       7669       7668  
      7537       7538       7549       7548       7658       7659       7670       7669  
      7538       7539       7550       7549       7659       7660       7671       7670  
      7539       7540       7551       7550       7660       7661       7672       7671  
      7540       7541       7552       7551       7661       7662       7673       7672  
      7541       7542       7553       7552       7662       7663       7674       7673  
      7542       7543       7554       7553       7663       7664       7675       7674  
      7543       7544       7555       7554       7664       7665       7676       7675  
      7544       7545       7556       7555       7665       7666       7677       7676  
      7545       7546       7557       7556       7666       7667       7678       7677  
      7547       7548       7559       7558       7668       7669       7680       7679  
      7548       7549       7560       7559       7669       7670       7681       7680  
      7549       7550       7561       7560       7670       7671       7682       7681  
      7550       7551       7562       7561       7671       7672       7683       7682  
      7551       7552       7563       7562       7672       7673       7684       7683  
      7552       7553       7564       7563       7673       7674       7685       7684  
      7553       7554       7565       7564       7674       7675       7686       7685  
      7554       7555       7566       7565       7675       7676       7687       7686  
      7555       7556       7567       7566       7676       7677       7688       7687  
      7556       7557       7568       7567       7677       7678       7689       7688  
      7558       7559       7570       7569       7679       7680       7691       7690  
      7559       7560       7571       7570       7680       7681       7692       7691  
      7560       7561       7572       7571       7681       7682       7693       7692  
      7561       7562       7573       7572       7682       7683       7694       7693  
      7562       7563       7574       7573       7683       7684       7695       7694  
      7563       7564       7575       7574       7684       7685       7696       7695  
      7564       7565       7576       7575       7685       7686       7697       7696  
      7565       7566       7577       7576       7686       7687       7698       7697  
      7566       7567       7578       7577       7687       7688       7699       7698  
      7567       7568       7579       7578       7688       7689       7700       7699  
      7569       7570       7581       7580       7690       7691       7702       7701  
      7570       7571       7582       7581       7691       7692       7703       7702  
      7571       7572       7583       7582       7692       7693       7704       7703  
      7572       7573       7584       7583       7693       7694       7705       7704  
      7573       7574       7585       7584       7694       7695       7706       7705  
      7574       7575       7586       7585       7695       7696       7707       7706  
      7575       7576       7587       7586       7696       7697       7708       7707  
      7576       7577       7588       7587       7697       7698       7709       7708  
      7577       7578       7589       7588       7698       7699       7710       7709  
      7578       7579       7590       7589       7699       7700       7711       7710  
      7580       7581       7592       7591       7701       7702       7713       7712  
      7581       7582       7593       7592       7702       7703       7714       7713  
      7582       7583       7594       7593       7703       7704       7715       7714  
      7583       7584       7595       7594       7704       7705       7716       7715  
      7584       7585       7596       7595       7705       7706       7717       7716  
      7585       7586       7597       7596       7706       7707       7718       7717  
      7586       7587       7598       7597       7707       7708       7719       7718  
      7587       7588       7599       7598       7708       7709       7720       7719  
      7588       7589       7600       7599       7709       7710       7721       7720  
      7589       7590       7601       7600       7710       7711       7722       7721  
      7591       7592       7603       7602       7712       7713       7724       7723  
      7592       7593       7604       7603       7713       7714       7725       7724  
      7593       7594       7605       7604       7714       7715       7726       7725  
      7594       7595       7606       7605       7715       7716       7727       7726  
      7595       7596       7607       7606       7716       7717       7728       7727  
      7596       7597       7608       7607       7717       7718       7729       7728  
      7597       7598       7609       7608       7718       7719       7730       7729  
      7598       7599       7610       7609       7719       7720       7731       7730  
      7599       7600       7611       7610       7720       7721       7732       7731  
      7600       7601       7612       7611       7721       7722       7733       7732  
      7602       7603       7614       7613       7723       7724       7735       7734  
      7603       7604       7615       7614       7724       7725       7736       7735  
      7604       7605       7616       7615       7725       7726       7737       7736  
      7605       7606       7617       7616       7726       7727       7738       7737  
      7606       7607       7618       7617       7727       7728       7739       7738  
      7607       7608       7619       7618       7728       7729       7740       7739  
      7608       7609       7620       7619       7729       7730       7741       7740  
      7609       7610       7621       7620       7730       7731       7742       7741  
      7610       7611       7622       7621       7731       7732       7743       7742  
      7611       7612       7623       7622       7732       7733       7744       7743  
      7624       7625       7636       7635       7745       7746       7757       7756  
      7625       7626       7637       7636       7746       7747       7758       7757  
      7626       7627       7638       7637       7747       7748       7759       7758  
      7627       7628       7639       7638       7748       7749       7760       7759  
      7628       7629       7640       7639       7749       7750       7761       7760  
      7629       7630       7641       7640       7750       7751       7762       7761  
      7630       7631       7642       7641       7751       7752       7763       7762  
      7631       7632       7643       7642       7752       7753       7764       7763  
      7632       7633       7644       7643       7753       7754       7765       7764  
      7633       7634       7645       7644       7754       7755       7766       7765  
      7635       7636       7647       7646       7756       7757       7768       7767  
      7636       7637       7648       7647       7757       7758       7769       7768  
      7637       7638       7649       7648       7758       7759       7770       7769  
      7638       7639       7650       7649       7759       7760       7771       7770  
      7639       7640       7651       7650       7760       7761       7772       7771  
      7640       7641       7652       7651       7761       7762       7773       7772  
      7641       7642       7653       7652       7762       7763       7774       7773  
      7642       7643       7654       7653       7763       7764       7775       7774  
      7643       7644       7655       7654       7764       7765       7776       7775  
      7644       7645       7656       7655       7765       7766       7777       7776  
      7646       7647       7658       7657       7767       7768       7779       7778  
      7647       7648       7659       7658       7768       7769       7780       7779  
      7648       7649       7660       7659       7769       7770       7781       7780  
      7649       7650       7661       7660       7770       7771       7782       7781  
      7650       7651       7662       7661       7771       7772       7783       7782  
      7651       7652       7663       7662       7772       7773       7784       7783  
      7652       7653       7664       7663       7773       7774       7785       7784  
      7653       7654       7665       7664       7774       7775       7786       7785  
      7654       7655       7666       7665       7775       7776       7787       7786  
      7655       7656       7667       7666       7776       7777       7788       7787  
      7657       7658       7669       7668       7778       7779       7790       7789  
      7658       7659       7670       7669       7779       7780       7791       7790  
      7659       7660       7671       7670       7780       7781       7792       7791  
      7660       7661       7672       7671       7781       7782       7793       7792  
      7661       7662       7673       7672       7782       7783       7794       7793  
      7662       7663       7674       7673       7783       7784       7795       7794  
      7663       7664       7675       7674       7784       7785       7796       7795  
      7664       7665       7676       7675       7785       7786       7797       7796  
      7665       7666       7677       7676       7786       7787       7798       7797  
      7666       7667       7678       7677       7787       7788       7799       7798  
      7668       7669       7680       7679       7789       7790       7801       7800  
      7669       7670       7681       7680       7790       7791       7802       7801  
      7670       7671       7682       7681       7791       7792       7803       7802  
      7671       7672       7683       7682       7792       7793       7804       7803  
      7672       7673       7684       7683       7793       7794       7805       7804  
      7673       7674       7685       7684       7794       7795       7806       7805  
      7674       7675       7686       7685       7795       7796       7807       7806  
      7675       7676       7687       7686       7796       7797       7808       7807  
      7676       7677       7688       7687       7797       7798       7809       7808  
      7677       7678       7689       7688       7798       7799       7810       7809  
      7679       7680       7691       7690       7800       7801       7812       7811  
      7680       7681       7692       7691       7801       7802       7813       7812  
      7681       7682       7693       7692       7802       7803       7814       7813  
      7682       7683       7694       7693       7803       7804       7815       7814  
      7683       7684       7695       7694       7804       7805       7816       7815  
      7684       7685       7696       7695       7805       7806       7817       7816  
      7685       7686       7697       7696       7806       7807       7818       7817  
      7686       7687       7698       7697       7807       7808       7819       7818  
      7687       7688       7699       7698       7808       7809       7820       7819  
      7688       7689       7700       7699       7809       7810       7821       7820  
      7690       7691       7702       7701       7811       7812       7823       7822  
      7691       7692       7703       7702       7812       7813       7824       7823  
      7692       7693       7704       7703       7813       7814       7825       7824  
      7693       7694       7705       7704       7814       7815       7826       7825  
      7694       7695       7706       7705       7815       7816       7827       7826  
      7695       7696       7707       7706       7816       7817       7828       7827  
      7696       7697       7708       7707       7817       7818       7829       7828  
      7697       7698       7709       7708       7818       7819       7830       7829  
      7698       7699       7710       7709       7819       7820       7831       7830  
      7699       7700       7711       7710       7820       7821       7832       7831  
      7701       7702       7713       7712       7822       7823       7834       7833  
      7702       7703       7714       7713       7823       7824       7835       7834  
      7703       7704       7715       7714       7824       7825       7836       7835  
      7704       7705       7716       7715       7825       7826       7837       7836  
      7705       7706       7717       7716       7826       7827       7838       7837  
      7706       7707       7718       7717       7827       7828       7839       7838  
      7707       7708       7719       7718       7828       7829       7840       7839  
      7708       7709       7720       7719       7829       7830       7841       7840  
      7709       7710       7721       7720       7830       7831       7842       7841  
      7710       7711       7722       7721       7831       7832       7843       7842  
      7712       7713       7724       7723       7833       7834       7845       7844  
      7713       7714       7725       7724       7834       7835       7846       7845  
      7714       7715       7726       7725       7835       7836       7847       7846  
      7715       7716       7727       7726       7836       7837       7848       7847  
      7716       7717       7728       7727       7837       7838       7849       7848  
      7717       7718       7729       7728       7838       7839       7850       7849  
      7718       7719       7730       7729       7839       7840       7851       7850  
      7719       7720       7731       7730       7840       7841       7852       7851  
      7720       7721       7732       7731       7841       7842       7853       7852  
      7721       7722       7733       7732       7842       7843       7854       7853  
      7723       7724       7735       7734       7844       7845       7856       7855  
      7724       7725       7736       7735       7845       7846       7857       7856  
      7725       7726       7737       7736       7846       7847       7858       7857  
      7726       7727       7738       7737       7847       7848       7859       7858  
      7727       7728       7739       7738       7848       7849       7860       7859  
      7728       7729       7740       7739       7849       7850       7861       7860  
      7729       7730       7741       7740       7850       7851       7862       7861  
      7730       7731       7742       7741       7851       7852       7863       7862  
      7731       7732       7743       7742       7852       7853       7864       7863  
      7732       7733       7744       7743       7853       7854       7865       7864  
      7745       7746       7757       7756       7866       7867       7878       7877  
      7746       7747       7758       7757       7867       7868       7879       7878  
      7747       7748       7759       7758       7868       7869       7880       7879  
      7748       7749       7760       7759       7869       7870       7881       7880  
      7749       7750       7761       7760       7870       7871       7882       7881  
      7750       7751       7762       7761       7871       7872       7883       7882  
      7751       7752       7763       7762       7872       7873       7884       7883  
      7752       7753       7764       7763       7873       7874       7885       7884  
      7753       7754       7765       7764       7874       7875       7886       7885  
      7754       7755       7766       7765       7875       7876       7887       7886  
      7756       7757       7768       7767       7877       7878       7889       7888  
      7757       7758       7769       7768       7878       7879       7890       7889  
      7758       7759       7770       7769       7879       7880       7891       7890  
      7759       7760       7771       7770       7880       7881       7892       7891  
      7760       7761       7772       7771       7881       7882       7893       7892  
      7761       7762       7773       7772       7882       7883       7894       7893  
      7762       7763       7774       7773       7883       7884       7895       7894  
      7763       7764       7775       7774       7884       7885       7896       7895  
      7764       7765       7776       7775       7885       7886       7897       7896  
      7765       7766       7777       7776       7886       7887       7898       7897  
      7767       7768       7779       7778       7888       7889       7900       7899  
      7768       7769       7780       7779       7889       7890       7901       7900  
      7769       7770       7781       7780       7890       7891       7902       7901  
      7770       7771       7782       7781       7891       7892       7903       7902  
      7771       7772       7783       7782       7892       7893       7904       7903  
      7772       7773       7784       7783       7893       7894       7905       7904  
      7773       7774       7785       7784       7894       7895       7906       7905  
      7774       7775       7786       7785       7895       7896       7907       7906  
      7775       7776       7787       7786       7896       7897       7908       7907  
      7776       7777       7788       7787       7897       7898       7909       7908  
      7778       7779       7790       7789       7899       7900       7911       7910  
      7779       7780       7791       7790       7900       7901       7912       7911  
      7780       7781       7792       7791       7901       7902       7913       7912  
      7781       7782       7793       7792       7902       7903       7914       7913  
      7782       7783       7794       7793       7903       7904       7915       7914  
      7783       7784       7795       7794       7904       7905       7916       7915  
      7784       7785       7796       7795       7905       7906       7917       7916  
      7785       7786       7797       7796       7906       7907       7918       7917  
      7786       7787       7798       7797       7907       7908       7919       7918  
      7787       7788       7799       7798       7908       7909       7920       7919  
      7789       7790       7801       7800       7910       7911       7922       7921  
      7790       7791       7802       7801       7911       7912       7923       7922  
      7791       7792       7803       7802       7912       7913       7924       7923  
      7792       7793       7804       7803       7913       7914       7925       7924  
      7793       7794       7805       7804       7914       7915       7926       7925  
      7794       7795       7806       7805       7915       7916       7927       7926  
      7795       7796       7807       7806       7916       7917       7928       7927  
      7796       7797       7808       7807       7917       7918       7929       7928  
      7797       7798       7809       7808       7918       7919       7930       7929  
      7798       7799       7810       7809       7919       7920       7931       7930  
      7800       7801       7812       7811       7921       7922       7933       7932  
      7801       7802       7813       7812       7922       7923       7934       7933  
      7802       7803       7814       7813       7923       7924       7935       7934  
      7803       7804       7815       7814       7924       7925       7936       7935  
      7804       7805       7816       7815       7925       7926       7937       7936  
      7805       7806       7817       7816       7926       7927       7938       7937  
      7806       7807       7818       7817       7927       7928       7939       7938  
      7807       7808       7819       7818       7928       7929       7940       7939  
      7808       7809       7820       7819       7929       7930       7941       7940  
      7809       7810       7821       7820       7930       7931       7942       7941  
      7811       7812       7823       7822       7932       7933       7944       7943  
      7812       7813       7824       7823       7933       7934       7945       7944  
      7813       7814       7825       7824       7934       7935       7946       7945  
      7814       7815       7826       7825       7935       7936       7947       7946  
      7815       7816       7827       7826       7936       7937       7948       7947  
      7816       7817       7828       7827       7937       7938       7949       7948  
      7817       7818       7829       7828       7938       7939       7950       7949  
      7818       7819       7830       7829       7939       7940       7951       7950  
      7819       7820       7831       7830       7940       7941       7952       7951  
      7820       7821       7832       7831       7941       7942       7953       7952  
      7822       7823       7834       7833       7943       7944       7955       7954  
      7823       7824       7835       7834       7944       7945       7956       7955  
      7824       7825       7836       7835       7945       7946       7957       7956  
      7825       7826       7837       7836       7946       7947       7958       7957  
      7826       7827       7838       7837       7947       7948       7959       7958  
      7827       7828       7839       7838       7948       7949       7960       7959  
      7828       7829       7840       7839       7949       7950       7961       7960  
      7829       7830       7841       7840       7950       7951       7962       7961  
      7830       7831       7842       7841       7951       7952       7963       7962  
      7831       7832       7843       7842       7952       7953       7964       7963  
      7833       7834       7845       7844       7954       7955       7966       7965  
      7834       7835       7846       7845       7955       7956       7967       7966  
      7835       7836       7847       7846       7956       7957       7968       7967  
      7836       7837       7848       7847       7957       7958       7969       7968  
      7837       7838       7849       7848       7958       7959       7970       7969  
      7838       7839       7850       7849       7959       7960       7971       7970  
      7839       7840       7851       7850       7960       7961       7972       7971  
      7840       7841       7852       7851       7961       7962       7973       7972  
      7841       7842       7853       7852       7962       7963       7974       7973  
      7842       7843       7854       7853       7963       7964       7975       7974  
      7844       7845       7856       7855       7965       7966       7977       7976  
      7845       7846       7857       7856       7966       7967       7978       7977  
      7846       7847       7858       7857       7967       7968       7979       7978  
      7847       7848       7859       7858       7968       7969       7980       7979  
      7848       7849       7860       7859       7969       7970       7981       7980  
      7849       7850       7861       7860       7970       7971       7982       7981  
      7850       7851       7862       7861       7971       7972       7983       7982  
      7851       7852       7863       7862       7972       7973       7984       7983  
      7852       7853       7864       7863       7973       7974       7985       7984  
      7853       7854       7865       7864       7974       7975       7986       7985  
      7866       7867       7878       7877       7987       7988       7999       7998  
      7867       7868       7879       7878       7988       7989       8000       7999  
      7868       7869       7880       7879       7989       7990       8001       8000  
      7869       7870       7881       7880       7990       7991       8002       8001  
      7870       7871       7882       7881       7991       7992       8003       8002  
      7871       7872       7883       7882       7992       7993       8004       8003  
      7872       7873       7884       7883       7993       7994       8005       8004  
      7873       7874       7885       7884       7994       7995       8006       8005  
      7874       7875       7886       7885       7995       7996       8007       8006  
      7875       7876       7887       7886       7996       7997       8008       8007  
      7877       7878       7889       7888       7998       7999       8010       8009  
      7878       7879       7890       7889       7999       8000       8011       8010  
      7879       7880       7891       7890       8000       8001       8012       8011  
      7880       7881       7892       7891       8001       8002       8013       8012  
      7881       7882       7893       7892       8002       8003       8014       8013  
      7882       7883       7894       7893       8003       8004       8015       8014  
      7883       7884       7895       7894       8004       8005       8016       8015  
      7884       7885       7896       7895       8005       8006       8017       8016  
      7885       7886       7897       7896       8006       8007       8018       8017  
      7886       7887       7898       7897       8007       8008       8019       8018  
      7888       7889       7900       7899       8009       8010       8021       8020  
      7889       7890       7901       7900       8010       8011       8022       8021  
      7890       7891       7902       7901       8011       8012       8023       8022  
      7891       7892       7903       7902       8012       8013       8024       8023  
      7892       7893       7904       7903       8013       8014       8025       8024  
      7893       7894       7905       7904       8014       8015       8026       8025  
      7894       7895       7906       7905       8015       8016       8027       8026  
      7895       7896       7907       7906       8016       8017       8028       8027  
      7896       7897       7908       7907       8017       8018       8029       8028  
      7897       7898       7909       7908       8018       8019       8030       8029  
      7899       7900       7911       7910       8020       8021       8032       8031  
      7900       7901       7912       7911       8021       8022       8033       8032  
      7901       7902       7913       7912       8022       8023       8034       8033  
      7902       7903       7914       7913       8023       8024       8035       8034  
      7903       7904       7915       7914       8024       8025       8036       8035  
      7904       7905       7916       7915       8025       8026       8037       8036  
      7905       7906       7917       7916       8026       8027       8038       8037  
      7906       7907       7918       7917       8027       8028       8039       8038  
      7907       7908       7919       7918       8028       8029       8040       8039  
      7908       7909       7920       7919       8029       8030       8041       8040  
      7910       7911       7922       7921       8031       8032       8043       8042  
      7911       7912       7923       7922       8032       8033       8044       8043  
      7912       7913       7924       7923       8033       8034       8045       8044  
      7913       7914       7925       7924       8034       8035       8046       8045  
      7914       7915       7926       7925       8035       8036       8047       8046  
      7915       7916       7927       7926       8036       8037       8048       8047  
      7916       7917       7928       7927       8037       8038       8049       8048  
      7917       7918       7929       7928       8038       8039       8050       8049  
      7918       7919       7930       7929       8039       8040       8051       8050  
      7919       7920       7931       7930       8040       8041       8052       8051  
      7921       7922       7933       7932       8042       8043       8054       8053  
      7922       7923       7934       7933       8043       8044       8055       8054  
      7923       7924       7935       7934       8044       8045       8056       8055  
      7924       7925       7936       7935       8045       8046       8057       8056  
      7925       7926       7937       7936       8046       8047       8058       8057  
      7926       7927       7938       7937       8047       8048       8059       8058  
      7927       7928       7939       7938       8048       8049       8060       8059  
      7928       7929       7940       7939       8049       8050       8061       8060  
      7929       7930       7941       7940       8050       8051       8062       8061  
      7930       7931       7942       7941       8051       8052       8063       8062  
      7932       7933       7944       7943       8053       8054       8065       8064  
      7933       7934       7945       7944       8054       8055       8066       8065  
      7934       7935       7946       7945       8055       8056       8067       8066  
      7935       7936       7947       7946       8056       8057       8068       8067  
      7936       7937       7948       7947       8057       8058       8069       8068  
      7937       7938       7949       7948       8058       8059       8070       8069  
      7938       7939       7950       7949       8059       8060       8071       8070  
      7939       7940       7951       7950       8060       8061       8072       8071  
      7940       7941       7952       7951       8061       8062       8073       8072  
      7941       7942       7953       7952       8062       8063       8074       8073  
      7943       7944       7955       7954       8064       8065       8076       8075  
      7944       7945       7956       7955       8065       8066       8077       8076  
      7945       7946       7957       7956       8066       8067       8078       8077  
      7946       7947       7958       7957       8067       8068       8079       8078  
      7947       7948       7959       7958       8068       8069       8080       8079  
      7948       7949       7960       7959       8069       8070       8081       8080  
      7949       7950       7961       7960       8070       8071       8082       8081  
      7950       7951       7962       7961       8071       8072       8083       8082  
      7951       7952       7963       7962       8072       8073       8084       8083  
      7952       7953       7964       7963       8073       8074       8085       8084  
      7954       7955       7966       7965       8075       8076       8087       8086  
      7955       7956       7967       7966       8076       8077       8088       8087  
      7956       7957       7968       7967       8077       8078       8089       8088  
      7957       7958       7969       7968       8078       8079       8090       8089  
      7958       7959       7970       7969       8079       8080       8091       8090  
      7959       7960       7971       7970       8080       8081       8092       8091  
      7960       7961       7972       7971       8081       8082       8093       8092  
      7961       7962       7973       7972       8082       8083       8094       8093  
      7962       7963       7974       7973       8083       8084       8095       8094  
      7963       7964       7975       7974       8084       8085       8096       8095  
      7965       7966       7977       7976       8086       8087       8098       8097  
      7966       7967       7978       7977       8087       8088       8099       8098  
      7967       7968       7979       7978       8088       8089       8100       8099  
      7968       7969       7980       7979       8089       8090       8101       8100  
      7969       7970       7981       7980       8090       8091       8102       8101  
      7970       7971       7982       7981       8091       8092       8103       8102  
      7971       7972       7983       7982       8092       8093       8104       8103  
      7972       7973       7984       7983       8093       8094       8105       8104  
      7973       7974       7985       7984       8094       8095       8106       8105  
      7974       7975       7986       7985       8095       8096       8107       8106  
      7987       7988       7999       7998       8108       8109       8120       8119  
      7988       7989       8000       7999       8109       8110       8121       8120  
      7989       7990       8001       8000       8110       8111       8122       8121  
      7990       7991       8002       8001       8111       8112       8123       8122  
      7991       7992       8003       8002       8112       8113       8124       8123  
      7992       7993       8004       8003       8113       8114       8125       8124  
      7993       7994       8005       8004       8114       8115       8126       8125  
      7994       7995       8006       8005       8115       8116       8127       8126  
      7995       7996       8007       8006       8116       8117       8128       8127  
      7996       7997       8008       8007       8117       8118       8129       8128  
      7998       7999       8010       8009       8119       8120       8131       8130  
      7999       8000       8011       8010       8120       8121       8132       8131  
      8000       8001       8012       8011       8121       8122       8133       8132  
      8001       8002       8013       8012       8122       8123       8134       8133  
      8002       8003       8014       8013       8123       8124       8135       8134  
      8003       8004       8015       8014       8124       8125       8136       8135  
      8004       8005       8016       8015       8125       8126       8137       8136  
      8005       8006       8017       8016       8126       8127       8138       8137  
      8006       8007       8018       8017       8127       8128       8139       8138  
      8007       8008       8019       8018       8128       8129       8140       8139  
      8009       8010       8021       8020       8130       8131       8142       8141  
      8010       8011       8022       8021       8131       8132       8143       8142  
      8011       8012       8023       8022       8132       8133       8144       8143  
      8012       8013       8024       8023       8133       8134       8145       8144  
      8013       8014       8025       8024       8134       8135       8146       8145  
      8014       8015       8026       8025       8135       8136       8147       8146  
      8015       8016       8027       8026       8136       8137       8148       8147  
      8016       8017       8028       8027       8137       8138       8149       8148  
      8017       8018       8029       8028       8138       8139       8150       8149  
      8018       8019       8030       8029       8139       8140       8151       8150  
      8020       8021       8032       8031       8141       8142       8153       8152  
      8021       8022       8033       8032       8142       8143       8154       8153  
      8022       8023       8034       8033       8143       8144       8155       8154  
      8023       8024       8035       8034       8144       8145       8156       8155  
      8024       8025       8036       8035       8145       8146       8157       8156  
      8025       8026       8037       8036       8146       8147       8158       8157  
      8026       8027       8038       8037       8147       8148       8159       8158  
      8027       8028       8039       8038       8148       8149       8160       8159  
      8028       8029       8040       8039       8149       8150       8161       8160  
      8029       8030       8041       8040       8150       8151       8162       8161  
      8031       8032       8043       8042       8152       8153       8164       8163  
      8032       8033       8044       8043       8153       8154       8165       8164  
      8033       8034       8045       8044       8154       8155       8166       8165  
      8034       8035       8046       8045       8155       8156       8167       8166  
      8035       8036       8047       8046       8156       8157       8168       8167  
      8036       8037       8048       8047       8157       8158       8169       8168  
      8037       8038       8049       8048       8158       8159       8170       8169  
      8038       8039       8050       8049       8159       8160       8171       8170  
      8039       8040       8051       8050       8160       8161       8172       8171  
      8040       8041       8052       8051       8161       8162       8173       8172  
      8042       8043       8054       8053       8163       8164       8175       8174  
      8043       8044       8055       8054       8164       8165       8176       8175  
      8044       8045       8056       8055       8165       8166       8177       8176  
      8045       8046       8057       8056       8166       8167       8178       8177  
      8046       8047       8058       8057       8167       8168       8179       8178  
      8047       8048       8059       8058       8168       8169       8180       8179  
      8048       8049       8060       8059       8169       8170       8181       8180  
      8049       8050       8061       8060       8170       8171       8182       8181  
      8050       8051       8062       8061       8171       8172       8183       8182  
      8051       8052       8063       8062       8172       8173       8184       8183  
      8053       8054       8065       8064       8174       8175       8186       8185  
      8054       8055       8066       8065       8175       8176       8187       8186  
      8055       8056       8067       8066       8176       8177       8188       8187  
      8056       8057       8068       8067       8177       8178       8189       8188  
      8057       8058       8069       8068       8178       8179       8190       8189  
      8058       8059       8070       8069       8179       8180       8191       8190  
      8059       8060       8071       8070       8180       8181       8192       8191  
      8060       8061       8072       8071       8181       8182       8193       8192  
      8061       8062       8073       8072       8182       8183       8194       8193  
      8062       8063       8074       8073       8183       8184       8195       8194  
      8064       8065       8076       8075       8185       8186       8197       8196  
      8065       8066       8077       8076       8186       8187       8198       8197  
      8066       8067       8078       8077       8187       8188       8199       8198  
      8067       8068       8079       8078       8188       8189       8200       8199  
      8068       8069       8080       8079       8189       8190       8201       8200  
      8069       8070       8081       8080       8190       8191       8202       8201  
      8070       8071       8082       8081       8191       8192       8203       8202  
      8071       8072       8083       8082       8192       8193       8204       8203  
      8072       8073       8084       8083       8193       8194       8205       8204  
      8073       8074       8085       8084       8194       8195       8206       8205  
      8075       8076       8087       8086       8196       8197       8208       8207  
      8076       8077       8088       8087       8197       8198       8209       8208  
      8077       8078       8089       8088       8198       8199       8210       8209  
      8078       8079       8090       8089       8199       8200       8211       8210  
      8079       8080       8091       8090       8200       8201       8212       8211  
      8080       8081       8092       8091       8201       8202       8213       8212  
      8081       8082       8093       8092       8202       8203       8214       8213  
      8082       8083       8094       8093       8203       8204       8215       8214  
      8083       8084       8095       8094       8204       8205       8216       8215  
      8084       8085       8096       8095       8205       8206       8217       8216  
      8086       8087       8098       8097       8207       8208       8219       8218  
      8087       8088       8099       8098       8208       8209       8220       8219  
      8088       8089       8100       8099       8209       8210       8221       8220  
      8089       8090       8101       8100       8210       8211       8222       8221  
      8090       8091       8102       8101       8211       8212       8223       8222  
      8091       8092       8103       8102       8212       8213       8224       8223  
      8092       8093       8104       8103       8213       8214       8225       8224  
      8093       8094       8105       8104       8214       8215       8226       8225  
      8094       8095       8106       8105       8215       8216       8227       8226  
      8095       8096       8107       8106       8216       8217       8228       8227  
      8108       8109       8120       8119       8229       8230       8241       8240  
      8109       8110       8121       8120       8230       8231       8242       8241  
      8110       8111       8122       8121       8231       8232       8243       8242  
      8111       8112       8123       8122       8232       8233       8244       8243  
      8112       8113       8124       8123       8233       8234       8245       8244  
      8113       8114       8125       8124       8234       8235       8246       8245  
      8114       8115       8126       8125       8235       8236       8247       8246  
      8115       8116       8127       8126       8236       8237       8248       8247  
      8116       8117       8128       8127       8237       8238       8249       8248  
      8117       8118       8129       8128       8238       8239       8250       8249  
      8119       8120       8131       8130       8240       8241       8252       8251  
      8120       8121       8132       8131       8241       8242       8253       8252  
      8121       8122       8133       8132       8242       8243       8254       8253  
      8122       8123       8134       8133       8243       8244       8255       8254  
      8123       8124       8135       8134       8244       8245       8256       8255  
      8124       8125       8136       8135       8245       8246       8257       8256  
      8125       8126       8137       8136       8246       8247       8258       8257  
      8126       8127       8138       8137       8247       8248       8259       8258  
      8127       8128       8139       8138       8248       8249       8260       8259  
      8128       8129       8140       8139       8249       8250       8261       8260  
      8130       8131       8142       8141       8251       8252       8263       8262  
      8131       8132       8143       8142       8252       8253       8264       8263  
      8132       8133       8144       8143       8253       8254       8265       8264  
      8133       8134       8145       8144       8254       8255       8266       8265  
      8134       8135       8146       8145       8255       8256       8267       8266  
      8135       8136       8147       8146       8256       8257       8268       8267  
      8136       8137       8148       8147       8257       8258       8269       8268  
      8137       8138       8149       8148       8258       8259       8270       8269  
      8138       8139       8150       8149       8259       8260       8271       8270  
      8139       8140       8151       8150       8260       8261       8272       8271  
      8141       8142       8153       8152       8262       8263       8274       8273  
      8142       8143       8154       8153       8263       8264       8275       8274  
      8143       8144       8155       8154       8264       8265       8276       8275  
      8144       8145       8156       8155       8265       8266       8277       8276  
      8145       8146       8157       8156       8266       8267       8278       8277  
      8146       8147       8158       8157       8267       8268       8279       8278  
      8147       8148       8159       8158       8268       8269       8280       8279  
      8148       8149       8160       8159       8269       8270       8281       8280  
      8149       8150       8161       8160       8270       8271       8282       8281  
      8150       8151       8162       8161       8271       8272       8283       8282  
      8152       8153       8164       8163       8273       8274       8285       8284  
      8153       8154       8165       8164       8274       8275       8286       8285  
      8154       8155       8166       8165       8275       8276       8287       8286  
      8155       8156       8167       8166       8276       8277       8288       8287  
      8156       8157       8168       8167       8277       8278       8289       8288  
      8157       8158       8169       8168       8278       8279       8290       8289  
      8158       8159       8170       8169       8279       8280       8291       8290  
      8159       8160       8171       8170       8280       8281       8292       8291  
      8160       8161       8172       8171       8281       8282       8293       8292  
      8161       8162       8173       8172       8282       8283       8294       8293  
      8163       8164       8175       8174       8284       8285       8296       8295  
      8164       8165       8176       8175       8285       8286       8297       8296  
      8165       8166       8177       8176       8286       8287       8298       8297  
      8166       8167       8178       8177       8287       8288       8299       8298  
      8167       8168       8179       8178       8288       8289       8300       8299  
      8168       8169       8180       8179       8289       8290       8301       8300  
      8169       8170       8181       8180       8290       8291       8302       8301  
      8170       8171       8182       8181       8291       8292       8303       8302  
      8171       8172       8183       8182       8292       8293       8304       8303  
      8172       8173       8184       8183       8293       8294       8305       8304  
      8174       8175       8186       8185       8295       8296       8307       8306  
      8175       8176       8187       8186       8296       8297       8308       8307  
      8176       8177       8188       8187       8297       8298       8309       8308  
      8177       8178       8189       8188       8298       8299       8310       8309  
      8178       8179       8190       8189       8299       8300       8311       8310  
      8179       8180       8191       8190       8300       8301       8312       8311  
      8180       8181       8192       8191       8301       8302       8313       8312  
      8181       8182       8193       8192       8302       8303       8314       8313  
      8182       8183       8194       8193       8303       8304       8315       8314  
      8183       8184       8195       8194       8304       8305       8316       8315  
      8185       8186       8197       8196       8306       8307       8318       8317  
      8186       8187       8198       8197       8307       8308       8319       8318  
      8187       8188       8199       8198       8308       8309       8320       8319  
      8188       8189       8200       8199       8309       8310       8321       8320  
      8189       8190       8201       8200       8310       8311       8322       8321  
      8190       8191       8202       8201       8311       8312       8323       8322  
      8191       8192       8203       8202       8312       8313       8324       8323  
      8192       8193       8204       8203       8313       8314       8325       8324  
      8193       8194       8205       8204       8314       8315       8326       8325  
      8194       8195       8206       8205       8315       8316       8327       8326  
      8196       8197       8208       8207       8317       8318       8329       8328  
      8197       8198       8209       8208       8318       8319       8330       8329  
      8198       8199       8210       8209       8319       8320       8331       8330  
      8199       8200       8211       8210       8320       8321       8332       8331  
      8200       8201       8212       8211       8321       8322       8333       8332  
      8201       8202       8213       8212       8322       8323       8334       8333  
      8202       8203       8214       8213       8323       8324       8335       8334  
      8203       8204       8215       8214       8324       8325       8336       8335  
      8204       8205       8216       8215       8325       8326       8337       8336  
      8205       8206       8217       8216       8326       8327       8338       8337  
      8207       8208       8219       8218       8328       8329       8340       8339  
      8208       8209       8220       8219       8329       8330       8341       8340  
      8209       8210       8221       8220       8330       8331       8342       8341  
      8210       8211       8222       8221       8331       8332       8343       8342  
      8211       8212       8223       8222       8332       8333       8344       8343  
      8212       8213       8224       8223       8333       8334       8345       8344  
      8213       8214       8225       8224       8334       8335       8346       8345  
      8214       8215       8226       8225       8335       8336       8347       8346  
      8215       8216       8227       8226       8336       8337       8348       8347  
      8216       8217       8228       8227       8337       8338       8349       8348  
      8229       8230       8241       8240       8350       8351       8362       8361  
      8230       8231       8242       8241       8351       8352       8363       8362  
      8231       8232       8243       8242       8352       8353       8364       8363  
      8232       8233       8244       8243       8353       8354       8365       8364  
      8233       8234       8245       8244       8354       8355       8366       8365  
      8234       8235       8246       8245       8355       8356       8367       8366  
      8235       8236       8247       8246       8356       8357       8368       8367  
      8236       8237       8248       8247       8357       8358       8369       8368  
      8237       8238       8249       8248       8358       8359       8370       8369  
      8238       8239       8250       8249       8359       8360       8371       8370  
      8240       8241       8252       8251       8361       8362       8373       8372  
      8241       8242       8253       8252       8362       8363       8374       8373  
      8242       8243       8254       8253       8363       8364       8375       8374  
      8243       8244       8255       8254       8364       8365       8376       8375  
      8244       8245       8256       8255       8365       8366       8377       8376  
      8245       8246       8257       8256       8366       8367       8378       8377  
      8246       8247       8258       8257       8367       8368       8379       8378  
      8247       8248       8259       8258       8368       8369       8380       8379  
      8248       8249       8260       8259       8369       8370       8381       8380  
      8249       8250       8261       8260       8370       8371       8382       8381  
      8251       8252       8263       8262       8372       8373       8384       8383  
      8252       8253       8264       8263       8373       8374       8385       8384  
      8253       8254       8265       8264       8374       8375       8386       8385  
      8254       8255       8266       8265       8375       8376       8387       8386  
      8255       8256       8267       8266       8376       8377       8388       8387  
      8256       8257       8268       8267       8377       8378       8389       8388  
      8257       8258       8269       8268       8378       8379       8390       8389  
      8258       8259       8270       8269       8379       8380       8391       8390  
      8259       8260       8271       8270       8380       8381       8392       8391  
      8260       8261       8272       8271       8381       8382       8393       8392  
      8262       8263       8274       8273       8383       8384       8395       8394  
      8263       8264       8275       8274       8384       8385       8396       8395  
      8264       8265       8276       8275       8385       8386       8397       8396  
      8265       8266       8277       8276       8386       8387       8398       8397  
      8266       8267       8278       8277       8387       8388       8399       8398  
      8267       8268       8279       8278       8388       8389       8400       8399  
      8268       8269       8280       8279       8389       8390       8401       8400  
      8269       8270       8281       8280       8390       8391       8402       8401  
      8270       8271       8282       8281       8391       8392       8403       8402  
      8271       8272       8283       8282       8392       8393       8404       8403  
      8273       8274       8285       8284       8394       8395       8406       8405  
      8274       8275       8286       8285       8395       8396       8407       8406  
      8275       8276       8287       8286       8396       8397       8408       8407  
      8276       8277       8288       8287       8397       8398       8409       8408  
      8277       8278       8289       8288       8398       8399       8410       8409  
      8278       8279       8290       8289       8399       8400       8411       8410  
      8279       8280       8291       8290       8400       8401       8412       8411  
      8280       8281       8292       8291       8401       8402       8413       8412  
      8281       8282       8293       8292       8402       8403       8414       8413  
      8282       8283       8294       8293       8403       8404       8415       8414  
      8284       8285       8296       8295       8405       8406       8417       8416  
      8285       8286       8297       8296       8406       8407       8418       8417  
      8286       8287       8298       8297       8407       8408       8419       8418  
      8287       8288       8299       8298       8408       8409       8420       8419  
      8288       8289       8300       8299       8409       8410       8421       8420  
      8289       8290       8301       8300       8410       8411       8422       8421  
      8290       8291       8302       8301       8411       8412       8423       8422  
      8291       8292       8303       8302       8412       8413       8424       8423  
      8292       8293       8304       8303       8413       8414       8425       8424  
      8293       8294       8305       8304       8414       8415       8426       8425  
      8295       8296       8307       8306       8416       8417       8428       8427  
      8296       8297       8308       8307       8417       8418       8429       8428  
      8297       8298       8309       8308       8418       8419       8430       8429  
      8298       8299       8310       8309       8419       8420       8431       8430  
      8299       8300       8311       8310       8420       8421       8432       8431  
      8300       8301       8312       8311       8421       8422       8433       8432  
      8301       8302       8313       8312       8422       8423       8434       8433  
      8302       8303       8314       8313       8423       8424       8435       8434  
      8303       8304       8315       8314       8424       8425       8436       8435  
      8304       8305       8316       8315       8425       8426       8437       8436  
      8306       8307       8318       8317       8427       8428       8439       8438  
      8307       8308       8319       8318       8428       8429       8440       8439  
      8308       8309       8320       8319       8429       8430       8441       8440  
      8309       8310       8321       8320       8430       8431       8442       8441  
      8310       8311       8322       8321       8431       8432       8443       8442  
      8311       8312       8323       8322       8432       8433       8444       8443  
      8312       8313       8324       8323       8433       8434       8445       8444  
      8313       8314       8325       8324       8434       8435       8446       8445  
      8314       8315       8326       8325       8435       8436       8447       8446  
      8315       8316       8327       8326       8436       8437       8448       8447  
      8317       8318       8329       8328       8438       8439       8450       8449  
      8318       8319       8330       8329       8439       8440       8451       8450  
      8319       8320       8331       8330       8440       8441       8452       8451  
      8320       8321       8332       8331       8441       8442       8453       8452  
      8321       8322       8333       8332       8442       8443       8454       8453  
      8322       8323       8334       8333       8443       8444       8455       8454  
      8323       8324       8335       8334       8444       8445       8456       8455  
      8324       8325       8336       8335       8445       8446       8457       8456  
      8325       8326       8337       8336       8446       8447       8458       8457  
      8326       8327       8338       8337       8447       8448       8459       8458  
      8328       8329       8340       8339       8449       8450       8461       8460  
      8329       8330       8341       8340       8450       8451       8462       8461  
      8330       8331       8342       8341       8451       8452       8463       8462  
      8331       8332       8343       8342       8452       8453       8464       8463  
      8332       8333       8344       8343       8453       8454       8465       8464  
      8333       8334       8345       8344       8454       8455       8466       8465  
      8334       8335       8346       8345       8455       8456       8467       8466  
      8335       8336       8347       8346       8456       8457       8468       8467  
      8336       8337       8348       8347       8457       8458       8469       8468  
      8337       8338       8349       8348       8458       8459       8470       8469  
      8350       8351       8362       8361       8471       8472       8483       8482  
      8351       8352       8363       8362       8472       8473       8484       8483  
      8352       8353       8364       8363       8473       8474       8485       8484  
      8353       8354       8365       8364       8474       8475       8486       8485  
      8354       8355       8366       8365       8475       8476       8487       8486  
      8355       8356       8367       8366       8476       8477       8488       8487  
      8356       8357       8368       8367       8477       8478       8489       8488  
      8357       8358       8369       8368       8478       8479       8490       8489  
      8358       8359       8370       8369       8479       8480       8491       8490  
      8359       8360       8371       8370       8480       8481       8492       8491  
      8361       8362       8373       8372       8482       8483       8494       8493  
      8362       8363       8374       8373       8483       8484       8495       8494  
      8363       8364       8375       8374       8484       8485       8496       8495  
      8364       8365       8376       8375       8485       8486       8497       8496  
      8365       8366       8377       8376       8486       8487       8498       8497  
      8366       8367       8378       8377       8487       8488       8499       8498  
      8367       8368       8379       8378       8488       8489       8500       8499  
      8368       8369       8380       8379       8489       8490       8501       8500  
      8369       8370       8381       8380       8490       8491       8502       8501  
      8370       8371       8382       8381       8491       8492       8503       8502  
      8372       8373       8384       8383       8493       8494       8505       8504  
      8373       8374       8385       8384       8494       8495       8506       8505  
      8374       8375       8386       8385       8495       8496       8507       8506  
      8375       8376       8387       8386       8496       8497       8508       8507  
      8376       8377       8388       8387       8497       8498       8509       8508  
      8377       8378       8389       8388       8498       8499       8510       8509  
      8378       8379       8390       8389       8499       8500       8511       8510  
      8379       8380       8391       8390       8500       8501       8512       8511  
      8380       8381       8392       8391       8501       8502       8513       8512  
      8381       8382       8393       8392       8502       8503       8514       8513  
      8383       8384       8395       8394       8504       8505       8516       8515  
      8384       8385       8396       8395       8505       8506       8517       8516  
      8385       8386       8397       8396       8506       8507       8518       8517  
      8386       8387       8398       8397       8507       8508       8519       8518  
      8387       8388       8399       8398       8508       8509       8520       8519  
      8388       8389       8400       8399       8509       8510       8521       8520  
      8389       8390       8401       8400       8510       8511       8522       8521  
      8390       8391       8402       8401       8511       8512       8523       8522  
      8391       8392       8403       8402       8512       8513       8524       8523  
      8392       8393       8404       8403       8513       8514       8525       8524  
      8394       8395       8406       8405       8515       8516       8527       8526  
      8395       8396       8407       8406       8516       8517       8528       8527  
      8396       8397       8408       8407       8517       8518       8529       8528  
      8397       8398       8409       8408       8518       8519       8530       8529  
      8398       8399       8410       8409       8519       8520       8531       8530  
      8399       8400       8411       8410       8520       8521       8532       8531  
      8400       8401       8412       8411       8521       8522       8533       8532  
      8401       8402       8413       8412       8522       8523       8534       8533  
      8402       8403       8414       8413       8523       8524       8535       8534  
      8403       8404       8415       8414       8524       8525       8536       8535  
      8405       8406       8417       8416       8526       8527       8538       8537  
      8406       8407       8418       8417       8527       8528       8539       8538  
      8407       8408       8419       8418       8528       8529       8540       8539  
      8408       8409       8420       8419       8529       8530       8541       8540  
      8409       8410       8421       8420       8530       8531       8542       8541  
      8410       8411       8422       8421       8531       8532       8543       8542  
      8411       8412       8423       8422       8532       8533       8544       8543  
      8412       8413       8424       8423       8533       8534       8545       8544  
      8413       8414       8425       8424       8534       8535       8546       8545  
      8414       8415       8426       8425       8535       8536       8547       8546  
      8416       8417       8428       8427       8537       8538       8549       8548  
      8417       8418       8429       8428       8538       8539       8550       8549  
      8418       8419       8430       8429       8539       8540       8551       8550  
      8419       8420       8431       8430       8540       8541       8552       8551  
      8420       8421       8432       8431       8541       8542       8553       8552  
      8421       8422       8433       8432       8542       8543       8554       8553  
      8422       8423       8434       8433       8543       8544       8555       8554  
      8423       8424       8435       8434       8544       8545       8556       8555  
      8424       8425       8436       8435       8545       8546       8557       8556  
      8425       8426       8437       8436       8546       8547       8558       8557  
      8427       8428       8439       8438       8548       8549       8560       8559  
      8428       8429       8440       8439       8549       8550       8561       8560  
      8429       8430       8441       8440       8550       8551       8562       8561  
      8430       8431       8442       8441       8551       8552       8563       8562  
      8431       8432       8443       8442       8552       8553       8564       8563  
      8432       8433       8444       8443       8553       8554       8565       8564  
      8433       8434       8445       8444       8554       8555       8566       8565  
      8434       8435       8446       8445       8555       8556       8567       8566  
      8435       8436       8447       8446       8556       8557       8568       8567  
      8436       8437       8448       8447       8557       8558       8569       8568  
      8438       8439       8450       8449       8559       8560       8571       8570  
      8439       8440       8451       8450       8560       8561       8572       8571  
      8440       8441       8452       8451       8561       8562       8573       8572  
      8441       8442       8453       8452       8562       8563       8574       8573  
      8442       8443       8454       8453       8563       8564       8575       8574  
      8443       8444       8455       8454       8564       8565       8576       8575  
      8444       8445       8456       8455       8565       8566       8577       8576  
      8445       8446       8457       8456       8566       8567       8578       8577  
      8446       8447       8458       8457       8567       8568       8579       8578  
      8447       8448       8459       8458       8568       8569       8580       8579  
      8449       8450       8461       8460       8570       8571       8582       8581  
      8450       8451       8462       8461       8571       8572       8583       8582  
      8451       8452       8463       8462       8572       8573       8584       8583  
      8452       8453       8464       8463       8573       8574       8585       8584  
      8453       8454       8465       8464       8574       8575       8586       8585  
      8454       8455       8466       8465       8575       8576       8587       8586  
      8455       8456       8467       8466       8576       8577       8588       8587  
      8456       8457       8468       8467       8577       8578       8589       8588  
      8457       8458       8469       8468       8578       8579       8590       8589  
      8458       8459       8470       8469       8579       8580       8591       8590  
      8471       8472       8483       8482       8592       8593       8604       8603  
      8472       8473       8484       8483       8593       8594       8605       8604  
      8473       8474       8485       8484       8594       8595       8606       8605  
      8474       8475       8486       8485       8595       8596       8607       8606  
      8475       8476       8487       8486       8596       8597       8608       8607  
      8476       8477       8488       8487       8597       8598       8609       8608  
      8477       8478       8489       8488       8598       8599       8610       8609  
      8478       8479       8490       8489       8599       8600       8611       8610  
      8479       8480       8491       8490       8600       8601       8612       8611  
      8480       8481       8492       8491       8601       8602       8613       8612  
      8482       8483       8494       8493       8603       8604       8615       8614  
      8483       8484       8495       8494       8604       8605       8616       8615  
      8484       8485       8496       8495       8605       8606       8617       8616  
      8485       8486       8497       8496       8606       8607       8618       8617  
      8486       8487       8498       8497       8607       8608       8619       8618  
      8487       8488       8499       8498       8608       8609       8620       8619  
      8488       8489       8500       8499       8609       8610       8621       8620  
      8489       8490       8501       8500       8610       8611       8622       8621  
      8490       8491       8502       8501       8611       8612       8623       8622  
      8491       8492       8503       8502       8612       8613       8624       8623  
      8493       8494       8505       8504       8614       8615       8626       8625  
      8494       8495       8506       8505       8615       8616       8627       8626  
      8495       8496       8507       8506       8616       8617       8628       8627  
      8496       8497       8508       8507       8617       8618       8629       8628  
      8497       8498       8509       8508       8618       8619       8630       8629  
      8498       8499       8510       8509       8619       8620       8631       8630  
      8499       8500       8511       8510       8620       8621       8632       8631  
      8500       8501       8512       8511       8621       8622       8633       8632  
      8501       8502       8513       8512       8622       8623       8634       8633  
      8502       8503       8514       8513       8623       8624       8635       8634  
      8504       8505       8516       8515       8625       8626       8637       8636  
      8505       8506       8517       8516       8626       8627       8638       8637  
      8506       8507       8518       8517       8627       8628       8639       8638  
      8507       8508       8519       8518       8628       8629       8640       8639  
      8508       8509       8520       8519       8629       8630       8641       8640  
      8509       8510       8521       8520       8630       8631       8642       8641  
      8510       8511       8522       8521       8631       8632       8643       8642  
      8511       8512       8523       8522       8632       8633       8644       8643  
      8512       8513       8524       8523       8633       8634       8645       8644  
      8513       8514       8525       8524       8634       8635       8646       8645  
      8515       8516       8527       8526       8636       8637       8648       8647  
      8516       8517       8528       8527       8637       8638       8649       8648  
      8517       8518       8529       8528       8638       8639       8650       8649  
      8518       8519       8530       8529       8639       8640       8651       8650  
      8519       8520       8531       8530       8640       8641       8652       8651  
      8520       8521       8532       8531       8641       8642       8653       8652  
      8521       8522       8533       8532       8642       8643       8654       8653  
      8522       8523       8534       8533       8643       8644       8655       8654  
      8523       8524       8535       8534       8644       8645       8656       8655  
      8524       8525       8536       8535       8645       8646       8657       8656  
      8526       8527       8538       8537       8647       8648       8659       8658  
      8527       8528       8539       8538       8648       8649       8660       8659  
      8528       8529       8540       8539       8649       8650       8661       8660  
      8529       8530       8541       8540       8650       8651       8662       8661  
      8530       8531       8542       8541       8651       8652       8663       8662  
      8531       8532       8543       8542       8652       8653       8664       8663  
      8532       8533       8544       8543       8653       8654       8665       8664  
      8533       8534       8545       8544       8654       8655       8666       8665  
      8534       8535       8546       8545       8655       8656       8667       8666  
      8535       8536       8547       8546       8656       8657       8668       8667  
      8537       8538       8549       8548       8658       8659       8670       8669  
      8538       8539       8550       8549       8659       8660       8671       8670  
      8539       8540       8551       8550       8660       8661       8672       8671  
      8540       8541       8552       8551       8661       8662       8673       8672  
      8541       8542       8553       8552       8662       8663       8674       8673  
      8542       8543       8554       8553       8663       8664       8675       8674  
      8543       8544       8555       8554       8664       8665       8676       8675  
      8544       8545       8556       8555       8665       8666       8677       8676  
      8545       8546       8557       8556       8666       8667       8678       8677  
      8546       8547       8558       8557       8667       8668       8679       8678  
      8548       8549       8560       8559       8669       8670       8681       8680  
      8549       8550       8561       8560       8670       8671       8682       8681  
      8550       8551       8562       8561       8671       8672       8683       8682  
      8551       8552       8563       8562       8672       8673       8684       8683  
      8552       8553       8564       8563       8673       8674       8685       8684  
      8553       8554       8565       8564       8674       8675       8686       8685  
      8554       8555       8566       8565       8675       8676       8687       8686  
      8555       8556       8567       8566       8676       8677       8688       8687  
      8556       8557       8568       8567       8677       8678       8689       8688  
      8557       8558       8569       8568       8678       8679       8690       8689  
      8559       8560       8571       8570       8680       8681       8692       8691  
      8560       8561       8572       8571       8681       8682       8693       8692  
      8561       8562       8573       8572       8682       8683       8694       8693  
      8562       8563       8574       8573       8683       8684       8695       8694  
      8563       8564       8575       8574       8684       8685       8696       8695  
      8564       8565       8576       8575       8685       8686       8697       8696  
      8565       8566       8577       8576       8686       8687       8698       8697  
      8566       8567       8578       8577       8687       8688       8699       8698  
      8567       8568       8579       8578       8688       8689       8700       8699  
      8568       8569       8580       8579       8689       8690       8701       8700  
      8570       8571       8582       8581       8691       8692       8703       8702  
      8571       8572       8583       8582       8692       8693       8704       8703  
      8572       8573       8584       8583       8693       8694       8705       8704  
      8573       8574       8585       8584       8694       8695       8706       8705  
      8574       8575       8586       8585       8695       8696       8707       8706  
      8575       8576       8587       8586       8696       8697       8708       8707  
      8576       8577       8588       8587       8697       8698       8709       8708  
      8577       8578       8589       8588       8698       8699       8710       8709  
      8578       8579       8590       8589       8699       8700       8711       8710  
      8579       8580       8591       8590       8700       8701       8712       8711  
      8592       8593       8604       8603       8713       8714       8725       8724  
      8593       8594       8605       8604       8714       8715       8726       8725  
      8594       8595       8606       8605       8715       8716       8727       8726  
      8595       8596       8607       8606       8716       8717       8728       8727  
      8596       8597       8608       8607       8717       8718       8729       8728  
      8597       8598       8609       8608       8718       8719       8730       8729  
      8598       8599       8610       8609       8719       8720       8731       8730  
      8599       8600       8611       8610       8720       8721       8732       8731  
      8600       8601       8612       8611       8721       8722       8733       8732  
      8601       8602       8613       8612       8722       8723       8734       8733  
      8603       8604       8615       8614       8724       8725       8736       8735  
      8604       8605       8616       8615       8725       8726       8737       8736  
      8605       8606       8617       8616       8726       8727       8738       8737  
      8606       8607       8618       8617       8727       8728       8739       8738  
      8607       8608       8619       8618       8728       8729       8740       8739  
      8608       8609       8620       8619       8729       8730       8741       8740  
      8609       8610       8621       8620       8730       8731       8742       8741  
      8610       8611       8622       8621       8731       8732       8743       8742  
      8611       8612       8623       8622       8732       8733       8744       8743  
      8612       8613       8624       8623       8733       8734       8745       8744  
      8614       8615       8626       8625       8735       8736       8747       8746  
      8615       8616       8627       8626       8736       8737       8748       8747  
      8616       8617       8628       8627       8737       8738       8749       8748  
      8617       8618       8629       8628       8738       8739       8750       8749  
      8618       8619       8630       8629       8739       8740       8751       8750  
      8619       8620       8631       8630       8740       8741       8752       8751  
      8620       8621       8632       8631       8741       8742       8753       8752  
      8621       8622       8633       8632       8742       8743       8754       8753  
      8622       8623       8634       8633       8743       8744       8755       8754  
      8623       8624       8635       8634       8744       8745       8756       8755  
      8625       8626       8637       8636       8746       8747       8758       8757  
      8626       8627       8638       8637       8747       8748       8759       8758  
      8627       8628       8639       8638       8748       8749       8760       8759  
      8628       8629       8640       8639       8749       8750       8761       8760  
      8629       8630       8641       8640       8750       8751       8762       8761  
      8630       8631       8642       8641       8751       8752       8763       8762  
      8631       8632       8643       8642       8752       8753       8764       8763  
      8632       8633       8644       8643       8753       8754       8765       8764  
      8633       8634       8645       8644       8754       8755       8766       8765  
      8634       8635       8646       8645       8755       8756       8767       8766  
      8636       8637       8648       8647       8757       8758       8769       8768  
      8637       8638       8649       8648       8758       8759       8770       8769  
      8638       8639       8650       8649       8759       8760       8771       8770  
      8639       8640       8651       8650       8760       8761       8772       8771  
      8640       8641       8652       8651       8761       8762       8773       8772  
      8641       8642       8653       8652       8762       8763       8774       8773  
      8642       8643       8654       8653       8763       8764       8775       8774  
      8643       8644       8655       8654       8764       8765       8776       8775  
      8644       8645       8656       8655       8765       8766       8777       8776  
      8645       8646       8657       8656       8766       8767       8778       8777  
      8647       8648       8659       8658       8768       8769       8780       8779  
      8648       8649       8660       8659       8769       8770       8781       8780  
      8649       8650       8661       8660       8770       8771       8782       8781  
      8650       8651       8662       8661       8771       8772       8783       8782  
      8651       8652       8663       8662       8772       8773       8784       8783  
      8652       8653       8664       8663       8773       8774       8785       8784  
      8653       8654       8665       8664       8774       8775       8786       8785  
      8654       8655       8666       8665       8775       8776       8787       8786  
      8655       8656       8667       8666       8776       8777       8788       8787  
      8656       8657       8668       8667       8777       8778       8789       8788  
      8658       8659       8670       8669       8779       8780       8791       8790  
      8659       8660       8671       8670       8780       8781       8792       8791  
      8660       8661       8672       8671       8781       8782       8793       8792  
      8661       8662       8673       8672       8782       8783       8794       8793  
      8662       8663       8674       8673       8783       8784       8795       8794  
      8663       8664       8675       8674       8784       8785       8796       8795  
      8664       8665       8676       8675       8785       8786       8797       8796  
      8665       8666       8677       8676       8786       8787       8798       8797  
      8666       8667       8678       8677       8787       8788       8799       8798  
      8667       8668       8679       8678       8788       8789       8800       8799  
      8669       8670       8681       8680       8790       8791       8802       8801  
      8670       8671       8682       8681       8791       8792       8803       8802  
      8671       8672       8683       8682       8792       8793       8804       8803  
      8672       8673       8684       8683       8793       8794       8805       8804  
      8673       8674       8685       8684       8794       8795       8806       8805  
      8674       8675       8686       8685       8795       8796       8807       8806  
      8675       8676       8687       8686       8796       8797       8808       8807  
      8676       8677       8688       8687       8797       8798       8809       8808  
      8677       8678       8689       8688       8798       8799       8810       8809  
      8678       8679       8690       8689       8799       8800       8811       8810  
      8680       8681       8692       8691       8801       8802       8813       8812  
      8681       8682       8693       8692       8802       8803       8814       8813  
      8682       8683       8694       8693       8803       8804       8815       8814  
      8683       8684       8695       8694       8804       8805       8816       8815  
      8684       8685       8696       8695       8805       8806       8817       8816  
      8685       8686       8697       8696       8806       8807       8818       8817  
      8686       8687       8698       8697       8807       8808       8819       8818  
      8687       8688       8699       8698       8808       8809       8820       8819  
      8688       8689       8700       8699       8809       8810       8821       8820  
      8689       8690       8701       8700       8810       8811       8822       8821  
      8691       8692       8703       8702       8812       8813       8824       8823  
      8692       8693       8704       8703       8813       8814       8825       8824  
      8693       8694       8705       8704       8814       8815       8826       8825  
      8694       8695       8706       8705       8815       8816       8827       8826  
      8695       8696       8707       8706       8816       8817       8828       8827  
      8696       8697       8708       8707       8817       8818       8829       8828  
      8697       8698       8709       8708       8818       8819       8830       8829  
      8698       8699       8710       8709       8819       8820       8831       8830  
      8699       8700       8711       8710       8820       8821       8832       8831  
      8700       8701       8712       8711       8821       8822       8833       8832  
      8713       8714       8725       8724       8834       8835       8846       8845  
      8714       8715       8726       8725       8835       8836       8847       8846  
      8715       8716       8727       8726       8836       8837       8848       8847  
      8716       8717       8728       8727       8837       8838       8849       8848  
      8717       8718       8729       8728       8838       8839       8850       8849  
      8718       8719       8730       8729       8839       8840       8851       8850  
      8719       8720       8731       8730       8840       8841       8852       8851  
      8720       8721       8732       8731       8841       8842       8853       8852  
      8721       8722       8733       8732       8842       8843       8854       8853  
      8722       8723       8734       8733       8843       8844       8855       8854  
      8724       8725       8736       8735       8845       8846       8857       8856  
      8725       8726       8737       8736       8846       8847       8858       8857  
      8726       8727       8738       8737       8847       8848       8859       8858  
      8727       8728       8739       8738       8848       8849       8860       8859  
      8728       8729       8740       8739       8849       8850       8861       8860  
      8729       8730       8741       8740       8850       8851       8862       8861  
      8730       8731       8742       8741       8851       8852       8863       8862  
      8731       8732       8743       8742       8852       8853       8864       8863  
      8732       8733       8744       8743       8853       8854       8865       8864  
      8733       8734       8745       8744       8854       8855       8866       8865  
      8735       8736       8747       8746       8856       8857       8868       8867  
      8736       8737       8748       8747       8857       8858       8869       8868  
      8737       8738       8749       8748       8858       8859       8870       8869  
      8738       8739       8750       8749       8859       8860       8871       8870  
      8739       8740       8751       8750       8860       8861       8872       8871  
      8740       8741       8752       8751       8861       8862       8873       8872  
      8741       8742       8753       8752       8862       8863       8874       8873  
      8742       8743       8754       8753       8863       8864       8875       8874  
      8743       8744       8755       8754       8864       8865       8876       8875  
      8744       8745       8756       8755       8865       8866       8877       8876  
      8746       8747       8758       8757       8867       8868       8879       8878  
      8747       8748       8759       8758       8868       8869       8880       8879  
      8748       8749       8760       8759       8869       8870       8881       8880  
      8749       8750       8761       8760       8870       8871       8882       8881  
      8750       8751       8762       8761       8871       8872       8883       8882  
      8751       8752       8763       8762       8872       8873       8884       8883  
      8752       8753       8764       8763       8873       8874       8885       8884  
      8753       8754       8765       8764       8874       8875       8886       8885  
      8754       8755       8766       8765       8875       8876       8887       8886  
      8755       8756       8767       8766       8876       8877       8888       8887  
      8757       8758       8769       8768       8878       8879       8890       8889  
      8758       8759       8770       8769       8879       8880       8891       8890  
      8759       8760       8771       8770       8880       8881       8892       8891  
      8760       8761       8772       8771       8881       8882       8893       8892  
      8761       8762       8773       8772       8882       8883       8894       8893  
      8762       8763       8774       8773       8883       8884       8895       8894  
      8763       8764       8775       8774       8884       8885       8896       8895  
      8764       8765       8776       8775       8885       8886       8897       8896  
      8765       8766       8777       8776       8886       8887       8898       8897  
      8766       8767       8778       8777       8887       8888       8899       8898  
      8768       8769       8780       8779       8889       8890       8901       8900  
      8769       8770       8781       8780       8890       8891       8902       8901  
      8770       8771       8782       8781       8891       8892       8903       8902  
      8771       8772       8783       8782       8892       8893       8904       8903  
      8772       8773       8784       8783       8893       8894       8905       8904  
      8773       8774       8785       8784       8894       8895       8906       8905  
      8774       8775       8786       8785       8895       8896       8907       8906  
      8775       8776       8787       8786       8896       8897       8908       8907  
      8776       8777       8788       8787       8897       8898       8909       8908  
      8777       8778       8789       8788       8898       8899       8910       8909  
      8779       8780       8791       8790       8900       8901       8912       8911  
      8780       8781       8792       8791       8901       8902       8913       8912  
      8781       8782       8793       8792       8902       8903       8914       8913  
      8782       8783       8794       8793       8903       8904       8915       8914  
      8783       8784       8795       8794       8904       8905       8916       8915  
      8784       8785       8796       8795       8905       8906       8917       8916  
      8785       8786       8797       8796       8906       8907       8918       8917  
      8786       8787       8798       8797       8907       8908       8919       8918  
      8787       8788       8799       8798       8908       8909       8920       8919  
      8788       8789       8800       8799       8909       8910       8921       8920  
      8790       8791       8802       8801       8911       8912       8923       8922  
      8791       8792       8803       8802       8912       8913       8924       8923  
      8792       8793       8804       8803       8913       8914       8925       8924  
      8793       8794       8805       8804       8914       8915       8926       8925  
      8794       8795       8806       8805       8915       8916       8927       8926  
      8795       8796       8807       8806       8916       8917       8928       8927  
      8796       8797       8808       8807       8917       8918       8929       8928  
      8797       8798       8809       8808       8918       8919       8930       8929  
      8798       8799       8810       8809       8919       8920       8931       8930  
      8799       8800       8811       8810       8920       8921       8932       8931  
      8801       8802       8813       8812       8922       8923       8934       8933  
      8802       8803       8814       8813       8923       8924       8935       8934  
      8803       8804       8815       8814       8924       8925       8936       8935  
      8804       8805       8816       8815       8925       8926       8937       8936  
      8805       8806       8817       8816       8926       8927       8938       8937  
      8806       8807       8818       8817       8927       8928       8939       8938  
      8807       8808       8819       8818       8928       8929       8940       8939  
      8808       8809       8820       8819       8929       8930       8941       8940  
      8809       8810       8821       8820       8930       8931       8942       8941  
      8810       8811       8822       8821       8931       8932       8943       8942  
      8812       8813       8824       8823       8933       8934       8945       8944  
      8813       8814       8825       8824       8934       8935       8946       8945  
      8814       8815       8826       8825       8935       8936       8947       8946  
      8815       8816       8827       8826       8936       8937       8948       8947  
      8816       8817       8828       8827       8937       8938       8949       8948  
      8817       8818       8829       8828       8938       8939       8950       8949  
      8818       8819       8830       8829       8939       8940       8951       8950  
      8819       8820       8831       8830       8940       8941       8952       8951  
      8820       8821       8832       8831       8941       8942       8953       8952  
      8821       8822       8833       8832       8942       8943       8954       8953  
      8834       8835       8846       8845       8955       8956       8967       8966  
      8835       8836       8847       8846       8956       8957       8968       8967  
      8836       8837       8848       8847       8957       8958       8969       8968  
      8837       8838       8849       8848       8958       8959       8970       8969  
      8838       8839       8850       8849       8959       8960       8971       8970  
      8839       8840       8851       8850       8960       8961       8972       8971  
      8840       8841       8852       8851       8961       8962       8973       8972  
      8841       8842       8853       8852       8962       8963       8974       8973  
      8842       8843       8854       8853       8963       8964       8975       8974  
      8843       8844       8855       8854       8964       8965       8976       8975  
      8845       8846       8857       8856       8966       8967       8978       8977  
      8846       8847       8858       8857       8967       8968       8979       8978  
      8847       8848       8859       8858       8968       8969       8980       8979  
      8848       8849       8860       8859       8969       8970       8981       8980  
      8849       8850       8861       8860       8970       8971       8982       8981  
      8850       8851       8862       8861       8971       8972       8983       8982  
      8851       8852       8863       8862       8972       8973       8984       8983  
      8852       8853       8864       8863       8973       8974       8985       8984  
      8853       8854       8865       8864       8974       8975       8986       8985  
      8854       8855       8866       8865       8975       8976       8987       8986  
      8856       8857       8868       8867       8977       8978       8989       8988  
      8857       8858       8869       8868       8978       8979       8990       8989  
      8858       8859       8870       8869       8979       8980       8991       8990  
      8859       8860       8871       8870       8980       8981       8992       8991  
      8860       8861       8872       8871       8981       8982       8993       8992  
      8861       8862       8873       8872       8982       8983       8994       8993  
      8862       8863       8874       8873       8983       8984       8995       8994  
      8863       8864       8875       8874       8984       8985       8996       8995  
      8864       8865       8876       8875       8985       8986       8997       8996  
      8865       8866       8877       8876       8986       8987       8998       8997  
      8867       8868       8879       8878       8988       8989       9000       8999  
      8868       8869       8880       8879       8989       8990       9001       9000  
      8869       8870       8881       8880       8990       8991       9002       9001  
      8870       8871       8882       8881       8991       8992       9003       9002  
      8871       8872       8883       8882       8992       8993       9004       9003  
      8872       8873       8884       8883       8993       8994       9005       9004  
      8873       8874       8885       8884       8994       8995       9006       9005  
      8874       8875       8886       8885       8995       8996       9007       9006  
      8875       8876       8887       8886       8996       8997       9008       9007  
      8876       8877       8888       8887       8997       8998       9009       9008  
      8878       8879       8890       8889       8999       9000       9011       9010  
      8879       8880       8891       8890       9000       9001       9012       9011  
      8880       8881       8892       8891       9001       9002       9013       9012  
      8881       8882       8893       8892       9002       9003       9014       9013  
      8882       8883       8894       8893       9003       9004       9015       9014  
      8883       8884       8895       8894       9004       9005       9016       9015  
      8884       8885       8896       8895       9005       9006       9017       9016  
      8885       8886       8897       8896       9006       9007       9018       9017  
      8886       8887       8898       8897       9007       9008       9019       9018  
      8887       8888       8899       8898       9008       9009       9020       9019  
      8889       8890       8901       8900       9010       9011       9022       9021  
      8890       8891       8902       8901       9011       9012       9023       9022  
      8891       8892       8903       8902       9012       9013       9024       9023  
      8892       8893       8904       8903       9013       9014       9025       9024  
      8893       8894       8905       8904       9014       9015       9026       9025  
      8894       8895       8906       8905       9015       9016       9027       9026  
      8895       8896       8907       8906       9016       9017       9028       9027  
      8896       8897       8908       8907       9017       9018       9029       9028  
      8897       8898       8909       8908       9018       9019       9030       9029  
      8898       8899       8910       8909       9019       9020       9031       9030  
      8900       8901       8912       8911       9021       9022       9033       9032  
      8901       8902       8913       8912       9022       9023       9034       9033  
      8902       8903       8914       8913       9023       9024       9035       9034  
      8903       8904       8915       8914       9024       9025       9036       9035  
      8904       8905       8916       8915       9025       9026       9037       9036  
      8905       8906       8917       8916       9026       9027       9038       9037  
      8906       8907       8918       8917       9027       9028       9039       9038  
      8907       8908       8919       8918       9028       9029       9040       9039  
      8908       8909       8920       8919       9029       9030       9041       9040  
      8909       8910       8921       8920       9030       9031       9042       9041  
      8911       8912       8923       8922       9032       9033       9044       9043  
      8912       8913       8924       8923       9033       9034       9045       9044  
      8913       8914       8925       8924       9034       9035       9046       9045  
      8914       8915       8926       8925       9035       9036       9047       9046  
      8915       8916       8927       8926       9036       9037       9048       9047  
      8916       8917       8928       8927       9037       9038       9049       9048  
      8917       8918       8929       8928       9038       9039       9050       9049  
      8918       8919       8930       8929       9039       9040       9051       9050  
      8919       8920       8931       8930       9040       9041       9052       9051  
      8920       8921       8932       8931       9041       9042       9053       9052  
      8922       8923       8934       8933       9043       9044       9055       9054  
      8923       8924       8935       8934       9044       9045       9056       9055  
      8924       8925       8936       8935       9045       9046       9057       9056  
      8925       8926       8937       8936       9046       9047       9058       9057  
      8926       8927       8938       8937       9047       9048       9059       9058  
      8927       8928       8939       8938       9048       9049       9060       9059  
      8928       8929       8940       8939       9049       9050       9061       9060  
      8929       8930       8941       8940       9050       9051       9062       9061  
      8930       8931       8942       8941       9051       9052       9063       9062  
      8931       8932       8943       8942       9052       9053       9064       9063  
      8933       8934       8945       8944       9054       9055       9066       9065  
      8934       8935       8946       8945       9055       9056       9067       9066  
      8935       8936       8947       8946       9056       9057       9068       9067  
      8936       8937       8948       8947       9057       9058       9069       9068  
      8937       8938       8949       8948       9058       9059       9070       9069  
      8938       8939       8950       8949       9059       9060       9071       9070  
      8939       8940       8951       8950       9060       9061       9072       9071  
      8940       8941       8952       8951       9061       9062       9073       9072  
      8941       8942       8953       8952       9062       9063       9074       9073  
      8942       8943       8954       8953       9063       9064       9075       9074  
      8955       8956       8967       8966       9076       9077       9088       9087  
      8956       8957       8968       8967       9077       9078       9089       9088  
      8957       8958       8969       8968       9078       9079       9090       9089  
      8958       8959       8970       8969       9079       9080       9091       9090  
      8959       8960       8971       8970       9080       9081       9092       9091  
      8960       8961       8972       8971       9081       9082       9093       9092  
      8961       8962       8973       8972       9082       9083       9094       9093  
      8962       8963       8974       8973       9083       9084       9095       9094  
      8963       8964       8975       8974       9084       9085       9096       9095  
      8964       8965       8976       8975       9085       9086       9097       9096  
      8966       8967       8978       8977       9087       9088       9099       9098  
      8967       8968       8979       8978       9088       9089       9100       9099  
      8968       8969       8980       8979       9089       9090       9101       9100  
      8969       8970       8981       8980       9090       9091       9102       9101  
      8970       8971       8982       8981       9091       9092       9103       9102  
      8971       8972       8983       8982       9092       9093       9104       9103  
      8972       8973       8984       8983       9093       9094       9105       9104  
      8973       8974       8985       8984       9094       9095       9106       9105  
      8974       8975       8986       8985       9095       9096       9107       9106  
      8975       8976       8987       8986       9096       9097       9108       9107  
      8977       8978       8989       8988       9098       9099       9110       9109  
      8978       8979       8990       8989       9099       9100       9111       9110  
      8979       8980       8991       8990       9100       9101       9112       9111  
      8980       8981       8992       8991       9101       9102       9113       9112  
      8981       8982       8993       8992       9102       9103       9114       9113  
      8982       8983       8994       8993       9103       9104       9115       9114  
      8983       8984       8995       8994       9104       9105       9116       9115  
      8984       8985       8996       8995       9105       9106       9117       9116  
      8985       8986       8997       8996       9106       9107       9118       9117  
      8986       8987       8998       8997       9107       9108       9119       9118  
      8988       8989       9000       8999       9109       9110       9121       9120  
      8989       8990       9001       9000       9110       9111       9122       9121  
      8990       8991       9002       9001       9111       9112       9123       9122  
      8991       8992       9003       9002       9112       9113       9124       9123  
      8992       8993       9004       9003       9113       9114       9125       9124  
      8993       8994       9005       9004       9114       9115       9126       9125  
      8994       8995       9006       9005       9115       9116       9127       9126  
      8995       8996       9007       9006       9116       9117       9128       9127  
      8996       8997       9008       9007       9117       9118       9129       9128  
      8997       8998       9009       9008       9118       9119       9130       9129  
      8999       9000       9011       9010       9120       9121       9132       9131  
      9000       9001       9012       9011       9121       9122       9133       9132  
      9001       9002       9013       9012       9122       9123       9134       9133  
      9002       9003       9014       9013       9123       9124       9135       9134  
      9003       9004       9015       9014       9124       9125       9136       9135  
      9004       9005       9016       9015       9125       9126       9137       9136  
      9005       9006       9017       9016       9126       9127       9138       9137  
      9006       9007       9018       9017       9127       9128       9139       9138  
      9007       9008       9019       9018       9128       9129       9140       9139  
      9008       9009       9020       9019       9129       9130       9141       9140  
      9010       9011       9022       9021       9131       9132       9143       9142  
      9011       9012       9023       9022       9132       9133       9144       9143  
      9012       9013       9024       9023       9133       9134       9145       9144  
      9013       9014       9025       9024       9134       9135       9146       9145  
      9014       9015       9026       9025       9135       9136       9147       9146  
      9015       9016       9027       9026       9136       9137       9148       9147  
      9016       9017       9028       9027       9137       9138       9149       9148  
      9017       9018       9029       9028       9138       9139       9150       9149  
      9018       9019       9030       9029       9139       9140       9151       9150  
      9019       9020       9031       9030       9140       9141       9152       9151  
      9021       9022       9033       9032       9142       9143       9154       9153  
      9022       9023       9034       9033       9143       9144       9155       9154  
      9023       9024       9035       9034       9144       9145       9156       9155  
      9024       9025       9036       9035       9145       9146       9157       9156  
      9025       9026       9037       9036       9146       9147       9158       9157  
      9026       9027       9038       9037       9147       9148       9159       9158  
      9027       9028       9039       9038       9148       9149       9160       9159  
      9028       9029       9040       9039       9149       9150       9161       9160  
      9029       9030       9041       9040       9150       9151       9162       9161  
      9030       9031       9042       9041       9151       9152       9163       9162  
      9032       9033       9044       9043       9153       9154       9165       9164  
      9033       9034       9045       9044       9154       9155       9166       9165  
      9034       9035       9046       9045       9155       9156       9167       9166  
      9035       9036       9047       9046       9156       9157       9168       9167  
      9036       9037       9048       9047       9157       9158       9169       9168  
      9037       9038       9049       9048       9158       9159       9170       9169  
      9038       9039       9050       9049       9159       9160       9171       9170  
      9039       9040       9051       9050       9160       9161       9172       9171  
      9040       9041       9052       9051       9161       9162       9173       9172  
      9041       9042       9053       9052       9162       9163       9174       9173  
      9043       9044       9055       9054       9164       9165       9176       9175  
      9044       9045       9056       9055       9165       9166       9177       9176  
      9045       9046       9057       9056       9166       9167       9178       9177  
      9046       9047       9058       9057       9167       9168       9179       9178  
      9047       9048       9059       9058       9168       9169       9180       9179  
      9048       9049       9060       9059       9169       9170       9181       9180  
      9049       9050       9061       9060       9170       9171       9182       9181  
      9050       9051       9062       9061       9171       9172       9183       9182  
      9051       9052       9063       9062       9172       9173       9184       9183  
      9052       9053       9064       9063       9173       9174       9185       9184  
      9054       9055       9066       9065       9175       9176       9187       9186  
      9055       9056       9067       9066       9176       9177       9188       9187  
      9056       9057       9068       9067       9177       9178       9189       9188  
      9057       9058       9069       9068       9178       9179       9190       9189  
      9058       9059       9070       9069       9179       9180       9191       9190  
      9059       9060       9071       9070       9180       9181       9192       9191  
      9060       9061       9072       9071       9181       9182       9193       9192  
      9061       9062       9073       9072       9182       9183       9194       9193  
      9062       9063       9074       9073       9183       9184       9195       9194  
      9063       9064       9075       9074       9184       9185       9196       9195  
      9076       9077       9088       9087       9197       9198       9209       9208  
      9077       9078       9089       9088       9198       9199       9210       9209  
      9078       9079       9090       9089       9199       9200       9211       9210  
      9079       9080       9091       9090       9200       9201       9212       9211  
      9080       9081       9092       9091       9201       9202       9213       9212  
      9081       9082       9093       9092       9202       9203       9214       9213  
      9082       9083       9094       9093       9203       9204       9215       9214  
      9083       9084       9095       9094       9204       9205       9216       9215  
      9084       9085       9096       9095       9205       9206       9217       9216  
      9085       9086       9097       9096       9206       9207       9218       9217  
      9087       9088       9099       9098       9208       9209       9220       9219  
      9088       9089       9100       9099       9209       9210       9221       9220  
      9089       9090       9101       9100       9210       9211       9222       9221  
      9090       9091       9102       9101       9211       9212       9223       9222  
      9091       9092       9103       9102       9212       9213       9224       9223  
      9092       9093       9104       9103       9213       9214       9225       9224  
      9093       9094       9105       9104       9214       9215       9226       9225  
      9094       9095       9106       9105       9215       9216       9227       9226  
      9095       9096       9107       9106       9216       9217       9228       9227  
      9096       9097       9108       9107       9217       9218       9229       9228  
      9098       9099       9110       9109       9219       9220       9231       9230  
      9099       9100       9111       9110       9220       9221       9232       9231  
      9100       9101       9112       9111       9221       9222       9233       9232  
      9101       9102       9113       9112       9222       9223       9234       9233  
      9102       9103       9114       9113       9223       9224       9235       9234  
      9103       9104       9115       9114       9224       9225       9236       9235  
      9104       9105       9116       9115       9225       9226       9237       9236  
      9105       9106       9117       9116       9226       9227       9238       9237  
      9106       9107       9118       9117       9227       9228       9239       9238  
      9107       9108       9119       9118       9228       9229       9240       9239  
      9109       9110       9121       9120       9230       9231       9242       9241  
      9110       9111       9122       9121       9231       9232       9243       9242  
      9111       9112       9123       9122       9232       9233       9244       9243  
      9112       9113       9124       9123       9233       9234       9245       9244  
      9113       9114       9125       9124       9234       9235       9246       9245  
      9114       9115       9126       9125       9235       9236       9247       9246  
      9115       9116       9127       9126       9236       9237       9248       9247  
      9116       9117       9128       9127       9237       9238       9249       9248  
      9117       9118       9129       9128       9238       9239       9250       9249  
      9118       9119       9130       9129       9239       9240       9251       9250  
      9120       9121       9132       9131       9241       9242       9253       9252  
      9121       9122       9133       9132       9242       9243       9254       9253  
      9122       9123       9134       9133       9243       9244       9255       9254  
      9123       9124       9135       9134       9244       9245       9256       9255  
      9124       9125       9136       9135       9245       9246       9257       9256  
      9125       9126       9137       9136       9246       9247       9258       9257  
      9126       9127       9138       9137       9247       9248       9259       9258  
      9127       9128       9139       9138       9248       9249       9260       9259  
      9128       9129       9140       9139       9249       9250       9261       9260  
      9129       9130       9141       9140       9250       9251       9262       9261  
      9131       9132       9143       9142       9252       9253       9264       9263  
      9132       9133       9144       9143       9253       9254       9265       9264  
      9133       9134       9145       9144       9254       9255       9266       9265  
      9134       9135       9146       9145       9255       9256       9267       9266  
      9135       9136       9147       9146       9256       9257       9268       9267  
      9136       9137       9148       9147       9257       9258       9269       9268  
      9137       9138       9149       9148       9258       9259       9270       9269  
      9138       9139       9150       9149       9259       9260       9271       9270  
      9139       9140       9151       9150       9260       9261       9272       9271  
      9140       9141       9152       9151       9261       9262       9273       9272  
      9142       9143       9154       9153       9263       9264       9275       9274  
      9143       9144       9155       9154       9264       9265       9276       9275  
      9144       9145       9156       9155       9265       9266       9277       9276  
      9145       9146       9157       9156       9266       9267       9278       9277  
      9146       9147       9158       9157       9267       9268       9279       9278  
      9147       9148       9159       9158       9268       9269       9280       9279  
      9148       9149       9160       9159       9269       9270       9281       9280  
      9149       9150       9161       9160       9270       9271       9282       9281  
      9150       9151       9162       9161       9271       9272       9283       9282  
      9151       9152       9163       9162       9272       9273       9284       9283  
      9153       9154       9165       9164       9274       9275       9286       9285  
      9154       9155       9166       9165       9275       9276       9287       9286  
      9155       9156       9167       9166       9276       9277       9288       9287  
      9156       9157       9168       9167       9277       9278       9289       9288  
      9157       9158       9169       9168       9278       9279       9290       9289  
      9158       9159       9170       9169       9279       9280       9291       9290  
      9159       9160       9171       9170       9280       9281       9292       9291  
      9160       9161       9172       9171       9281       9282       9293       9292  
      9161       9162       9173       9172       9282       9283       9294       9293  
      9162       9163       9174       9173       9283       9284       9295       9294  
      9164       9165       9176       9175       9285       9286       9297       9296  
      9165       9166       9177       9176       9286       9287       9298       9297  
      9166       9167       9178       9177       9287       9288       9299       9298  
      9167       9168       9179       9178       9288       9289       9300       9299  
      9168       9169       9180       9179       9289       9290       9301       9300  
      9169       9170       9181       9180       9290       9291       9302       9301  
      9170       9171       9182       9181       9291       9292       9303       9302  
      9171       9172       9183       9182       9292       9293       9304       9303  
      9172       9173       9184       9183       9293       9294       9305       9304  
      9173       9174       9185       9184       9294       9295       9306       9305  
      9175       9176       9187       9186       9296       9297       9308       9307  
      9176       9177       9188       9187       9297       9298       9309       9308  
      9177       9178       9189       9188       9298       9299       9310       9309  
      9178       9179       9190       9189       9299       9300       9311       9310  
      9179       9180       9191       9190       9300       9301       9312       9311  
      9180       9181       9192       9191       9301       9302       9313       9312  
      9181       9182       9193       9192       9302       9303       9314       9313  
      9182       9183       9194       9193       9303       9304       9315       9314  
      9183       9184       9195       9194       9304       9305       9316       9315  
      9184       9185       9196       9195       9305       9306       9317       9316  
      9197       9198       9209       9208       9318       9319       9330       9329  
      9198       9199       9210       9209       9319       9320       9331       9330  
      9199       9200       9211       9210       9320       9321       9332       9331  
      9200       9201       9212       9211       9321       9322       9333       9332  
      9201       9202       9213       9212       9322       9323       9334       9333  
      9202       9203       9214       9213       9323       9324       9335       9334  
      9203       9204       9215       9214       9324       9325       9336       9335  
      9204       9205       9216       9215       9325       9326       9337       9336  
      9205       9206       9217       9216       9326       9327       9338       9337  
      9206       9207       9218       9217       9327       9328       9339       9338  
      9208       9209       9220       9219       9329       9330       9341       9340  
      9209       9210       9221       9220       9330       9331       9342       9341  
      9210       9211       9222       9221       9331       9332       9343       9342  
      9211       9212       9223       9222       9332       9333       9344       9343  
      9212       9213       9224       9223       9333       9334       9345       9344  
      9213       9214       9225       9224       9334       9335       9346       9345  
      9214       9215       9226       9225       9335       9336       9347       9346  
      9215       9216       9227       9226       9336       9337       9348       9347  
      9216       9217       9228       9227       9337       9338       9349       9348  
      9217       9218       9229       9228       9338       9339       9350       9349  
      9219       9220       9231       9230       9340       9341       9352       9351  
      9220       9221       9232       9231       9341       9342       9353       9352  
      9221       9222       9233       9232       9342       9343       9354       9353  
      9222       9223       9234       9233       9343       9344       9355       9354  
      9223       9224       9235       9234       9344       9345       9356       9355  
      9224       9225       9236       9235       9345       9346       9357       9356  
      9225       9226       9237       9236       9346       9347       9358       9357  
      9226       9227       9238       9237       9347       9348       9359       9358  
      9227       9228       9239       9238       9348       9349       9360       9359  
      9228       9229       9240       9239       9349       9350       9361       9360  
      9230       9231       9242       9241       9351       9352       9363       9362  
      9231       9232       9243       9242       9352       9353       9364       9363  
      9232       9233       9244       9243       9353       9354       9365       9364  
      9233       9234       9245       9244       9354       9355       9366       9365  
      9234       9235       9246       9245       9355       9356       9367       9366  
      9235       9236       9247       9246       9356       9357       9368       9367  
      9236       9237       9248       9247       9357       9358       9369       9368  
      9237       9238       9249       9248       9358       9359       9370       9369  
      9238       9239       9250       9249       9359       9360       9371       9370  
      9239       9240       9251       9250       9360       9361       9372       9371  
      9241       9242       9253       9252       9362       9363       9374       9373  
      9242       9243       9254       9253       9363       9364       9375       9374  
      9243       9244       9255       9254       9364       9365       9376       9375  
      9244       9245       9256       9255       9365       9366       9377       9376  
      9245       9246       9257       9256       9366       9367       9378       9377  
      9246       9247       9258       9257       9367       9368       9379       9378  
      9247       9248       9259       9258       9368       9369       9380       9379  
      9248       9249       9260       9259       9369       9370       9381       9380  
      9249       9250       9261       9260       9370       9371       9382       9381  
      9250       9251       9262       9261       9371       9372       9383       9382  
      9252       9253       9264       9263       9373       9374       9385       9384  
      9253       9254       9265       9264       9374       9375       9386       9385  
      9254       9255       9266       9265       9375       9376       9387       9386  
      9255       9256       9267       9266       9376       9377       9388       9387  
      9256       9257       9268       9267       9377       9378       9389       9388  
      9257       9258       9269       9268       9378       9379       9390       9389  
      9258       9259       9270       9269       9379       9380       9391       9390  
      9259       9260       9271       9270       9380       9381       9392       9391  
      9260       9261       9272       9271       9381       9382       9393       9392  
      9261       9262       9273       9272       9382       9383       9394       9393  
      9263       9264       9275       9274       9384       9385       9396       9395  
      9264       9265       9276       9275       9385       9386       9397       9396  
      9265       9266       9277       9276       9386       9387       9398       9397  
      9266       9267       9278       9277       9387       9388       9399       9398  
      9267       9268       9279       9278       9388       9389       9400       9399  
      9268       9269       9280       9279       9389       9390       9401       9400  
      9269       9270       9281       9280       9390       9391       9402       9401  
      9270       9271       9282       9281       9391       9392       9403       9402  
      9271       9272       9283       9282       9392       9393       9404       9403  
      9272       9273       9284       9283       9393       9394       9405       9404  
      9274       9275       9286       9285       9395       9396       9407       9406  
      9275       9276       9287       9286       9396       9397       9408       9407  
      9276       9277       9288       9287       9397       9398       9409       9408  
      9277       9278       9289       9288       9398       9399       9410       9409  
      9278       9279       9290       9289       9399       9400       9411       9410  
      9279       9280       9291       9290       9400       9401       9412       9411  
      9280       9281       9292       9291       9401       9402       9413       9412  
      9281       9282       9293       9292       9402       9403       9414       9413  
      9282       9283       9294       9293       9403       9404       9415       9414  
      9283       9284       9295       9294       9404       9405       9416       9415  
      9285       9286       9297       9296       9406       9407       9418       9417  
      9286       9287       9298       9297       9407       9408       9419       9418  
      9287       9288       9299       9298       9408       9409       9420       9419  
      9288       9289       9300       9299       9409       9410       9421       9420  
      9289       9290       9301       9300       9410       9411       9422       9421  
      9290       9291       9302       9301       9411       9412       9423       9422  
      9291       9292       9303       9302       9412       9413       9424       9423  
      9292       9293       9304       9303       9413       9414       9425       9424  
      9293       9294       9305       9304       9414       9415       9426       9425  
      9294       9295       9306       9305       9415       9416       9427       9426  
      9296       9297       9308       9307       9417       9418       9429       9428  
      9297       9298       9309       9308       9418       9419       9430       9429  
      9298       9299       9310       9309       9419       9420       9431       9430  
      9299       9300       9311       9310       9420       9421       9432       9431  
      9300       9301       9312       9311       9421       9422       9433       9432  
      9301       9302       9313       9312       9422       9423       9434       9433  
      9302       9303       9314       9313       9423       9424       9435       9434  
      9303       9304       9315       9314       9424       9425       9436       9435  
      9304       9305       9316       9315       9425       9426       9437       9436  
      9305       9306       9317       9316       9426       9427       9438       9437  
      9318       9319       9330       9329       9439       9440       9451       9450  
      9319       9320       9331       9330       9440       9441       9452       9451  
      9320       9321       9332       9331       9441       9442       9453       9452  
      9321       9322       9333       9332       9442       9443       9454       9453  
      9322       9323       9334       9333       9443       9444       9455       9454  
      9323       9324       9335       9334       9444       9445       9456       9455  
      9324       9325       9336       9335       9445       9446       9457       9456  
      9325       9326       9337       9336       9446       9447       9458       9457  
      9326       9327       9338       9337       9447       9448       9459       9458  
      9327       9328       9339       9338       9448       9449       9460       9459  
      9329       9330       9341       9340       9450       9451       9462       9461  
      9330       9331       9342       9341       9451       9452       9463       9462  
      9331       9332       9343       9342       9452       9453       9464       9463  
      9332       9333       9344       9343       9453       9454       9465       9464  
      9333       9334       9345       9344       9454       9455       9466       9465  
      9334       9335       9346       9345       9455       9456       9467       9466  
      9335       9336       9347       9346       9456       9457       9468       9467  
      9336       9337       9348       9347       9457       9458       9469       9468  
      9337       9338       9349       9348       9458       9459       9470       9469  
      9338       9339       9350       9349       9459       9460       9471       9470  
      9340       9341       9352       9351       9461       9462       9473       9472  
      9341       9342       9353       9352       9462       9463       9474       9473  
      9342       9343       9354       9353       9463       9464       9475       9474  
      9343       9344       9355       9354       9464       9465       9476       9475  
      9344       9345       9356       9355       9465       9466       9477       9476  
      9345       9346       9357       9356       9466       9467       9478       9477  
      9346       9347       9358       9357       9467       9468       9479       9478  
      9347       9348       9359       9358       9468       9469       9480       9479  
      9348       9349       9360       9359       9469       9470       9481       9480  
      9349       9350       9361       9360       9470       9471       9482       9481  
      9351       9352       9363       9362       9472       9473       9484       9483  
      9352       9353       9364       9363       9473       9474       9485       9484  
      9353       9354       9365       9364       9474       9475       9486       9485  
      9354       9355       9366       9365       9475       9476       9487       9486  
      9355       9356       9367       9366       9476       9477       9488       9487  
      9356       9357       9368       9367       9477       9478       9489       9488  
      9357       9358       9369       9368       9478       9479       9490       9489  
      9358       9359       9370       9369       9479       9480       9491       9490  
      9359       9360       9371       9370       9480       9481       9492       9491  
      9360       9361       9372       9371       9481       9482       9493       9492  
      9362       9363       9374       9373       9483       9484       9495       9494  
      9363       9364       9375       9374       9484       9485       9496       9495  
      9364       9365       9376       9375       9485       9486       9497       9496  
      9365       9366       9377       9376       9486       9487       9498       9497  
      9366       9367       9378       9377       9487       9488       9499       9498  
      9367       9368       9379       9378       9488       9489       9500       9499  
      9368       9369       9380       9379       9489       9490       9501       9500  
      9369       9370       9381       9380       9490       9491       9502       9501  
      9370       9371       9382       9381       9491       9492       9503       9502  
      9371       9372       9383       9382       9492       9493       9504       9503  
      9373       9374       9385       9384       9494       9495       9506       9505  
      9374       9375       9386       9385       9495       9496       9507       9506  
      9375       9376       9387       9386       9496       9497       9508       9507  
      9376       9377       9388       9387       9497       9498       9509       9508  
      9377       9378       9389       9388       9498       9499       9510       9509  
      9378       9379       9390       9389       9499       9500       9511       9510  
      9379       9380       9391       9390       9500       9501       9512       9511  
      9380       9381       9392       9391       9501       9502       9513       9512  
      9381       9382       9393       9392       9502       9503       9514       9513  
      9382       9383       9394       9393       9503       9504       9515       9514  
      9384       9385       9396       9395       9505       9506       9517       9516  
      9385       9386       9397       9396       9506       9507       9518       9517  
      9386       9387       9398       9397       9507       9508       9519       9518  
      9387       9388       9399       9398       9508       9509       9520       9519  
      9388       9389       9400       9399       9509       9510       9521       9520  
      9389       9390       9401       9400       9510       9511       9522       9521  
      9390       9391       9402       9401       9511       9512       9523       9522  
      9391       9392       9403       9402       9512       9513       9524       9523  
      9392       9393       9404       9403       9513       9514       9525       9524  
      9393       9394       9405       9404       9514       9515       9526       9525  
      9395       9396       9407       9406       9516       9517       9528       9527  
      9396       9397       9408       9407       9517       9518       9529       9528  
      9397       9398       9409       9408       9518       9519       9530       9529  
      9398       9399       9410       9409       9519       9520       9531       9530  
      9399       9400       9411       9410       9520       9521       9532       9531  
      9400       9401       9412       9411       9521       9522       9533       9532  
      9401       9402       9413       9412       9522       9523       9534       9533  
      9402       9403       9414       9413       9523       9524       9535       9534  
      9403       9404       9415       9414       9524       9525       9536       9535  
      9404       9405       9416       9415       9525       9526       9537       9536  
      9406       9407       9418       9417       9527       9528       9539       9538  
      9407       9408       9419       9418       9528       9529       9540       9539  
      9408       9409       9420       9419       9529       9530       9541       9540  
      9409       9410       9421       9420       9530       9531       9542       9541  
      9410       9411       9422       9421       9531       9532       9543       9542  
      9411       9412       9423       9422       9532       9533       9544       9543  
      9412       9413       9424       9423       9533       9534       9545       9544  
      9413       9414       9425       9424       9534       9535       9546       9545  
      9414       9415       9426       9425       9535       9536       9547       9546  
      9415       9416       9427       9426       9536       9537       9548       9547  
      9417       9418       9429       9428       9538       9539       9550       9549  
      9418       9419       9430       9429       9539       9540       9551       9550  
      9419       9420       9431       9430       9540       9541       9552       9551  
      9420       9421       9432       9431       9541       9542       9553       9552  
      9421       9422       9433       9432       9542       9543       9554       9553  
      9422       9423       9434       9433       9543       9544       9555       9554  
      9423       9424       9435       9434       9544       9545       9556       9555  
      9424       9425       9436       9435       9545       9546       9557       9556  
      9425       9426       9437       9436       9546       9547       9558       9557  
      9426       9427       9438       9437       9547       9548       9559       9558  
      9439       9440       9451       9450       9560       9561       9572       9571  
      9440       9441       9452       9451       9561       9562       9573       9572  
      9441       9442       9453       9452       9562       9563       9574       9573  
      9442       9443       9454       9453       9563       9564       9575       9574  
      9443       9444       9455       9454       9564       9565       9576       9575  
      9444       9445       9456       9455       9565       9566       9577       9576  
      9445       9446       9457       9456       9566       9567       9578       9577  
      9446       9447       9458       9457       9567       9568       9579       9578  
      9447       9448       9459       9458       9568       9569       9580       9579  
      9448       9449       9460       9459       9569       9570       9581       9580  
      9450       9451       9462       9461       9571       9572       9583       9582  
      9451       9452       9463       9462       9572       9573       9584       9583  
      9452       9453       9464       9463       9573       9574       9585       9584  
      9453       9454       9465       9464       9574       9575       9586       9585  
      9454       9455       9466       9465       9575       9576       9587       9586  
      9455       9456       9467       9466       9576       9577       9588       9587  
      9456       9457       9468       9467       9577       9578       9589       9588  
      9457       9458       9469       9468       9578       9579       9590       9589  
      9458       9459       9470       9469       9579       9580       9591       9590  
      9459       9460       9471       9470       9580       9581       9592       9591  
      9461       9462       9473       9472       9582       9583       9594       9593  
      9462       9463       9474       9473       9583       9584       9595       9594  
      9463       9464       9475       9474       9584       9585       9596       9595  
      9464       9465       9476       9475       9585       9586       9597       9596  
      9465       9466       9477       9476       9586       9587       9598       9597  
      9466       9467       9478       9477       9587       9588       9599       9598  
      9467       9468       9479       9478       9588       9589       9600       9599  
      9468       9469       9480       9479       9589       9590       9601       9600  
      9469       9470       9481       9480       9590       9591       9602       9601  
      9470       9471       9482       9481       9591       9592       9603       9602  
      9472       9473       9484       9483       9593       9594       9605       9604  
      9473       9474       9485       9484       9594       9595       9606       9605  
      9474       9475       9486       9485       9595       9596       9607       9606  
      9475       9476       9487       9486       9596       9597       9608       9607  
      9476       9477       9488       9487       9597       9598       9609       9608  
      9477       9478       9489       9488       9598       9599       9610       9609  
      9478       9479       9490       9489       9599       9600       9611       9610  
      9479       9480       9491       9490       9600       9601       9612       9611  
      9480       9481       9492       9491       9601       9602       9613       9612  
      9481       9482       9493       9492       9602       9603       9614       9613  
      9483       9484       9495       9494       9604       9605       9616       9615  
      9484       9485       9496       9495       9605       9606       9617       9616  
      9485       9486       9497       9496       9606       9607       9618       9617  
      9486       9487       9498       9497       9607       9608       9619       9618  
      9487       9488       9499       9498       9608       9609       9620       9619  
      9488       9489       9500       9499       9609       9610       9621       9620  
      9489       9490       9501       9500       9610       9611       9622       9621  
      9490       9491       9502       9501       9611       9612       9623       9622  
      9491       9492       9503       9502       9612       9613       9624       9623  
      9492       9493       9504       9503       9613       9614       9625       9624  
      9494       9495       9506       9505       9615       9616       9627       9626  
      9495       9496       9507       9506       9616       9617       9628       9627  
      9496       9497       9508       9507       9617       9618       9629       9628  
      9497       9498       9509       9508       9618       9619       9630       9629  
      9498       9499       9510       9509       9619       9620       9631       9630  
      9499       9500       9511       9510       9620       9621       9632       9631  
      9500       9501       9512       9511       9621       9622       9633       9632  
      9501       9502       9513       9512       9622       9623       9634       9633  
      9502       9503       9514       9513       9623       9624       9635       9634  
      9503       9504       9515       9514       9624       9625       9636       9635  
      9505       9506       9517       9516       9626       9627       9638       9637  
      9506       9507       9518       9517       9627       9628       9639       9638  
      9507       9508       9519       9518       9628       9629       9640       9639  
      9508       9509       9520       9519       9629       9630       9641       9640  
      9509       9510       9521       9520       9630       9631       9642       9641  
      9510       9511       9522       9521       9631       9632       9643       9642  
      9511       9512       9523       9522       9632       9633       9644       9643  
      9512       9513       9524       9523       9633       9634       9645       9644  
      9513       9514       9525       9524       9634       9635       9646       9645  
      9514       9515       9526       9525       9635       9636       9647       9646  
      9516       9517       9528       9527       9637       9638       9649       9648  
      9517       9518       9529       9528       9638       9639       9650       9649  
      9518       9519       9530       9529       9639       9640       9651       9650  
      9519       9520       9531       9530       9640       9641       9652       9651  
      9520       9521       9532       9531       9641       9642       9653       9652  
      9521       9522       9533       9532       9642       9643       9654       9653  
      9522       9523       9534       9533       9643       9644       9655       9654  
      9523       9524       9535       9534       9644       9645       9656       9655  
      9524       9525       9536       9535       9645       9646       9657       9656  
      9525       9526       9537       9536       9646       9647       9658       9657  
      9527       9528       9539       9538       9648       9649       9660       9659  
      9528       9529       9540       9539       9649       9650       9661       9660  
      9529       9530       9541       9540       9650       9651       9662       9661  
      9530       9531       9542       9541       9651       9652       9663       9662  
      9531       9532       9543       9542       9652       9653       9664       9663  
      9532       9533       9544       9543       9653       9654       9665       9664  
      9533       9534       9545       9544       9654       9655       9666       9665  
      9534       9535       9546       9545       9655       9656       9667       9666  
      9535       9536       9547       9546       9656       9657       9668       9667  
      9536       9537       9548       9547       9657       9658       9669       9668  
      9538       9539       9550       9549       9659       9660       9671       9670  
      9539       9540       9551       9550       9660       9661       9672       9671  
      9540       9541       9552       9551       9661       9662       9673       9672  
      9541       9542       9553       9552       9662       9663       9674       9673  
      9542       9543       9554       9553       9663       9664       9675       9674  
      9543       9544       9555       9554       9664       9665       9676       9675  
      9544       9545       9556       9555       9665       9666       9677       9676  
      9545       9546       9557       9556       9666       9667       9678       9677  
      9546       9547       9558       9557       9667       9668       9679       9678  
      9547       9548       9559       9558       9668       9669       9680       9679  
      9560       9561       9572       9571       9681       9682       9693       9692  
      9561       9562       9573       9572       9682       9683       9694       9693  
      9562       9563       9574       9573       9683       9684       9695       9694  
      9563       9564       9575       9574       9684       9685       9696       9695  
      9564       9565       9576       9575       9685       9686       9697       9696  
      9565       9566       9577       9576       9686       9687       9698       9697  
      9566       9567       9578       9577       9687       9688       9699       9698  
      9567       9568       9579       9578       9688       9689       9700       9699  
      9568       9569       9580       9579       9689       9690       9701       9700  
      9569       9570       9581       9580       9690       9691       9702       9701  
      9571       9572       9583       9582       9692       9693       9704       9703  
      9572       9573       9584       9583       9693       9694       9705       9704  
      9573       9574       9585       9584       9694       9695       9706       9705  
      9574       9575       9586       9585       9695       9696       9707       9706  
      9575       9576       9587       9586       9696       9697       9708       9707  
      9576       9577       9588       9587       9697       9698       9709       9708  
      9577       9578       9589       9588       9698       9699       9710       9709  
      9578       9579       9590       9589       9699       9700       9711       9710  
      9579       9580       9591       9590       9700       9701       9712       9711  
      9580       9581       9592       9591       9701       9702       9713       9712  
      9582       9583       9594       9593       9703       9704       9715       9714  
      9583       9584       9595       9594       9704       9705       9716       9715  
      9584       9585       9596       9595       9705       9706       9717       9716  
      9585       9586       9597       9596       9706       9707       9718       9717  
      9586       9587       9598       9597       9707       9708       9719       9718  
      9587       9588       9599       9598       9708       9709       9720       9719  
      9588       9589       9600       9599       9709       9710       9721       9720  
      9589       9590       9601       9600       9710       9711       9722       9721  
      9590       9591       9602       9601       9711       9712       9723       9722  
      9591       9592       9603       9602       9712       9713       9724       9723  
      9593       9594       9605       9604       9714       9715       9726       9725  
      9594       9595       9606       9605       9715       9716       9727       9726  
      9595       9596       9607       9606       9716       9717       9728       9727  
      9596       9597       9608       9607       9717       9718       9729       9728  
      9597       9598       9609       9608       9718       9719       9730       9729  
      9598       9599       9610       9609       9719       9720       9731       9730  
      9599       9600       9611       9610       9720       9721       9732       9731  
      9600       9601       9612       9611       9721       9722       9733       9732  
      9601       9602       9613       9612       9722       9723       9734       9733  
      9602       9603       9614       9613       9723       9724       9735       9734  
      9604       9605       9616       9615       9725       9726       9737       9736  
      9605       9606       9617       9616       9726       9727       9738       9737  
      9606       9607       9618       9617       9727       9728       9739       9738  
      9607       9608       9619       9618       9728       9729       9740       9739  
      9608       9609       9620       9619       9729       9730       9741       9740  
      9609       9610       9621       9620       9730       9731       9742       9741  
      9610       9611       9622       9621       9731       9732       9743       9742  
      9611       9612       9623       9622       9732       9733       9744       9743  
      9612       9613       9624       9623       9733       9734       9745       9744  
      9613       9614       9625       9624       9734       9735       9746       9745  
      9615       9616       9627       9626       9736       9737       9748       9747  
      9616       9617       9628       9627       9737       9738       9749       9748  
      9617       9618       9629       9628       9738       9739       9750       9749  
      9618       9619       9630       9629       9739       9740       9751       9750  
      9619       9620       9631       9630       9740       9741       9752       9751  
      9620       9621       9632       9631       9741       9742       9753       9752  
      9621       9622       9633       9632       9742       9743       9754       9753  
      9622       9623       9634       9633       9743       9744       9755       9754  
      9623       9624       9635       9634       9744       9745       9756       9755  
      9624       9625       9636       9635       9745       9746       9757       9756  
      9626       9627       9638       9637       9747       9748       9759       9758  
      9627       9628       9639       9638       9748       9749       9760       9759  
      9628       9629       9640       9639       9749       9750       9761       9760  
      9629       9630       9641       9640       9750       9751       9762       9761  
      9630       9631       9642       9641       9751       9752       9763       9762  
      9631       9632       9643       9642       9752       9753       9764       9763  
      9632       9633       9644       9643       9753       9754       9765       9764  
      9633       9634       9645       9644       9754       9755       9766       9765  
      9634       9635       9646       9645       9755       9756       9767       9766  
      9635       9636       9647       9646       9756       9757       9768       9767  
      9637       9638       9649       9648       9758       9759       9770       9769  
      9638       9639       9650       9649       9759       9760       9771       9770  
      9639       9640       9651       9650       9760       9761       9772       9771  
      9640       9641       9652       9651       9761       9762       9773       9772  
      9641       9642       9653       9652       9762       9763       9774       9773  
      9642       9643       9654       9653       9763       9764       9775       9774  
      9643       9644       9655       9654       9764       9765       9776       9775  
      9644       9645       9656       9655       9765       9766       9777       9776  
      9645       9646       9657       9656       9766       9767       9778       9777  
      9646       9647       9658       9657       9767       9768       9779       9778  
      9648       9649       9660       9659       9769       9770       9781       9780  
      9649       9650       9661       9660       9770       9771       9782       9781  
      9650       9651       9662       9661       9771       9772       9783       9782  
      9651       9652       9663       9662       9772       9773       9784       9783  
      9652       9653       9664       9663       9773       9774       9785       9784  
      9653       9654       9665       9664       9774       9775       9786       9785  
      9654       9655       9666       9665       9775       9776       9787       9786  
      9655       9656       9667       9666       9776       9777       9788       9787  
      9656       9657       9668       9667       9777       9778       9789       9788  
      9657       9658       9669       9668       9778       9779       9790       9789  
      9659       9660       9671       9670       9780       9781       9792       9791  
      9660       9661       9672       9671       9781       9782       9793       9792  
      9661       9662       9673       9672       9782       9783       9794       9793  
      9662       9663       9674       9673       9783       9784       9795       9794  
      9663       9664       9675       9674       9784       9785       9796       9795  
      9664       9665       9676       9675       9785       9786       9797       9796  
      9665       9666       9677       9676       9786       9787       9798       9797  
      9666       9667       9678       9677       9787       9788       9799       9798  
      9667       9668       9679       9678       9788       9789       9800       9799  
      9668       9669       9680       9679       9789       9790       9801       9800  
      9681       9682       9693       9692       9802       9803       9814       9813  
      9682       9683       9694       9693       9803       9804       9815       9814  
      9683       9684       9695       9694       9804       9805       9816       9815  
      9684       9685       9696       9695       9805       9806       9817       9816  
      9685       9686       9697       9696       9806       9807       9818       9817  
      9686       9687       9698       9697       9807       9808       9819       9818  
      9687       9688       9699       9698       9808       9809       9820       9819  
      9688       9689       9700       9699       9809       9810       9821       9820  
      9689       9690       9701       9700       9810       9811       9822       9821  
      9690       9691       9702       9701       9811       9812       9823       9822  
      9692       9693       9704       9703       9813       9814       9825       9824  
      9693       9694       9705       9704       9814       9815       9826       9825  
      9694       9695       9706       9705       9815       9816       9827       9826  
      9695       9696       9707       9706       9816       9817       9828       9827  
      9696       9697       9708       9707       9817       9818       9829       9828  
      9697       9698       9709       9708       9818       9819       9830       9829  
      9698       9699       9710       9709       9819       9820       9831       9830  
      9699       9700       9711       9710       9820       9821       9832       9831  
      9700       9701       9712       9711       9821       9822       9833       9832  
      9701       9702       9713       9712       9822       9823       9834       9833  
      9703       9704       9715       9714       9824       9825       9836       9835  
      9704       9705       9716       9715       9825       9826       9837       9836  
      9705       9706       9717       9716       9826       9827       9838       9837  
      9706       9707       9718       9717       9827       9828       9839       9838  
      9707       9708       9719       9718       9828       9829       9840       9839  
      9708       9709       9720       9719       9829       9830       9841       9840  
      9709       9710       9721       9720       9830       9831       9842       9841  
      9710       9711       9722       9721       9831       9832       9843       9842  
      9711       9712       9723       9722       9832       9833       9844       9843  
      9712       9713       9724       9723       9833       9834       9845       9844  
      9714       9715       9726       9725       9835       9836       9847       9846  
      9715       9716       9727       9726       9836       9837       9848       9847  
      9716       9717       9728       9727       9837       9838       9849       9848  
      9717       9718       9729       9728       9838       9839       9850       9849  
      9718       9719       9730       9729       9839       9840       9851       9850  
      9719       9720       9731       9730       9840       9841       9852       9851  
      9720       9721       9732       9731       9841       9842       9853       9852  
      9721       9722       9733       9732       9842       9843       9854       9853  
      9722       9723       9734       9733       9843       9844       9855       9854  
      9723       9724       9735       9734       9844       9845       9856       9855  
      9725       9726       9737       9736       9846       9847       9858       9857  
      9726       9727       9738       9737       9847       9848       9859       9858  
      9727       9728       9739       9738       9848       9849       9860       9859  
      9728       9729       9740       9739       9849       9850       9861       9860  
      9729       9730       9741       9740       9850       9851       9862       9861  
      9730       9731       9742       9741       9851       9852       9863       9862  
      9731       9732       9743       9742       9852       9853       9864       9863  
      9732       9733       9744       9743       9853       9854       9865       9864  
      9733       9734       9745       9744       9854       9855       9866       9865  
      9734       9735       9746       9745       9855       9856       9867       9866  
      9736       9737       9748       9747       9857       9858       9869       9868  
      9737       9738       9749       9748       9858       9859       9870       9869  
      9738       9739       9750       9749       9859       9860       9871       9870  
      9739       9740       9751       9750       9860       9861       9872       9871  
      9740       9741       9752       9751       9861       9862       9873       9872  
      9741       9742       9753       9752       9862       9863       9874       9873  
      9742       9743       9754       9753       9863       9864       9875       9874  
      9743       9744       9755       9754       9864       9865       9876       9875  
      9744       9745       9756       9755       9865       9866       9877       9876  
      9745       9746       9757       9756       9866       9867       9878       9877  
      9747       9748       9759       9758       9868       9869       9880       9879  
      9748       9749       9760       9759       9869       9870       9881       9880  
      9749       9750       9761       9760       9870       9871       9882       9881  
      9750       9751       9762       9761       9871       9872       9883       9882  
      9751       9752       9763       9762       9872       9873       9884       9883  
      9752       9753       9764       9763       9873       9874       9885       9884  
      9753       9754       9765       9764       9874       9875       9886       9885  
      9754       9755       9766       9765       9875       9876       9887       9886  
      9755       9756       9767       9766       9876       9877       9888       9887  
      9756       9757       9768       9767       9877       9878       9889       9888  
      9758       9759       9770       9769       9879       9880       9891       9890  
      9759       9760       9771       9770       9880       9881       9892       9891  
      9760       9761       9772       9771       9881       9882       9893       9892  
      9761       9762       9773       9772       9882       9883       9894       9893  
      9762       9763       9774       9773       9883       9884       9895       9894  
      9763       9764       9775       9774       9884       9885       9896       9895  
      9764       9765       9776       9775       9885       9886       9897       9896  
      9765       9766       9777       9776       9886       9887       9898       9897  
      9766       9767       9778       9777       9887       9888       9899       9898  
      9767       9768       9779       9778       9888       9889       9900       9899  
      9769       9770       9781       9780       9890       9891       9902       9901  
      9770       9771       9782       9781       9891       9892       9903       9902  
      9771       9772       9783       9782       9892       9893       9904       9903  
      9772       9773       9784       9783       9893       9894       9905       9904  
      9773       9774       9785       9784       9894       9895       9906       9905  
      9774       9775       9786       9785       9895       9896       9907       9906  
      9775       9776       9787       9786       9896       9897       9908       9907  
      9776       9777       9788       9787       9897       9898       9909       9908  
      9777       9778       9789       9788       9898       9899       9910       9909  
      9778       9779       9790       9789       9899       9900       9911       9910  
      9780       9781       9792       9791       9901       9902       9913       9912  
      9781       9782       9793       9792       9902       9903       9914       9913  
      9782       9783       9794       9793       9903       9904       9915       9914  
      9783       9784       9795       9794       9904       9905       9916       9915  
      9784       9785       9796       9795       9905       9906       9917       9916  
      9785       9786       9797       9796       9906       9907       9918       9917  
      9786       9787       9798       9797       9907       9908       9919       9918  
      9787       9788       9799       9798       9908       9909       9920       9919  
      9788       9789       9800       9799       9909       9910       9921       9920  
      9789       9790       9801       9800       9910       9911       9922       9921  
      9802       9803       9814       9813       9923       9924       9935       9934  
      9803       9804       9815       9814       9924       9925       9936       9935  
      9804       9805       9816       9815       9925       9926       9937       9936  
      9805       9806       9817       9816       9926       9927       9938       9937  
      9806       9807       9818       9817       9927       9928       9939       9938  
      9807       9808       9819       9818       9928       9929       9940       9939  
      9808       9809       9820       9819       9929       9930       9941       9940  
      9809       9810       9821       9820       9930       9931       9942       9941  
      9810       9811       9822       9821       9931       9932       9943       9942  
      9811       9812       9823       9822       9932       9933       9944       9943  
      9813       9814       9825       9824       9934       9935       9946       9945  
      9814       9815       9826       9825       9935       9936       9947       9946  
      9815       9816       9827       9826       9936       9937       9948       9947  
      9816       9817       9828       9827       9937       9938       9949       9948  
      9817       9818       9829       9828       9938       9939       9950       9949  
      9818       9819       9830       9829       9939       9940       9951       9950  
      9819       9820       9831       9830       9940       9941       9952       9951  
      9820       9821       9832       9831       9941       9942       9953       9952  
      9821       9822       9833       9832       9942       9943       9954       9953  
      9822       9823       9834       9833       9943       9944       9955       9954  
      9824       9825       9836       9835       9945       9946       9957       9956  
      9825       9826       9837       9836       9946       9947       9958       9957  
      9826       9827       9838       9837       9947       9948       9959       9958  
      9827       9828       9839       9838       9948       9949       9960       9959  
      9828       9829       9840       9839       9949       9950       9961       9960  
      9829       9830       9841       9840       9950       9951       9962       9961  
      9830       9831       9842       9841       9951       9952       9963       9962  
      9831       9832       9843       9842       9952       9953       9964       9963  
      9832       9833       9844       9843       9953       9954       9965       9964  
      9833       9834       9845       9844       9954       9955       9966       9965  
      9835       9836       9847       9846       9956       9957       9968       9967  
      9836       9837       9848       9847       9957       9958       9969       9968  
      9837       9838       9849       9848       9958       9959       9970       9969  
      9838       9839       9850       9849       9959       9960       9971       9970  
      9839       9840       9851       9850       9960       9961       9972       9971  
      9840       9841       9852       9851       9961       9962       9973       9972  
      9841       9842       9853       9852       9962       9963       9974       9973  
      9842       9843       9854       9853       9963       9964       9975       9974  
      9843       9844       9855       9854       9964       9965       9976       9975  
      9844       9845       9856       9855       9965       9966       9977       9976  
      9846       9847       9858       9857       9967       9968       9979       9978  
      9847       9848       9859       9858       9968       9969       9980       9979  
      9848       9849       9860       9859       9969       9970       9981       9980  
      9849       9850       9861       9860       9970       9971       9982       9981  
      9850       9851       9862       9861       9971       9972       9983       9982  
      9851       9852       9863       9862       9972       9973       9984       9983  
      9852       9853       9864       9863       9973       9974       9985       9984  
      9853       9854       9865       9864       9974       9975       9986       9985  
      9854       9855       9866       9865       9975       9976       9987       9986  
      9855       9856       9867       9866       9976       9977       9988       9987  
      9857       9858       9869       9868       9978       9979       9990       9989  
      9858       9859       9870       9869       9979       9980       9991       9990  
      9859       9860       9871       9870       9980       9981       9992       9991  
      9860       9861       9872       9871       9981       9982       9993       9992  
      9861       9862       9873       9872       9982       9983       9994       9993  
      9862       9863       9874       9873       9983       9984       9995       9994  
      9863       9864       9875       9874       9984       9985       9996       9995  
      9864       9865       9876       9875       9985       9986       9997       9996  
      9865       9866       9877       9876       9986       9987       9998       9997  
      9866       9867       9878       9877       9987       9988       9999       9998  
      9868       9869       9880       9879       9989       9990      10001      10000  
      9869       9870       9881       9880       9990       9991      10002      10001  
      9870       9871       9882       9881       9991       9992      10003      10002  
      9871       9872       9883       9882       9992       9993      10004      10003  
      9872       9873       9884       9883       9993       9994      10005      10004  
      9873       9874       9885       9884       9994       9995      10006      10005  
      9874       9875       9886       9885       9995       9996      10007      10006  
      9875       9876       9887       9886       9996       9997      10008      10007  
      9876       9877       9888       9887       9997       9998      10009      10008  
      9877       9878       9889       9888       9998       9999      10010      10009  
      9879       9880       9891       9890      10000      10001      10012      10011  
      9880       9881       9892       9891      10001      10002      10013      10012  
      9881       9882       9893       9892      10002      10003      10014      10013  
      9882       9883       9894       9893      10003      10004      10015      10014  
      9883       9884       9895       9894      10004      10005      10016      10015  
      9884       9885       9896       9895      10005      10006      10017      10016  
      9885       9886       9897       9896      10006      10007      10018      10017  
      9886       9887       9898       9897      10007      10008      10019      10018  
      9887       9888       9899       9898      10008      10009      10020      10019  
      9888       9889       9900       9899      10009      10010      10021      10020  
      9890       9891       9902       9901      10011      10012      10023      10022  
      9891       9892       9903       9902      10012      10013      10024      10023  
      9892       9893       9904       9903      10013      10014      10025      10024  
      9893       9894       9905       9904      10014      10015      10026      10025  
      9894       9895       9906       9905      10015      10016      10027      10026  
      9895       9896       9907       9906      10016      10017      10028      10027  
      9896       9897       9908       9907      10017      10018      10029      10028  
      9897       9898       9909       9908      10018      10019      10030      10029  
      9898       9899       9910       9909      10019      10020      10031      10030  
      9899       9900       9911       9910      10020      10021      10032      10031  
      9901       9902       9913       9912      10022      10023      10034      10033  
      9902       9903       9914       9913      10023      10024      10035      10034  
      9903       9904       9915       9914      10024      10025      10036      10035  
      9904       9905       9916       9915      10025      10026      10037      10036  
      9905       9906       9917       9916      10026      10027      10038      10037  
      9906       9907       9918       9917      10027      10028      10039      10038  
      9907       9908       9919       9918      10028      10029      10040      10039  
      9908       9909       9920       9919      10029      10030      10041      10040  
      9909       9910       9921       9920      10030      10031      10042      10041  
      9910       9911       9922       9921      10031      10032      10043      10042  
      9923       9924       9935       9934      10044      10045      10056      10055  
      9924       9925       9936       9935      10045      10046      10057      10056  
      9925       9926       9937       9936      10046      10047      10058      10057  
      9926       9927       9938       9937      10047      10048      10059      10058  
      9927       9928       9939       9938      10048      10049      10060      10059  
      9928       9929       9940       9939      10049      10050      10061      10060  
      9929       9930       9941       9940      10050      10051      10062      10061  
      9930       9931       9942       9941      10051      10052      10063      10062  
      9931       9932       9943       9942      10052      10053      10064      10063  
      9932       9933       9944       9943      10053      10054      10065      10064  
      9934       9935       9946       9945      10055      10056      10067      10066  
      9935       9936       9947       9946      10056      10057      10068      10067  
      9936       9937       9948       9947      10057      10058      10069      10068  
      9937       9938       9949       9948      10058      10059      10070      10069  
      9938       9939       9950       9949      10059      10060      10071      10070  
      9939       9940       9951       9950      10060      10061      10072      10071  
      9940       9941       9952       9951      10061      10062      10073      10072  
      9941       9942       9953       9952      10062      10063      10074      10073  
      9942       9943       9954       9953      10063      10064      10075      10074  
      9943       9944       9955       9954      10064      10065      10076      10075  
      9945       9946       9957       9956      10066      10067      10078      10077  
      9946       9947       9958       9957      10067      10068      10079      10078  
      9947       9948       9959       9958      10068      10069      10080      10079  
      9948       9949       9960       9959      10069      10070      10081      10080  
      9949       9950       9961       9960      10070      10071      10082      10081  
      9950       9951       9962       9961      10071      10072      10083      10082  
      9951       9952       9963       9962      10072      10073      10084      10083  
      9952       9953       9964       9963      10073      10074      10085      10084  
      9953       9954       9965       9964      10074      10075      10086      10085  
      9954       9955       9966       9965      10075      10076      10087      10086  
      9956       9957       9968       9967      10077      10078      10089      10088  
      9957       9958       9969       9968      10078      10079      10090      10089  
      9958       9959       9970       9969      10079      10080      10091      10090  
      9959       9960       9971       9970      10080      10081      10092      10091  
      9960       9961       9972       9971      10081      10082      10093      10092  
      9961       9962       9973       9972      10082      10083      10094      10093  
      9962       9963       9974       9973      10083      10084      10095      10094  
      9963       9964       9975       9974      10084      10085      10096      10095  
      9964       9965       9976       9975      10085      10086      10097      10096  
      9965       9966       9977       9976      10086      10087      10098      10097  
      9967       9968       9979       9978      10088      10089      10100      10099  
      9968       9969       9980       9979      10089      10090      10101      10100  
      9969       9970       9981       9980      10090      10091      10102      10101  
      9970       9971       9982       9981      10091      10092      10103      10102  
      9971       9972       9983       9982      10092      10093      10104      10103  
      9972       9973       9984       9983      10093      10094      10105      10104  
      9973       9974       9985       9984      10094      10095      10106      10105  
      9974       9975       9986       9985      10095      10096      10107      10106  
      9975       9976       9987       9986      10096      10097      10108      10107  
      9976       9977       9988       9987      10097      10098      10109      10108  
      9978       9979       9990       9989      10099      10100      10111      10110  
      9979       9980       9991       9990      10100      10101      10112      10111  
      9980       9981       9992       9991      10101      10102      10113      10112  
      9981       9982       9993       9992      10102      10103      10114      10113  
      9982       9983       9994       9993      10103      10104      10115      10114  
      9983       9984       9995       9994      10104      10105      10116      10115  
      9984       9985       9996       9995      10105      10106      10117      10116  
      9985       9986       9997       9996      10106      10107      10118      10117  
      9986       9987       9998       9997      10107      10108      10119      10118  
      9987       9988       9999       9998      10108      10109      10120      10119  
      9989       9990      10001      10000      10110      10111      10122      10121  
      9990       9991      10002      10001      10111      10112      10123      10122  
      9991       9992      10003      10002      10112      10113      10124      10123  
      9992       9993      10004      10003      10113      10114      10125      10124  
      9993       9994      10005      10004      10114      10115      10126      10125  
      9994       9995      10006      10005      10115      10116      10127      10126  
      9995       9996      10007      10006      10116      10117      10128      10127  
      9996       9997      10008      10007      10117      10118      10129      10128  
      9997       9998      10009      10008      10118      10119      10130      10129  
      9998       9999      10010      10009      10119      10120      10131      10130  
     10000      10001      10012      10011      10121      10122      10133      10132  
     10001      10002      10013      10012      10122      10123      10134      10133  
     10002      10003      10014      10013      10123      10124      10135      10134  
     10003      10004      10015      10014      10124      10125      10136      10135  
     10004      10005      10016      10015      10125      10126      10137      10136  
     10005      10006      10017      10016      10126      10127      10138      10137  
     10006      10007      10018      10017      10127      10128      10139      10138  
     10007      10008      10019      10018      10128      10129      10140      10139  
     10008      10009      10020      10019      10129      10130      10141      10140  
     10009      10010      10021      10020      10130      10131      10142      10141  
     10011      10012      10023      10022      10132      10133      10144      10143  
     10012      10013      10024      10023      10133      10134      10145      10144  
     10013      10014      10025      10024      10134      10135      10146      10145  
     10014      10015      10026      10025      10135      10136      10147      10146  
     10015      10016      10027      10026      10136      10137      10148      10147  
     10016      10017      10028      10027      10137      10138      10149      10148  
     10017      10018      10029      10028      10138      10139      10150      10149  
     10018      10019      10030      10029      10139      10140      10151      10150  
     10019      10020      10031      10030      10140      10141      10152      10151  
     10020      10021      10032      10031      10141      10142      10153      10152  
     10022      10023      10034      10033      10143      10144      10155      10154  
     10023      10024      10035      10034      10144      10145      10156      10155  
     10024      10025      10036      10035      10145      10146      10157      10156  
     10025      10026      10037      10036      10146      10147      10158      10157  
     10026      10027      10038      10037      10147      10148      10159      10158  
     10027      10028      10039      10038      10148      10149      10160      10159  
     10028      10029      10040      10039      10149      10150      10161      10160  
     10029      10030      10041      10040      10150      10151      10162      10161  
     10030      10031      10042      10041      10151      10152      10163      10162  
     10031      10032      10043      10042      10152      10153      10164      10163  
     10044      10045      10056      10055      10165      10166      10177      10176  
     10045      10046      10057      10056      10166      10167      10178      10177  
     10046      10047      10058      10057      10167      10168      10179      10178  
     10047      10048      10059      10058      10168      10169      10180      10179  
     10048      10049      10060      10059      10169      10170      10181      10180  
     10049      10050      10061      10060      10170      10171      10182      10181  
     10050      10051      10062      10061      10171      10172      10183      10182  
     10051      10052      10063      10062      10172      10173      10184      10183  
     10052      10053      10064      10063      10173      10174      10185      10184  
     10053      10054      10065      10064      10174      10175      10186      10185  
     10055      10056      10067      10066      10176      10177      10188      10187  
     10056      10057      10068      10067      10177      10178      10189      10188  
     10057      10058      10069      10068      10178      10179      10190      10189  
     10058      10059      10070      10069      10179      10180      10191      10190  
     10059      10060      10071      10070      10180      10181      10192      10191  
     10060      10061      10072      10071      10181      10182      10193      10192  
     10061      10062      10073      10072      10182      10183      10194      10193  
     10062      10063      10074      10073      10183      10184      10195      10194  
     10063      10064      10075      10074      10184      10185      10196      10195  
     10064      10065      10076      10075      10185      10186      10197      10196  
     10066      10067      10078      10077      10187      10188      10199      10198  
     10067      10068      10079      10078      10188      10189      10200      10199  
     10068      10069      10080      10079      10189      10190      10201      10200  
     10069      10070      10081      10080      10190      10191      10202      10201  
     10070      10071      10082      10081      10191      10192      10203      10202  
     10071      10072      10083      10082      10192      10193      10204      10203  
     10072      10073      10084      10083      10193      10194      10205      10204  
     10073      10074      10085      10084      10194      10195      10206      10205  
     10074      10075      10086      10085      10195      10196      10207      10206  
     10075      10076      10087      10086      10196      10197      10208      10207  
     10077      10078      10089      10088      10198      10199      10210      10209  
     10078      10079      10090      10089      10199      10200      10211      10210  
     10079      10080      10091      10090      10200      10201      10212      10211  
     10080      10081      10092      10091      10201      10202      10213      10212  
     10081      10082      10093      10092      10202      10203      10214      10213  
     10082      10083      10094      10093      10203      10204      10215      10214  
     10083      10084      10095      10094      10204      10205      10216      10215  
     10084      10085      10096      10095      10205      10206      10217      10216  
     10085      10086      10097      10096      10206      10207      10218      10217  
     10086      10087      10098      10097      10207      10208      10219      10218  
     10088      10089      10100      10099      10209      10210      10221      10220  
     10089      10090      10101      10100      10210      10211      10222      10221  
     10090      10091      10102      10101      10211      10212      10223      10222  
     10091      10092      10103      10102      10212      10213      10224      10223  
     10092      10093      10104      10103      10213      10214      10225      10224  
     10093      10094      10105      10104      10214      10215      10226      10225  
     10094      10095      10106      10105      10215      10216      10227      10226  
     10095      10096      10107      10106      10216      10217      10228      10227  
     10096      10097      10108      10107      10217      10218      10229      10228  
     10097      10098      10109      10108      10218      10219      10230      10229  
     10099      10100      10111      10110      10220      10221      10232      10231  
     10100      10101      10112      10111      10221      10222      10233      10232  
     10101      10102      10113      10112      10222      10223      10234      10233  
     10102      10103      10114      10113      10223      10224      10235      10234  
     10103      10104      10115      10114      10224      10225      10236      10235  
     10104      10105      10116      10115      10225      10226      10237      10236  
     10105      10106      10117      10116      10226      10227      10238      10237  
     10106      10107      10118      10117      10227      10228      10239      10238  
     10107      10108      10119      10118      10228      10229      10240      10239  
     10108      10109      10120      10119      10229      10230      10241      10240  
     10110      10111      10122      10121      10231      10232      10243      10242  
     10111      10112      10123      10122      10232      10233      10244      10243  
     10112      10113      10124      10123      10233      10234      10245      10244  
     10113      10114      10125      10124      10234      10235      10246      10245  
     10114      10115      10126      10125      10235      10236      10247      10246  
     10115      10116      10127      10126      10236      10237      10248      10247  
     10116      10117      10128      10127      10237      10238      10249      10248  
     10117      10118      10129      10128      10238      10239      10250      10249  
     10118      10119      10130      10129      10239      10240      10251      10250  
     10119      10120      10131      10130      10240      10241      10252      10251  
     10121      10122      10133      10132      10242      10243      10254      10253  
     10122      10123      10134      10133      10243      10244      10255      10254  
     10123      10124      10135      10134      10244      10245      10256      10255  
     10124      10125      10136      10135      10245      10246      10257      10256  
     10125      10126      10137      10136      10246      10247      10258      10257  
     10126      10127      10138      10137      10247      10248      10259      10258  
     10127      10128      10139      10138      10248      10249      10260      10259  
     10128      10129      10140      10139      10249      10250      10261      10260  
     10129      10130      10141      10140      10250      10251      10262      10261  
     10130      10131      10142      10141      10251      10252      10263      10262  
     10132      10133      10144      10143      10253      10254      10265      10264  
     10133      10134      10145      10144      10254      10255      10266      10265  
     10134      10135      10146      10145      10255      10256      10267      10266  
     10135      10136      10147      10146      10256      10257      10268      10267  
     10136      10137      10148      10147      10257      10258      10269      10268  
     10137      10138      10149      10148      10258      10259      10270      10269  
     10138      10139      10150      10149      10259      10260      10271      10270  
     10139      10140      10151      10150      10260      10261      10272      10271  
     10140      10141      10152      10151      10261      10262      10273      10272  
     10141      10142      10153      10152      10262      10263      10274      10273  
     10143      10144      10155      10154      10264      10265      10276      10275  
     10144      10145      10156      10155      10265      10266      10277      10276  
     10145      10146      10157      10156      10266      10267      10278      10277  
     10146      10147      10158      10157      10267      10268      10279      10278  
     10147      10148      10159      10158      10268      10269      10280      10279  
     10148      10149      10160      10159      10269      10270      10281      10280  
     10149      10150      10161      10160      10270      10271      10282      10281  
     10150      10151      10162      10161      10271      10272      10283      10282  
     10151      10152      10163      10162      10272      10273      10284      10283  
     10152      10153      10164      10163      10273      10274      10285      10284  
     10165      10166      10177      10176      10286      10287      10298      10297  
     10166      10167      10178      10177      10287      10288      10299      10298  
     10167      10168      10179      10178      10288      10289      10300      10299  
     10168      10169      10180      10179      10289      10290      10301      10300  
     10169      10170      10181      10180      10290      10291      10302      10301  
     10170      10171      10182      10181      10291      10292      10303      10302  
     10171      10172      10183      10182      10292      10293      10304      10303  
     10172      10173      10184      10183      10293      10294      10305      10304  
     10173      10174      10185      10184      10294      10295      10306      10305  
     10174      10175      10186      10185      10295      10296      10307      10306  
     10176      10177      10188      10187      10297      10298      10309      10308  
     10177      10178      10189      10188      10298      10299      10310      10309  
     10178      10179      10190      10189      10299      10300      10311      10310  
     10179      10180      10191      10190      10300      10301      10312      10311  
     10180      10181      10192      10191      10301      10302      10313      10312  
     10181      10182      10193      10192      10302      10303      10314      10313  
     10182      10183      10194      10193      10303      10304      10315      10314  
     10183      10184      10195      10194      10304      10305      10316      10315  
     10184      10185      10196      10195      10305      10306      10317      10316  
     10185      10186      10197      10196      10306      10307      10318      10317  
     10187      10188      10199      10198      10308      10309      10320      10319  
     10188      10189      10200      10199      10309      10310      10321      10320  
     10189      10190      10201      10200      10310      10311      10322      10321  
     10190      10191      10202      10201      10311      10312      10323      10322  
     10191      10192      10203      10202      10312      10313      10324      10323  
     10192      10193      10204      10203      10313      10314      10325      10324  
     10193      10194      10205      10204      10314      10315      10326      10325  
     10194      10195      10206      10205      10315      10316      10327      10326  
     10195      10196      10207      10206      10316      10317      10328      10327  
     10196      10197      10208      10207      10317      10318      10329      10328  
     10198      10199      10210      10209      10319      10320      10331      10330  
     10199      10200      10211      10210      10320      10321      10332      10331  
     10200      10201      10212      10211      10321      10322      10333      10332  
     10201      10202      10213      10212      10322      10323      10334      10333  
     10202      10203      10214      10213      10323      10324      10335      10334  
     10203      10204      10215      10214      10324      10325      10336      10335  
     10204      10205      10216      10215      10325      10326      10337      10336  
     10205      10206      10217      10216      10326      10327      10338      10337  
     10206      10207      10218      10217      10327      10328      10339      10338  
     10207      10208      10219      10218      10328      10329      10340      10339  
     10209      10210      10221      10220      10330      10331      10342      10341  
     10210      10211      10222      10221      10331      10332      10343      10342  
     10211      10212      10223      10222      10332      10333      10344      10343  
     10212      10213      10224      10223      10333      10334      10345      10344  
     10213      10214      10225      10224      10334      10335      10346      10345  
     10214      10215      10226      10225      10335      10336      10347      10346  
     10215      10216      10227      10226      10336      10337      10348      10347  
     10216      10217      10228      10227      10337      10338      10349      10348  
     10217      10218      10229      10228      10338      10339      10350      10349  
     10218      10219      10230      10229      10339      10340      10351      10350  
     10220      10221      10232      10231      10341      10342      10353      10352  
     10221      10222      10233      10232      10342      10343      10354      10353  
     10222      10223      10234      10233      10343      10344      10355      10354  
     10223      10224      10235      10234      10344      10345      10356      10355  
     10224      10225      10236      10235      10345      10346      10357      10356  
     10225      10226      10237      10236      10346      10347      10358      10357  
     10226      10227      10238      10237      10347      10348      10359      10358  
     10227      10228      10239      10238      10348      10349      10360      10359  
     10228      10229      10240      10239      10349      10350      10361      10360  
     10229      10230      10241      10240      10350      10351      10362      10361  
     10231      10232      10243      10242      10352      10353      10364      10363  
     10232      10233      10244      10243      10353      10354      10365      10364  
     10233      10234      10245      10244      10354      10355      10366      10365  
     10234      10235      10246      10245      10355      10356      10367      10366  
     10235      10236      10247      10246      10356      10357      10368      10367  
     10236      10237      10248      10247      10357      10358      10369      10368  
     10237      10238      10249      10248      10358      10359      10370      10369  
     10238      10239      10250      10249      10359      10360      10371      10370  
     10239      10240      10251      10250      10360      10361      10372      10371  
     10240      10241      10252      10251      10361      10362      10373      10372  
     10242      10243      10254      10253      10363      10364      10375      10374  
     10243      10244      10255      10254      10364      10365      10376      10375  
     10244      10245      10256      10255      10365      10366      10377      10376  
     10245      10246      10257      10256      10366      10367      10378      10377  
     10246      10247      10258      10257      10367      10368      10379      10378  
     10247      10248      10259      10258      10368      10369      10380      10379  
     10248      10249      10260      10259      10369      10370      10381      10380  
     10249      10250      10261      10260      10370      10371      10382      10381  
     10250      10251      10262      10261      10371      10372      10383      10382  
     10251      10252      10263      10262      10372      10373      10384      10383  
     10253      10254      10265      10264      10374      10375      10386      10385  
     10254      10255      10266      10265      10375      10376      10387      10386  
     10255      10256      10267      10266      10376      10377      10388      10387  
     10256      10257      10268      10267      10377      10378      10389      10388  
     10257      10258      10269      10268      10378      10379      10390      10389  
     10258      10259      10270      10269      10379      10380      10391      10390  
     10259      10260      10271      10270      10380      10381      10392      10391  
     10260      10261      10272      10271      10381      10382      10393      10392  
     10261      10262      10273      10272      10382      10383      10394      10393  
     10262      10263      10274      10273      10383      10384      10395      10394  
     10264      10265      10276      10275      10385      10386      10397      10396  
     10265      10266      10277      10276      10386      10387      10398      10397  
     10266      10267      10278      10277      10387      10388      10399      10398  
     10267      10268      10279      10278      10388      10389      10400      10399  
     10268      10269      10280      10279      10389      10390      10401      10400  
     10269      10270      10281      10280      10390      10391      10402      10401  
     10270      10271      10282      10281      10391      10392      10403      10402  
     10271      10272      10283      10282      10392      10393      10404      10403  
     10272      10273      10284      10283      10393      10394      10405      10404  
     10273      10274      10285      10284      10394      10395      10406      10405  
     10286      10287      10298      10297      10407      10408      10419      10418  
     10287      10288      10299      10298      10408      10409      10420      10419  
     10288      10289      10300      10299      10409      10410      10421      10420  
     10289      10290      10301      10300      10410      10411      10422      10421  
     10290      10291      10302      10301      10411      10412      10423      10422  
     10291      10292      10303      10302      10412      10413      10424      10423  
     10292      10293      10304      10303      10413      10414      10425      10424  
     10293      10294      10305      10304      10414      10415      10426      10425  
     10294      10295      10306      10305      10415      10416      10427      10426  
     10295      10296      10307      10306      10416      10417      10428      10427  
     10297      10298      10309      10308      10418      10419      10430      10429  
     10298      10299      10310      10309      10419      10420      10431      10430  
     10299      10300      10311      10310      10420      10421      10432      10431  
     10300      10301      10312      10311      10421      10422      10433      10432  
     10301      10302      10313      10312      10422      10423      10434      10433  
     10302      10303      10314      10313      10423      10424      10435      10434  
     10303      10304      10315      10314      10424      10425      10436      10435  
     10304      10305      10316      10315      10425      10426      10437      10436  
     10305      10306      10317      10316      10426      10427      10438      10437  
     10306      10307      10318      10317      10427      10428      10439      10438  
     10308      10309      10320      10319      10429      10430      10441      10440  
     10309      10310      10321      10320      10430      10431      10442      10441  
     10310      10311      10322      10321      10431      10432      10443      10442  
     10311      10312      10323      10322      10432      10433      10444      10443  
     10312      10313      10324      10323      10433      10434      10445      10444  
     10313      10314      10325      10324      10434      10435      10446      10445  
     10314      10315      10326      10325      10435      10436      10447      10446  
     10315      10316      10327      10326      10436      10437      10448      10447  
     10316      10317      10328      10327      10437      10438      10449      10448  
     10317      10318      10329      10328      10438      10439      10450      10449  
     10319      10320      10331      10330      10440      10441      10452      10451  
     10320      10321      10332      10331      10441      10442      10453      10452  
     10321      10322      10333      10332      10442      10443      10454      10453  
     10322      10323      10334      10333      10443      10444      10455      10454  
     10323      10324      10335      10334      10444      10445      10456      10455  
     10324      10325      10336      10335      10445      10446      10457      10456  
     10325      10326      10337      10336      10446      10447      10458      10457  
     10326      10327      10338      10337      10447      10448      10459      10458  
     10327      10328      10339      10338      10448      10449      10460      10459  
     10328      10329      10340      10339      10449      10450      10461      10460  
     10330      10331      10342      10341      10451      10452      10463      10462  
     10331      10332      10343      10342      10452      10453      10464      10463  
     10332      10333      10344      10343      10453      10454      10465      10464  
     10333      10334      10345      10344      10454      10455      10466      10465  
     10334      10335      10346      10345      10455      10456      10467      10466  
     10335      10336      10347      10346      10456      10457      10468      10467  
     10336      10337      10348      10347      10457      10458      10469      10468  
     10337      10338      10349      10348      10458      10459      10470      10469  
     10338      10339      10350      10349      10459      10460      10471      10470  
     10339      10340      10351      10350      10460      10461      10472      10471  
     10341      10342      10353      10352      10462      10463      10474      10473  
     10342      10343      10354      10353      10463      10464      10475      10474  
     10343      10344      10355      10354      10464      10465      10476      10475  
     10344      10345      10356      10355      10465      10466      10477      10476  
     10345      10346      10357      10356      10466      10467      10478      10477  
     10346      10347      10358      10357      10467      10468      10479      10478  
     10347      10348      10359      10358      10468      10469      10480      10479  
     10348      10349      10360      10359      10469      10470      10481      10480  
     10349      10350      10361      10360      10470      10471      10482      10481  
     10350      10351      10362      10361      10471      10472      10483      10482  
     10352      10353      10364      10363      10473      10474      10485      10484  
     10353      10354      10365      10364      10474      10475      10486      10485  
     10354      10355      10366      10365      10475      10476      10487      10486  
     10355      10356      10367      10366      10476      10477      10488      10487  
     10356      10357      10368      10367      10477      10478      10489      10488  
     10357      10358      10369      10368      10478      10479      10490      10489  
     10358      10359      10370      10369      10479      10480      10491      10490  
     10359      10360      10371      10370      10480      10481      10492      10491  
     10360      10361      10372      10371      10481      10482      10493      10492  
     10361      10362      10373      10372      10482      10483      10494      10493  
     10363      10364      10375      10374      10484      10485      10496      10495  
     10364      10365      10376      10375      10485      10486      10497      10496  
     10365      10366      10377      10376      10486      10487      10498      10497  
     10366      10367      10378      10377      10487      10488      10499      10498  
     10367      10368      10379      10378      10488      10489      10500      10499  
     10368      10369      10380      10379      10489      10490      10501      10500  
     10369      10370      10381      10380      10490      10491      10502      10501  
     10370      10371      10382      10381      10491      10492      10503      10502  
     10371      10372      10383      10382      10492      10493      10504      10503  
     10372      10373      10384      10383      10493      10494      10505      10504  
     10374      10375      10386      10385      10495      10496      10507      10506  
     10375      10376      10387      10386      10496      10497      10508      10507  
     10376      10377      10388      10387      10497      10498      10509      10508  
     10377      10378      10389      10388      10498      10499      10510      10509  
     10378      10379      10390      10389      10499      10500      10511      10510  
     10379      10380      10391      10390      10500      10501      10512      10511  
     10380      10381      10392      10391      10501      10502      10513      10512  
     10381      10382      10393      10392      10502      10503      10514      10513  
     10382      10383      10394      10393      10503      10504      10515      10514  
     10383      10384      10395      10394      10504      10505      10516      10515  
     10385      10386      10397      10396      10506      10507      10518      10517  
     10386      10387      10398      10397      10507      10508      10519      10518  
     10387      10388      10399      10398      10508      10509      10520      10519  
     10388      10389      10400      10399      10509      10510      10521      10520  
     10389      10390      10401      10400      10510      10511      10522      10521  
     10390      10391      10402      10401      10511      10512      10523      10522  
     10391      10392      10403      10402      10512      10513      10524      10523  
     10392      10393      10404      10403      10513      10514      10525      10524  
     10393      10394      10405      10404      10514      10515      10526      10525  
     10394      10395      10406      10405      10515      10516      10527      10526  
     10407      10408      10419      10418      10528      10529      10540      10539  
     10408      10409      10420      10419      10529      10530      10541      10540  
     10409      10410      10421      10420      10530      10531      10542      10541  
     10410      10411      10422      10421      10531      10532      10543      10542  
     10411      10412      10423      10422      10532      10533      10544      10543  
     10412      10413      10424      10423      10533      10534      10545      10544  
     10413      10414      10425      10424      10534      10535      10546      10545  
     10414      10415      10426      10425      10535      10536      10547      10546  
     10415      10416      10427      10426      10536      10537      10548      10547  
     10416      10417      10428      10427      10537      10538      10549      10548  
     10418      10419      10430      10429      10539      10540      10551      10550  
     10419      10420      10431      10430      10540      10541      10552      10551  
     10420      10421      10432      10431      10541      10542      10553      10552  
     10421      10422      10433      10432      10542      10543      10554      10553  
     10422      10423      10434      10433      10543      10544      10555      10554  
     10423      10424      10435      10434      10544      10545      10556      10555  
     10424      10425      10436      10435      10545      10546      10557      10556  
     10425      10426      10437      10436      10546      10547      10558      10557  
     10426      10427      10438      10437      10547      10548      10559      10558  
     10427      10428      10439      10438      10548      10549      10560      10559  
     10429      10430      10441      10440      10550      10551      10562      10561  
     10430      10431      10442      10441      10551      10552      10563      10562  
     10431      10432      10443      10442      10552      10553      10564      10563  
     10432      10433      10444      10443      10553      10554      10565      10564  
     10433      10434      10445      10444      10554      10555      10566      10565  
     10434      10435      10446      10445      10555      10556      10567      10566  
     10435      10436      10447      10446      10556      10557      10568      10567  
     10436      10437      10448      10447      10557      10558      10569      10568  
     10437      10438      10449      10448      10558      10559      10570      10569  
     10438      10439      10450      10449      10559      10560      10571      10570  
     10440      10441      10452      10451      10561      10562      10573      10572  
     10441      10442      10453      10452      10562      10563      10574      10573  
     10442      10443      10454      10453      10563      10564      10575      10574  
     10443      10444      10455      10454      10564      10565      10576      10575  
     10444      10445      10456      10455      10565      10566      10577      10576  
     10445      10446      10457      10456      10566      10567      10578      10577  
     10446      10447      10458      10457      10567      10568      10579      10578  
     10447      10448      10459      10458      10568      10569      10580      10579  
     10448      10449      10460      10459      10569      10570      10581      10580  
     10449      10450      10461      10460      10570      10571      10582      10581  
     10451      10452      10463      10462      10572      10573      10584      10583  
     10452      10453      10464      10463      10573      10574      10585      10584  
     10453      10454      10465      10464      10574      10575      10586      10585  
     10454      10455      10466      10465      10575      10576      10587      10586  
     10455      10456      10467      10466      10576      10577      10588      10587  
     10456      10457      10468      10467      10577      10578      10589      10588  
     10457      10458      10469      10468      10578      10579      10590      10589  
     10458      10459      10470      10469      10579      10580      10591      10590  
     10459      10460      10471      10470      10580      10581      10592      10591  
     10460      10461      10472      10471      10581      10582      10593      10592  
     10462      10463      10474      10473      10583      10584      10595      10594  
     10463      10464      10475      10474      10584      10585      10596      10595  
     10464      10465      10476      10475      10585      10586      10597      10596  
     10465      10466      10477      10476      10586      10587      10598      10597  
     10466      10467      10478      10477      10587      10588      10599      10598  
     10467      10468      10479      10478      10588      10589      10600      10599  
     10468      10469      10480      10479      10589      10590      10601      10600  
     10469      10470      10481      10480      10590      10591      10602      10601  
     10470      10471      10482      10481      10591      10592      10603      10602  
     10471      10472      10483      10482      10592      10593      10604      10603  
     10473      10474      10485      10484      10594      10595      10606      10605  
     10474      10475      10486      10485      10595      10596      10607      10606  
     10475      10476      10487      10486      10596      10597      10608      10607  
     10476      10477      10488      10487      10597      10598      10609      10608  
     10477      10478      10489      10488      10598      10599      10610      10609  
     10478      10479      10490      10489      10599      10600      10611      10610  
     10479      10480      10491      10490      10600      10601      10612      10611  
     10480      10481      10492      10491      10601      10602      10613      10612  
     10481      10482      10493      10492      10602      10603      10614      10613  
     10482      10483      10494      10493      10603      10604      10615      10614  
     10484      10485      10496      10495      10605      10606      10617      10616  
     10485      10486      10497      10496      10606      10607      10618      10617  
     10486      10487      10498      10497      10607      10608      10619      10618  
     10487      10488      10499      10498      10608      10609      10620      10619  
     10488      10489      10500      10499      10609      10610      10621      10620  
     10489      10490      10501      10500      10610      10611      10622      10621  
     10490      10491      10502      10501      10611      10612      10623      10622  
     10491      10492      10503      10502      10612      10613      10624      10623  
     10492      10493      10504      10503      10613      10614      10625      10624  
     10493      10494      10505      10504      10614      10615      10626      10625  
     10495      10496      10507      10506      10616      10617      10628      10627  
     10496      10497      10508      10507      10617      10618      10629      10628  
     10497      10498      10509      10508      10618      10619      10630      10629  
     10498      10499      10510      10509      10619      10620      10631      10630  
     10499      10500      10511      10510      10620      10621      10632      10631  
     10500      10501      10512      10511      10621      10622      10633      10632  
     10501      10502      10513      10512      10622      10623      10634      10633  
     10502      10503      10514      10513      10623      10624      10635      10634  
     10503      10504      10515      10514      10624      10625      10636      10635  
     10504      10505      10516      10515      10625      10626      10637      10636  
     10506      10507      10518      10517      10627      10628      10639      10638  
     10507      10508      10519      10518      10628      10629      10640      10639  
     10508      10509      10520      10519      10629      10630      10641      10640  
     10509      10510      10521      10520      10630      10631      10642      10641  
     10510      10511      10522      10521      10631      10632      10643      10642  
     10511      10512      10523      10522      10632      10633      10644      10643  
     10512      10513      10524      10523      10633      10634      10645      10644  
     10513      10514      10525      10524      10634      10635      10646      10645  
     10514      10515      10526      10525      10635      10636      10647      10646  
     10515      10516      10527      10526      10636      10637      10648      10647  
     10528      10529      10540      10539      10649      10650      10661      10660  
     10529      10530      10541      10540      10650      10651      10662      10661  
     10530      10531      10542      10541      10651      10652      10663      10662  
     10531      10532      10543      10542      10652      10653      10664      10663  
     10532      10533      10544      10543      10653      10654      10665      10664  
     10533      10534      10545      10544      10654      10655      10666      10665  
     10534      10535      10546      10545      10655      10656      10667      10666  
     10535      10536      10547      10546      10656      10657      10668      10667  
     10536      10537      10548      10547      10657      10658      10669      10668  
     10537      10538      10549      10548      10658      10659      10670      10669  
     10539      10540      10551      10550      10660      10661      10672      10671  
     10540      10541      10552      10551      10661      10662      10673      10672  
     10541      10542      10553      10552      10662      10663      10674      10673  
     10542      10543      10554      10553      10663      10664      10675      10674  
     10543      10544      10555      10554      10664      10665      10676      10675  
     10544      10545      10556      10555      10665      10666      10677      10676  
     10545      10546      10557      10556      10666      10667      10678      10677  
     10546      10547      10558      10557      10667      10668      10679      10678  
     10547      10548      10559      10558      10668      10669      10680      10679  
     10548      10549      10560      10559      10669      10670      10681      10680  
     10550      10551      10562      10561      10671      10672      10683      10682  
     10551      10552      10563      10562      10672      10673      10684      10683  
     10552      10553      10564      10563      10673      10674      10685      10684  
     10553      10554      10565      10564      10674      10675      10686      10685  
     10554      10555      10566      10565      10675      10676      10687      10686  
     10555      10556      10567      10566      10676      10677      10688      10687  
     10556      10557      10568      10567      10677      10678      10689      10688  
     10557      10558      10569      10568      10678      10679      10690      10689  
     10558      10559      10570      10569      10679      10680      10691      10690  
     10559      10560      10571      10570      10680      10681      10692      10691  
     10561      10562      10573      10572      10682      10683      10694      10693  
     10562      10563      10574      10573      10683      10684      10695      10694  
     10563      10564      10575      10574      10684      10685      10696      10695  
     10564      10565      10576      10575      10685      10686      10697      10696  
     10565      10566      10577      10576      10686      10687      10698      10697  
     10566      10567      10578      10577      10687      10688      10699      10698  
     10567      10568      10579      10578      10688      10689      10700      10699  
     10568      10569      10580      10579      10689      10690      10701      10700  
     10569      10570      10581      10580      10690      10691      10702      10701  
     10570      10571      10582      10581      10691      10692      10703      10702  
     10572      10573      10584      10583      10693      10694      10705      10704  
     10573      10574      10585      10584      10694      10695      10706      10705  
     10574      10575      10586      10585      10695      10696      10707      10706  
     10575      10576      10587      10586      10696      10697      10708      10707  
     10576      10577      10588      10587      10697      10698      10709      10708  
     10577      10578      10589      10588      10698      10699      10710      10709  
     10578      10579      10590      10589      10699      10700      10711      10710  
     10579      10580      10591      10590      10700      10701      10712      10711  
     10580      10581      10592      10591      10701      10702      10713      10712  
     10581      10582      10593      10592      10702      10703      10714      10713  
     10583      10584      10595      10594      10704      10705      10716      10715  
     10584      10585      10596      10595      10705      10706      10717      10716  
     10585      10586      10597      10596      10706      10707      10718      10717  
     10586      10587      10598      10597      10707      10708      10719      10718  
     10587      10588      10599      10598      10708      10709      10720      10719  
     10588      10589      10600      10599      10709      10710      10721      10720  
     10589      10590      10601      10600      10710      10711      10722      10721  
     10590      10591      10602      10601      10711      10712      10723      10722  
     10591      10592      10603      10602      10712      10713      10724      10723  
     10592      10593      10604      10603      10713      10714      10725      10724  
     10594      10595      10606      10605      10715      10716      10727      10726  
     10595      10596      10607      10606      10716      10717      10728      10727  
     10596      10597      10608      10607      10717      10718      10729      10728  
     10597      10598      10609      10608      10718      10719      10730      10729  
     10598      10599      10610      10609      10719      10720      10731      10730  
     10599      10600      10611      10610      10720      10721      10732      10731  
     10600      10601      10612      10611      10721      10722      10733      10732  
     10601      10602      10613      10612      10722      10723      10734      10733  
     10602      10603      10614      10613      10723      10724      10735      10734  
     10603      10604      10615      10614      10724      10725      10736      10735  
     10605      10606      10617      10616      10726      10727      10738      10737  
     10606      10607      10618      10617      10727      10728      10739      10738  
     10607      10608      10619      10618      10728      10729      10740      10739  
     10608      10609      10620      10619      10729      10730      10741      10740  
     10609      10610      10621      10620      10730      10731      10742      10741  
     10610      10611      10622      10621      10731      10732      10743      10742  
     10611      10612      10623      10622      10732      10733      10744      10743  
     10612      10613      10624      10623      10733      10734      10745      10744  
     10613      10614      10625      10624      10734      10735      10746      10745  
     10614      10615      10626      10625      10735      10736      10747      10746  
     10616      10617      10628      10627      10737      10738      10749      10748  
     10617      10618      10629      10628      10738      10739      10750      10749  
     10618      10619      10630      10629      10739      10740      10751      10750  
     10619      10620      10631      10630      10740      10741      10752      10751  
     10620      10621      10632      10631      10741      10742      10753      10752  
     10621      10622      10633      10632      10742      10743      10754      10753  
     10622      10623      10634      10633      10743      10744      10755      10754  
     10623      10624      10635      10634      10744      10745      10756      10755  
     10624      10625      10636      10635      10745      10746      10757      10756  
     10625      10626      10637      10636      10746      10747      10758      10757  
     10627      10628      10639      10638      10748      10749      10760      10759  
     10628      10629      10640      10639      10749      10750      10761      10760  
     10629      10630      10641      10640      10750      10751      10762      10761  
     10630      10631      10642      10641      10751      10752      10763      10762  
     10631      10632      10643      10642      10752      10753      10764      10763  
     10632      10633      10644      10643      10753      10754      10765      10764  
     10633      10634      10645      10644      10754      10755      10766      10765  
     10634      10635      10646      10645      10755      10756      10767      10766  
     10635      10636      10647      10646      10756      10757      10768      10767  
     10636      10637      10648      10647      10757      10758      10769      10768  
     10649      10650      10661      10660      10770      10771      10782      10781  
     10650      10651      10662      10661      10771      10772      10783      10782  
     10651      10652      10663      10662      10772      10773      10784      10783  
     10652      10653      10664      10663      10773      10774      10785      10784  
     10653      10654      10665      10664      10774      10775      10786      10785  
     10654      10655      10666      10665      10775      10776      10787      10786  
     10655      10656      10667      10666      10776      10777      10788      10787  
     10656      10657      10668      10667      10777      10778      10789      10788  
     10657      10658      10669      10668      10778      10779      10790      10789  
     10658      10659      10670      10669      10779      10780      10791      10790  
     10660      10661      10672      10671      10781      10782      10793      10792  
     10661      10662      10673      10672      10782      10783      10794      10793  
     10662      10663      10674      10673      10783      10784      10795      10794  
     10663      10664      10675      10674      10784      10785      10796      10795  
     10664      10665      10676      10675      10785      10786      10797      10796  
     10665      10666      10677      10676      10786      10787      10798      10797  
     10666      10667      10678      10677      10787      10788      10799      10798  
     10667      10668      10679      10678      10788      10789      10800      10799  
     10668      10669      10680      10679      10789      10790      10801      10800  
     10669      10670      10681      10680      10790      10791      10802      10801  
     10671      10672      10683      10682      10792      10793      10804      10803  
     10672      10673      10684      10683      10793      10794      10805      10804  
     10673      10674      10685      10684      10794      10795      10806      10805  
     10674      10675      10686      10685      10795      10796      10807      10806  
     10675      10676      10687      10686      10796      10797      10808      10807  
     10676      10677      10688      10687      10797      10798      10809      10808  
     10677      10678      10689      10688      10798      10799      10810      10809  
     10678      10679      10690      10689      10799      10800      10811      10810  
     10679      10680      10691      10690      10800      10801      10812      10811  
     10680      10681      10692      10691      10801      10802      10813      10812  
     10682      10683      10694      10693      10803      10804      10815      10814  
     10683      10684      10695      10694      10804      10805      10816      10815  
     10684      10685      10696      10695      10805      10806      10817      10816  
     10685      10686      10697      10696      10806      10807      10818      10817  
     10686      10687      10698      10697      10807      10808      10819      10818  
     10687      10688      10699      10698      10808      10809      10820      10819  
     10688      10689      10700      10699      10809      10810      10821      10820  
     10689      10690      10701      10700      10810      10811      10822      10821  
     10690      10691      10702      10701      10811      10812      10823      10822  
     10691      10692      10703      10702      10812      10813      10824      10823  
     10693      10694      10705      10704      10814      10815      10826      10825  
     10694      10695      10706      10705      10815      10816      10827      10826  
     10695      10696      10707      10706      10816      10817      10828      10827  
     10696      10697      10708      10707      10817      10818      10829      10828  
     10697      10698      10709      10708      10818      10819      10830      10829  
     10698      10699      10710      10709      10819      10820      10831      10830  
     10699      10700      10711      10710      10820      10821      10832      10831  
     10700      10701      10712      10711      10821      10822      10833      10832  
     10701      10702      10713      10712      10822      10823      10834      10833  
     10702      10703      10714      10713      10823      10824      10835      10834  
     10704      10705      10716      10715      10825      10826      10837      10836  
     10705      10706      10717      10716      10826      10827      10838      10837  
     10706      10707      10718      10717      10827      10828      10839      10838  
     10707      10708      10719      10718      10828      10829      10840      10839  
     10708      10709      10720      10719      10829      10830      10841      10840  
     10709      10710      10721      10720      10830      10831      10842      10841  
     10710      10711      10722      10721      10831      10832      10843      10842  
     10711      10712      10723      10722      10832      10833      10844      10843  
     10712      10713      10724      10723      10833      10834      10845      10844  
     10713      10714      10725      10724      10834      10835      10846      10845  
     10715      10716      10727      10726      10836      10837      10848      10847  
     10716      10717      10728      10727      10837      10838      10849      10848  
     10717      10718      10729      10728      10838      10839      10850      10849  
     10718      10719      10730      10729      10839      10840      10851      10850  
     10719      10720      10731      10730      10840      10841      10852      10851  
     10720      10721      10732      10731      10841      10842      10853      10852  
     10721      10722      10733      10732      10842      10843      10854      10853  
     10722      10723      10734      10733      10843      10844      10855      10854  
     10723      10724      10735      10734      10844      10845      10856      10855  
     10724      10725      10736      10735      10845      10846      10857      10856  
     10726      10727      10738      10737      10847      10848      10859      10858  
     10727      10728      10739      10738      10848      10849      10860      10859  
     10728      10729      10740      10739      10849      10850      10861      10860  
     10729      10730      10741      10740      10850      10851      10862      10861  
     10730      10731      10742      10741      10851      10852      10863      10862  
     10731      10732      10743      10742      10852      10853      10864      10863  
     10732      10733      10744      10743      10853      10854      10865      10864  
     10733      10734      10745      10744      10854      10855      10866      10865  
     10734      10735      10746      10745      10855      10856      10867      10866  
     10735      10736      10747      10746      10856      10857      10868      10867  
     10737      10738      10749      10748      10858      10859      10870      10869  
     10738      10739      10750      10749      10859      10860      10871      10870  
     10739      10740      10751      10750      10860      10861      10872      10871  
     10740      10741      10752      10751      10861      10862      10873      10872  
     10741      10742      10753      10752      10862      10863      10874      10873  
     10742      10743      10754      10753      10863      10864      10875      10874  
     10743      10744      10755      10754      10864      10865      10876      10875  
     10744      10745      10756      10755      10865      10866      10877      10876  
     10745      10746      10757      10756      10866      10867      10878      10877  
     10746      10747      10758      10757      10867      10868      10879      10878  
     10748      10749      10760      10759      10869      10870      10881      10880  
     10749      10750      10761      10760      10870      10871      10882      10881  
     10750      10751      10762      10761      10871      10872      10883      10882  
     10751      10752      10763      10762      10872      10873      10884      10883  
     10752      10753      10764      10763      10873      10874      10885      10884  
     10753      10754      10765      10764      10874      10875      10886      10885  
     10754      10755      10766      10765      10875      10876      10887      10886  
     10755      10756      10767      10766      10876      10877      10888      10887  
     10756      10757      10768      10767      10877      10878      10889      10888  
     10757      10758      10769      10768      10878      10879      10890      10889  
     10770      10771      10782      10781      10891      10892      10903      10902  
     10771      10772      10783      10782      10892      10893      10904      10903  
     10772      10773      10784      10783      10893      10894      10905      10904  
     10773      10774      10785      10784      10894      10895      10906      10905  
     10774      10775      10786      10785      10895      10896      10907      10906  
     10775      10776      10787      10786      10896      10897      10908      10907  
     10776      10777      10788      10787      10897      10898      10909      10908  
     10777      10778      10789      10788      10898      10899      10910      10909  
     10778      10779      10790      10789      10899      10900      10911      10910  
     10779      10780      10791      10790      10900      10901      10912      10911  
     10781      10782      10793      10792      10902      10903      10914      10913  
     10782      10783      10794      10793      10903      10904      10915      10914  
     10783      10784      10795      10794      10904      10905      10916      10915  
     10784      10785      10796      10795      10905      10906      10917      10916  
     10785      10786      10797      10796      10906      10907      10918      10917  
     10786      10787      10798      10797      10907      10908      10919      10918  
     10787      10788      10799      10798      10908      10909      10920      10919  
     10788      10789      10800      10799      10909      10910      10921      10920  
     10789      10790      10801      10800      10910      10911      10922      10921  
     10790      10791      10802      10801      10911      10912      10923      10922  
     10792      10793      10804      10803      10913      10914      10925      10924  
     10793      10794      10805      10804      10914      10915      10926      10925  
     10794      10795      10806      10805      10915      10916      10927      10926  
     10795      10796      10807      10806      10916      10917      10928      10927  
     10796      10797      10808      10807      10917      10918      10929      10928  
     10797      10798      10809      10808      10918      10919      10930      10929  
     10798      10799      10810      10809      10919      10920      10931      10930  
     10799      10800      10811      10810      10920      10921      10932      10931  
     10800      10801      10812      10811      10921      10922      10933      10932  
     10801      10802      10813      10812      10922      10923      10934      10933  
     10803      10804      10815      10814      10924      10925      10936      10935  
     10804      10805      10816      10815      10925      10926      10937      10936  
     10805      10806      10817      10816      10926      10927      10938      10937  
     10806      10807      10818      10817      10927      10928      10939      10938  
     10807      10808      10819      10818      10928      10929      10940      10939  
     10808      10809      10820      10819      10929      10930      10941      10940  
     10809      10810      10821      10820      10930      10931      10942      10941  
     10810      10811      10822      10821      10931      10932      10943      10942  
     10811      10812      10823      10822      10932      10933      10944      10943  
     10812      10813      10824      10823      10933      10934      10945      10944  
     10814      10815      10826      10825      10935      10936      10947      10946  
     10815      10816      10827      10826      10936      10937      10948      10947  
     10816      10817      10828      10827      10937      10938      10949      10948  
     10817      10818      10829      10828      10938      10939      10950      10949  
     10818      10819      10830      10829      10939      10940      10951      10950  
     10819      10820      10831      10830      10940      10941      10952      10951  
     10820      10821      10832      10831      10941      10942      10953      10952  
     10821      10822      10833      10832      10942      10943      10954      10953  
     10822      10823      10834      10833      10943      10944      10955      10954  
     10823      10824      10835      10834      10944      10945      10956      10955  
     10825      10826      10837      10836      10946      10947      10958      10957  
     10826      10827      10838      10837      10947      10948      10959      10958  
     10827      10828      10839      10838      10948      10949      10960      10959  
     10828      10829      10840      10839      10949      10950      10961      10960  
     10829      10830      10841      10840      10950      10951      10962      10961  
     10830      10831      10842      10841      10951      10952      10963      10962  
     10831      10832      10843      10842      10952      10953      10964      10963  
     10832      10833      10844      10843      10953      10954      10965      10964  
     10833      10834      10845      10844      10954      10955      10966      10965  
     10834      10835      10846      10845      10955      10956      10967      10966  
     10836      10837      10848      10847      10957      10958      10969      10968  
     10837      10838      10849      10848      10958      10959      10970      10969  
     10838      10839      10850      10849      10959      10960      10971      10970  
     10839      10840      10851      10850      10960      10961      10972      10971  
     10840      10841      10852      10851      10961      10962      10973      10972  
     10841      10842      10853      10852      10962      10963      10974      10973  
     10842      10843      10854      10853      10963      10964      10975      10974  
     10843      10844      10855      10854      10964      10965      10976      10975  
     10844      10845      10856      10855      10965      10966      10977      10976  
     10845      10846      10857      10856      10966      10967      10978      10977  
     10847      10848      10859      10858      10968      10969      10980      10979  
     10848      10849      10860      10859      10969      10970      10981      10980  
     10849      10850      10861      10860      10970      10971      10982      10981  
     10850      10851      10862      10861      10971      10972      10983      10982  
     10851      10852      10863      10862      10972      10973      10984      10983  
     10852      10853      10864      10863      10973      10974      10985      10984  
     10853      10854      10865      10864      10974      10975      10986      10985  
     10854      10855      10866      10865      10975      10976      10987      10986  
     10855      10856      10867      10866      10976      10977      10988      10987  
     10856      10857      10868      10867      10977      10978      10989      10988  
     10858      10859      10870      10869      10979      10980      10991      10990  
     10859      10860      10871      10870      10980      10981      10992      10991  
     10860      10861      10872      10871      10981      10982      10993      10992  
     10861      10862      10873      10872      10982      10983      10994      10993  
     10862      10863      10874      10873      10983      10984      10995      10994  
     10863      10864      10875      10874      10984      10985      10996      10995  
     10864      10865      10876      10875      10985      10986      10997      10996  
     10865      10866      10877      10876      10986      10987      10998      10997  
     10866      10867      10878      10877      10987      10988      10999      10998  
     10867      10868      10879      10878      10988      10989      11000      10999  
     10869      10870      10881      10880      10990      10991      11002      11001  
     10870      10871      10882      10881      10991      10992      11003      11002  
     10871      10872      10883      10882      10992      10993      11004      11003  
     10872      10873      10884      10883      10993      10994      11005      11004  
     10873      10874      10885      10884      10994      10995      11006      11005  
     10874      10875      10886      10885      10995      10996      11007      11006  
     10875      10876      10887      10886      10996      10997      11008      11007  
     10876      10877      10888      10887      10997      10998      11009      11008  
     10877      10878      10889      10888      10998      10999      11010      11009  
     10878      10879      10890      10889      10999      11000      11011      11010  
     10891      10892      10903      10902      11012      11013      11024      11023  
     10892      10893      10904      10903      11013      11014      11025      11024  
     10893      10894      10905      10904      11014      11015      11026      11025  
     10894      10895      10906      10905      11015      11016      11027      11026  
     10895      10896      10907      10906      11016      11017      11028      11027  
     10896      10897      10908      10907      11017      11018      11029      11028  
     10897      10898      10909      10908      11018      11019      11030      11029  
     10898      10899      10910      10909      11019      11020      11031      11030  
     10899      10900      10911      10910      11020      11021      11032      11031  
     10900      10901      10912      10911      11021      11022      11033      11032  
     10902      10903      10914      10913      11023      11024      11035      11034  
     10903      10904      10915      10914      11024      11025      11036      11035  
     10904      10905      10916      10915      11025      11026      11037      11036  
     10905      10906      10917      10916      11026      11027      11038      11037  
     10906      10907      10918      10917      11027      11028      11039      11038  
     10907      10908      10919      10918      11028      11029      11040      11039  
     10908      10909      10920      10919      11029      11030      11041      11040  
     10909      10910      10921      10920      11030      11031      11042      11041  
     10910      10911      10922      10921      11031      11032      11043      11042  
     10911      10912      10923      10922      11032      11033      11044      11043  
     10913      10914      10925      10924      11034      11035      11046      11045  
     10914      10915      10926      10925      11035      11036      11047      11046  
     10915      10916      10927      10926      11036      11037      11048      11047  
     10916      10917      10928      10927      11037      11038      11049      11048  
     10917      10918      10929      10928      11038      11039      11050      11049  
     10918      10919      10930      10929      11039      11040      11051      11050  
     10919      10920      10931      10930      11040      11041      11052      11051  
     10920      10921      10932      10931      11041      11042      11053      11052  
     10921      10922      10933      10932      11042      11043      11054      11053  
     10922      10923      10934      10933      11043      11044      11055      11054  
     10924      10925      10936      10935      11045      11046      11057      11056  
     10925      10926      10937      10936      11046      11047      11058      11057  
     10926      10927      10938      10937      11047      11048      11059      11058  
     10927      10928      10939      10938      11048      11049      11060      11059  
     10928      10929      10940      10939      11049      11050      11061      11060  
     10929      10930      10941      10940      11050      11051      11062      11061  
     10930      10931      10942      10941      11051      11052      11063      11062  
     10931      10932      10943      10942      11052      11053      11064      11063  
     10932      10933      10944      10943      11053      11054      11065      11064  
     10933      10934      10945      10944      11054      11055      11066      11065  
     10935      10936      10947      10946      11056      11057      11068      11067  
     10936      10937      10948      10947      11057      11058      11069      11068  
     10937      10938      10949      10948      11058      11059      11070      11069  
     10938      10939      10950      10949      11059      11060      11071      11070  
     10939      10940      10951      10950      11060      11061      11072      11071  
     10940      10941      10952      10951      11061      11062      11073      11072  
     10941      10942      10953      10952      11062      11063      11074      11073  
     10942      10943      10954      10953      11063      11064      11075      11074  
     10943      10944      10955      10954      11064      11065      11076      11075  
     10944      10945      10956      10955      11065      11066      11077      11076  
     10946      10947      10958      10957      11067      11068      11079      11078  
     10947      10948      10959      10958      11068      11069      11080      11079  
     10948      10949      10960      10959      11069      11070      11081      11080  
     10949      10950      10961      10960      11070      11071      11082      11081  
     10950      10951      10962      10961      11071      11072      11083      11082  
     10951      10952      10963      10962      11072      11073      11084      11083  
     10952      10953      10964      10963      11073      11074      11085      11084  
     10953      10954      10965      10964      11074      11075      11086      11085  
     10954      10955      10966      10965      11075      11076      11087      11086  
     10955      10956      10967      10966      11076      11077      11088      11087  
     10957      10958      10969      10968      11078      11079      11090      11089  
     10958      10959      10970      10969      11079      11080      11091      11090  
     10959      10960      10971      10970      11080      11081      11092      11091  
     10960      10961      10972      10971      11081      11082      11093      11092  
     10961      10962      10973      10972      11082      11083      11094      11093  
     10962      10963      10974      10973      11083      11084      11095      11094  
     10963      10964      10975      10974      11084      11085      11096      11095  
     10964      10965      10976      10975      11085      11086      11097      11096  
     10965      10966      10977      10976      11086      11087      11098      11097  
     10966      10967      10978      10977      11087      11088      11099      11098  
     10968      10969      10980      10979      11089      11090      11101      11100  
     10969      10970      10981      10980      11090      11091      11102      11101  
     10970      10971      10982      10981      11091      11092      11103      11102  
     10971      10972      10983      10982      11092      11093      11104      11103  
     10972      10973      10984      10983      11093      11094      11105      11104  
     10973      10974      10985      10984      11094      11095      11106      11105  
     10974      10975      10986      10985      11095      11096      11107      11106  
     10975      10976      10987      10986      11096      11097      11108      11107  
     10976      10977      10988      10987      11097      11098      11109      11108  
     10977      10978      10989      10988      11098      11099      11110      11109  
     10979      10980      10991      10990      11100      11101      11112      11111  
     10980      10981      10992      10991      11101      11102      11113      11112  
     10981      10982      10993      10992      11102      11103      11114      11113  
     10982      10983      10994      10993      11103      11104      11115      11114  
     10983      10984      10995      10994      11104      11105      11116      11115  
     10984      10985      10996      10995      11105      11106      11117      11116  
     10985      10986      10997      10996      11106      11107      11118      11117  
     10986      10987      10998      10997      11107      11108      11119      11118  
     10987      10988      10999      10998      11108      11109      11120      11119  
     10988      10989      11000      10999      11109      11110      11121      11120  
     10990      10991      11002      11001      11111      11112      11123      11122  
     10991      10992      11003      11002      11112      11113      11124      11123  
     10992      10993      11004      11003      11113      11114      11125      11124  
     10993      10994      11005      11004      11114      11115      11126      11125  
     10994      10995      11006      11005      11115      11116      11127      11126  
     10995      10996      11007      11006      11116      11117      11128      11127  
     10996      10997      11008      11007      11117      11118      11129      11128  
     10997      10998      11009      11008      11118      11119      11130      11129  
     10998      10999      11010      11009      11119      11120      11131      11130  
     10999      11000      11011      11010      11120      11121      11132      11131  
     11012      11013      11024      11023      11133      11134      11145      11144  
     11013      11014      11025      11024      11134      11135      11146      11145  
     11014      11015      11026      11025      11135      11136      11147      11146  
     11015      11016      11027      11026      11136      11137      11148      11147  
     11016      11017      11028      11027      11137      11138      11149      11148  
     11017      11018      11029      11028      11138      11139      11150      11149  
     11018      11019      11030      11029      11139      11140      11151      11150  
     11019      11020      11031      11030      11140      11141      11152      11151  
     11020      11021      11032      11031      11141      11142      11153      11152  
     11021      11022      11033      11032      11142      11143      11154      11153  
     11023      11024      11035      11034      11144      11145      11156      11155  
     11024      11025      11036      11035      11145      11146      11157      11156  
     11025      11026      11037      11036      11146      11147      11158      11157  
     11026      11027      11038      11037      11147      11148      11159      11158  
     11027      11028      11039      11038      11148      11149      11160      11159  
     11028      11029      11040      11039      11149      11150      11161      11160  
     11029      11030      11041      11040      11150      11151      11162      11161  
     11030      11031      11042      11041      11151      11152      11163      11162  
     11031      11032      11043      11042      11152      11153      11164      11163  
     11032      11033      11044      11043      11153      11154      11165      11164  
     11034      11035      11046      11045      11155      11156      11167      11166  
     11035      11036      11047      11046      11156      11157      11168      11167  
     11036      11037      11048      11047      11157      11158      11169      11168  
     11037      11038      11049      11048      11158      11159      11170      11169  
     11038      11039      11050      11049      11159      11160      11171      11170  
     11039      11040      11051      11050      11160      11161      11172      11171  
     11040      11041      11052      11051      11161      11162      11173      11172  
     11041      11042      11053      11052      11162      11163      11174      11173  
     11042      11043      11054      11053      11163      11164      11175      11174  
     11043      11044      11055      11054      11164      11165      11176      11175  
     11045      11046      11057      11056      11166      11167      11178      11177  
     11046      11047      11058      11057      11167      11168      11179      11178  
     11047      11048      11059      11058      11168      11169      11180      11179  
     11048      11049      11060      11059      11169      11170      11181      11180  
     11049      11050      11061      11060      11170      11171      11182      11181  
     11050      11051      11062      11061      11171      11172      11183      11182  
     11051      11052      11063      11062      11172      11173      11184      11183  
     11052      11053      11064      11063      11173      11174      11185      11184  
     11053      11054      11065      11064      11174      11175      11186      11185  
     11054      11055      11066      11065      11175      11176      11187      11186  
     11056      11057      11068      11067      11177      11178      11189      11188  
     11057      11058      11069      11068      11178      11179      11190      11189  
     11058      11059      11070      11069      11179      11180      11191      11190  
     11059      11060      11071      11070      11180      11181      11192      11191  
     11060      11061      11072      11071      11181      11182      11193      11192  
     11061      11062      11073      11072      11182      11183      11194      11193  
     11062      11063      11074      11073      11183      11184      11195      11194  
     11063      11064      11075      11074      11184      11185      11196      11195  
     11064      11065      11076      11075      11185      11186      11197      11196  
     11065      11066      11077      11076      11186      11187      11198      11197  
     11067      11068      11079      11078      11188      11189      11200      11199  
     11068      11069      11080      11079      11189      11190      11201      11200  
     11069      11070      11081      11080      11190      11191      11202      11201  
     11070      11071      11082      11081      11191      11192      11203      11202  
     11071      11072      11083      11082      11192      11193      11204      11203  
     11072      11073      11084      11083      11193      11194      11205      11204  
     11073      11074      11085      11084      11194      11195      11206      11205  
     11074      11075      11086      11085      11195      11196      11207      11206  
     11075      11076      11087      11086      11196      11197      11208      11207  
     11076      11077      11088      11087      11197      11198      11209      11208  
     11078      11079      11090      11089      11199      11200      11211      11210  
     11079      11080      11091      11090      11200      11201      11212      11211  
     11080      11081      11092      11091      11201      11202      11213      11212  
     11081      11082      11093      11092      11202      11203      11214      11213  
     11082      11083      11094      11093      11203      11204      11215      11214  
     11083      11084      11095      11094      11204      11205      11216      11215  
     11084      11085      11096      11095      11205      11206      11217      11216  
     11085      11086      11097      11096      11206      11207      11218      11217  
     11086      11087      11098      11097      11207      11208      11219      11218  
     11087      11088      11099      11098      11208      11209      11220      11219  
     11089      11090      11101      11100      11210      11211      11222      11221  
     11090      11091      11102      11101      11211      11212      11223      11222  
     11091      11092      11103      11102      11212      11213      11224      11223  
     11092      11093      11104      11103      11213      11214      11225      11224  
     11093      11094      11105      11104      11214      11215      11226      11225  
     11094      11095      11106      11105      11215      11216      11227      11226  
     11095      11096      11107      11106      11216      11217      11228      11227  
     11096      11097      11108      11107      11217      11218      11229      11228  
     11097      11098      11109      11108      11218      11219      11230      11229  
     11098      11099      11110      11109      11219      11220      11231      11230  
     11100      11101      11112      11111      11221      11222      11233      11232  
     11101      11102      11113      11112      11222      11223      11234      11233  
     11102      11103      11114      11113      11223      11224      11235      11234  
     11103      11104      11115      11114      11224      11225      11236      11235  
     11104      11105      11116      11115      11225      11226      11237      11236  
     11105      11106      11117      11116      11226      11227      11238      11237  
     11106      11107      11118      11117      11227      11228      11239      11238  
     11107      11108      11119      11118      11228      11229      11240      11239  
     11108      11109      11120      11119      11229      11230      11241      11240  
     11109      11110      11121      11120      11230      11231      11242      11241  
     11111      11112      11123      11122      11232      11233      11244      11243  
     11112      11113      11124      11123      11233      11234      11245      11244  
     11113      11114      11125      11124      11234      11235      11246      11245  
     11114      11115      11126      11125      11235      11236      11247      11246  
     11115      11116      11127      11126      11236      11237      11248      11247  
     11116      11117      11128      11127      11237      11238      11249      11248  
     11117      11118      11129      11128      11238      11239      11250      11249  
     11118      11119      11130      11129      11239      11240      11251      11250  
     11119      11120      11131      11130      11240      11241      11252      11251  
     11120      11121      11132      11131      11241      11242      11253      11252  
     11133      11134      11145      11144      11254      11255      11266      11265  
     11134      11135      11146      11145      11255      11256      11267      11266  
     11135      11136      11147      11146      11256      11257      11268      11267  
     11136      11137      11148      11147      11257      11258      11269      11268  
     11137      11138      11149      11148      11258      11259      11270      11269  
     11138      11139      11150      11149      11259      11260      11271      11270  
     11139      11140      11151      11150      11260      11261      11272      11271  
     11140      11141      11152      11151      11261      11262      11273      11272  
     11141      11142      11153      11152      11262      11263      11274      11273  
     11142      11143      11154      11153      11263      11264      11275      11274  
     11144      11145      11156      11155      11265      11266      11277      11276  
     11145      11146      11157      11156      11266      11267      11278      11277  
     11146      11147      11158      11157      11267      11268      11279      11278  
     11147      11148      11159      11158      11268      11269      11280      11279  
     11148      11149      11160      11159      11269      11270      11281      11280  
     11149      11150      11161      11160      11270      11271      11282      11281  
     11150      11151      11162      11161      11271      11272      11283      11282  
     11151      11152      11163      11162      11272      11273      11284      11283  
     11152      11153      11164      11163      11273      11274      11285      11284  
     11153      11154      11165      11164      11274      11275      11286      11285  
     11155      11156      11167      11166      11276      11277      11288      11287  
     11156      11157      11168      11167      11277      11278      11289      11288  
     11157      11158      11169      11168      11278      11279      11290      11289  
     11158      11159      11170      11169      11279      11280      11291      11290  
     11159      11160      11171      11170      11280      11281      11292      11291  
     11160      11161      11172      11171      11281      11282      11293      11292  
     11161      11162      11173      11172      11282      11283      11294      11293  
     11162      11163      11174      11173      11283      11284      11295      11294  
     11163      11164      11175      11174      11284      11285      11296      11295  
     11164      11165      11176      11175      11285      11286      11297      11296  
     11166      11167      11178      11177      11287      11288      11299      11298  
     11167      11168      11179      11178      11288      11289      11300      11299  
     11168      11169      11180      11179      11289      11290      11301      11300  
     11169      11170      11181      11180      11290      11291      11302      11301  
     11170      11171      11182      11181      11291      11292      11303      11302  
     11171      11172      11183      11182      11292      11293      11304      11303  
     11172      11173      11184      11183      11293      11294      11305      11304  
     11173      11174      11185      11184      11294      11295      11306      11305  
     11174      11175      11186      11185      11295      11296      11307      11306  
     11175      11176      11187      11186      11296      11297      11308      11307  
     11177      11178      11189      11188      11298      11299      11310      11309  
     11178      11179      11190      11189      11299      11300      11311      11310  
     11179      11180      11191      11190      11300      11301      11312      11311  
     11180      11181      11192      11191      11301      11302      11313      11312  
     11181      11182      11193      11192      11302      11303      11314      11313  
     11182      11183      11194      11193      11303      11304      11315      11314  
     11183      11184      11195      11194      11304      11305      11316      11315  
     11184      11185      11196      11195      11305      11306      11317      11316  
     11185      11186      11197      11196      11306      11307      11318      11317  
     11186      11187      11198      11197      11307      11308      11319      11318  
     11188      11189      11200      11199      11309      11310      11321      11320  
     11189      11190      11201      11200      11310      11311      11322      11321  
     11190      11191      11202      11201      11311      11312      11323      11322  
     11191      11192      11203      11202      11312      11313      11324      11323  
     11192      11193      11204      11203      11313      11314      11325      11324  
     11193      11194      11205      11204      11314      11315      11326      11325  
     11194      11195      11206      11205      11315      11316      11327      11326  
     11195      11196      11207      11206      11316      11317      11328      11327  
     11196      11197      11208      11207      11317      11318      11329      11328  
     11197      11198      11209      11208      11318      11319      11330      11329  
     11199      11200      11211      11210      11320      11321      11332      11331  
     11200      11201      11212      11211      11321      11322      11333      11332  
     11201      11202      11213      11212      11322      11323      11334      11333  
     11202      11203      11214      11213      11323      11324      11335      11334  
     11203      11204      11215      11214      11324      11325      11336      11335  
     11204      11205      11216      11215      11325      11326      11337      11336  
     11205      11206      11217      11216      11326      11327      11338      11337  
     11206      11207      11218      11217      11327      11328      11339      11338  
     11207      11208      11219      11218      11328      11329      11340      11339  
     11208      11209      11220      11219      11329      11330      11341      11340  
     11210      11211      11222      11221      11331      11332      11343      11342  
     11211      11212      11223      11222      11332      11333      11344      11343  
     11212      11213      11224      11223      11333      11334      11345      11344  
     11213      11214      11225      11224      11334      11335      11346      11345  
     11214      11215      11226      11225      11335      11336      11347      11346  
     11215      11216      11227      11226      11336      11337      11348      11347  
     11216      11217      11228      11227      11337      11338      11349      11348  
     11217      11218      11229      11228      11338      11339      11350      11349  
     11218      11219      11230      11229      11339      11340      11351      11350  
     11219      11220      11231      11230      11340      11341      11352      11351  
     11221      11222      11233      11232      11342      11343      11354      11353  
     11222      11223      11234      11233      11343      11344      11355      11354  
     11223      11224      11235      11234      11344      11345      11356      11355  
     11224      11225      11236      11235      11345      11346      11357      11356  
     11225      11226      11237      11236      11346      11347      11358      11357  
     11226      11227      11238      11237      11347      11348      11359      11358  
     11227      11228      11239      11238      11348      11349      11360      11359  
     11228      11229      11240      11239      11349      11350      11361      11360  
     11229      11230      11241      11240      11350      11351      11362      11361  
     11230      11231      11242      11241      11351      11352      11363      11362  
     11232      11233      11244      11243      11353      11354      11365      11364  
     11233      11234      11245      11244      11354      11355      11366      11365  
     11234      11235      11246      11245      11355      11356      11367      11366  
     11235      11236      11247      11246      11356      11357      11368      11367  
     11236      11237      11248      11247      11357      11358      11369      11368  
     11237      11238      11249      11248      11358      11359      11370      11369  
     11238      11239      11250      11249      11359      11360      11371      11370  
     11239      11240      11251      11250      11360      11361      11372      11371  
     11240      11241      11252      11251      11361      11362      11373      11372  
     11241      11242      11253      11252      11362      11363      11374      11373  
     11254      11255      11266      11265      11375      11376      11387      11386  
     11255      11256      11267      11266      11376      11377      11388      11387  
     11256      11257      11268      11267      11377      11378      11389      11388  
     11257      11258      11269      11268      11378      11379      11390      11389  
     11258      11259      11270      11269      11379      11380      11391      11390  
     11259      11260      11271      11270      11380      11381      11392      11391  
     11260      11261      11272      11271      11381      11382      11393      11392  
     11261      11262      11273      11272      11382      11383      11394      11393  
     11262      11263      11274      11273      11383      11384      11395      11394  
     11263      11264      11275      11274      11384      11385      11396      11395  
     11265      11266      11277      11276      11386      11387      11398      11397  
     11266      11267      11278      11277      11387      11388      11399      11398  
     11267      11268      11279      11278      11388      11389      11400      11399  
     11268      11269      11280      11279      11389      11390      11401      11400  
     11269      11270      11281      11280      11390      11391      11402      11401  
     11270      11271      11282      11281      11391      11392      11403      11402  
     11271      11272      11283      11282      11392      11393      11404      11403  
     11272      11273      11284      11283      11393      11394      11405      11404  
     11273      11274      11285      11284      11394      11395      11406      11405  
     11274      11275      11286      11285      11395      11396      11407      11406  
     11276      11277      11288      11287      11397      11398      11409      11408  
     11277      11278      11289      11288      11398      11399      11410      11409  
     11278      11279      11290      11289      11399      11400      11411      11410  
     11279      11280      11291      11290      11400      11401      11412      11411  
     11280      11281      11292      11291      11401      11402      11413      11412  
     11281      11282      11293      11292      11402      11403      11414      11413  
     11282      11283      11294      11293      11403      11404      11415      11414  
     11283      11284      11295      11294      11404      11405      11416      11415  
     11284      11285      11296      11295      11405      11406      11417      11416  
     11285      11286      11297      11296      11406      11407      11418      11417  
     11287      11288      11299      11298      11408      11409      11420      11419  
     11288      11289      11300      11299      11409      11410      11421      11420  
     11289      11290      11301      11300      11410      11411      11422      11421  
     11290      11291      11302      11301      11411      11412      11423      11422  
     11291      11292      11303      11302      11412      11413      11424      11423  
     11292      11293      11304      11303      11413      11414      11425      11424  
     11293      11294      11305      11304      11414      11415      11426      11425  
     11294      11295      11306      11305      11415      11416      11427      11426  
     11295      11296      11307      11306      11416      11417      11428      11427  
     11296      11297      11308      11307      11417      11418      11429      11428  
     11298      11299      11310      11309      11419      11420      11431      11430  
     11299      11300      11311      11310      11420      11421      11432      11431  
     11300      11301      11312      11311      11421      11422      11433      11432  
     11301      11302      11313      11312      11422      11423      11434      11433  
     11302      11303      11314      11313      11423      11424      11435      11434  
     11303      11304      11315      11314      11424      11425      11436      11435  
     11304      11305      11316      11315      11425      11426      11437      11436  
     11305      11306      11317      11316      11426      11427      11438      11437  
     11306      11307      11318      11317      11427      11428      11439      11438  
     11307      11308      11319      11318      11428      11429      11440      11439  
     11309      11310      11321      11320      11430      11431      11442      11441  
     11310      11311      11322      11321      11431      11432      11443      11442  
     11311      11312      11323      11322      11432      11433      11444      11443  
     11312      11313      11324      11323      11433      11434      11445      11444  
     11313      11314      11325      11324      11434      11435      11446      11445  
     11314      11315      11326      11325      11435      11436      11447      11446  
     11315      11316      11327      11326      11436      11437      11448      11447  
     11316      11317      11328      11327      11437      11438      11449      11448  
     11317      11318      11329      11328      11438      11439      11450      11449  
     11318      11319      11330      11329      11439      11440      11451      11450  
     11320      11321      11332      11331      11441      11442      11453      11452  
     11321      11322      11333      11332      11442      11443      11454      11453  
     11322      11323      11334      11333      11443      11444      11455      11454  
     11323      11324      11335      11334      11444      11445      11456      11455  
     11324      11325      11336      11335      11445      11446      11457      11456  
     11325      11326      11337      11336      11446      11447      11458      11457  
     11326      11327      11338      11337      11447      11448      11459      11458  
     11327      11328      11339      11338      11448      11449      11460      11459  
     11328      11329      11340      11339      11449      11450      11461      11460  
     11329      11330      11341      11340      11450      11451      11462      11461  
     11331      11332      11343      11342      11452      11453      11464      11463  
     11332      11333      11344      11343      11453      11454      11465      11464  
     11333      11334      11345      11344      11454      11455      11466      11465  
     11334      11335      11346      11345      11455      11456      11467      11466  
     11335      11336      11347      11346      11456      11457      11468      11467  
     11336      11337      11348      11347      11457      11458      11469      11468  
     11337      11338      11349      11348      11458      11459      11470      11469  
     11338      11339      11350      11349      11459      11460      11471      11470  
     11339      11340      11351      11350      11460      11461      11472      11471  
     11340      11341      11352      11351      11461      11462      11473      11472  
     11342      11343      11354      11353      11463      11464      11475      11474  
     11343      11344      11355      11354      11464      11465      11476      11475  
     11344      11345      11356      11355      11465      11466      11477      11476  
     11345      11346      11357      11356      11466      11467      11478      11477  
     11346      11347      11358      11357      11467      11468      11479      11478  
     11347      11348      11359      11358      11468      11469      11480      11479  
     11348      11349      11360      11359      11469      11470      11481      11480  
     11349      11350      11361      11360      11470      11471      11482      11481  
     11350      11351      11362      11361      11471      11472      11483      11482  
     11351      11352      11363      11362      11472      11473      11484      11483  
     11353      11354      11365      11364      11474      11475      11486      11485  
     11354      11355      11366      11365      11475      11476      11487      11486  
     11355      11356      11367      11366      11476      11477      11488      11487  
     11356      11357      11368      11367      11477      11478      11489      11488  
     11357      11358      11369      11368      11478      11479      11490      11489  
     11358      11359      11370      11369      11479      11480      11491      11490  
     11359      11360      11371      11370      11480      11481      11492      11491  
     11360      11361      11372      11371      11481      11482      11493      11492  
     11361      11362      11373      11372      11482      11483      11494      11493  
     11362      11363      11374      11373      11483      11484      11495      11494  
     11375      11376      11387      11386      11496      11497      11508      11507  
     11376      11377      11388      11387      11497      11498      11509      11508  
     11377      11378      11389      11388      11498      11499      11510      11509  
     11378      11379      11390      11389      11499      11500      11511      11510  
     11379      11380      11391      11390      11500      11501      11512      11511  
     11380      11381      11392      11391      11501      11502      11513      11512  
     11381      11382      11393      11392      11502      11503      11514      11513  
     11382      11383      11394      11393      11503      11504      11515      11514  
     11383      11384      11395      11394      11504      11505      11516      11515  
     11384      11385      11396      11395      11505      11506      11517      11516  
     11386      11387      11398      11397      11507      11508      11519      11518  
     11387      11388      11399      11398      11508      11509      11520      11519  
     11388      11389      11400      11399      11509      11510      11521      11520  
     11389      11390      11401      11400      11510      11511      11522      11521  
     11390      11391      11402      11401      11511      11512      11523      11522  
     11391      11392      11403      11402      11512      11513      11524      11523  
     11392      11393      11404      11403      11513      11514      11525      11524  
     11393      11394      11405      11404      11514      11515      11526      11525  
     11394      11395      11406      11405      11515      11516      11527      11526  
     11395      11396      11407      11406      11516      11517      11528      11527  
     11397      11398      11409      11408      11518      11519      11530      11529  
     11398      11399      11410      11409      11519      11520      11531      11530  
     11399      11400      11411      11410      11520      11521      11532      11531  
     11400      11401      11412      11411      11521      11522      11533      11532  
     11401      11402      11413      11412      11522      11523      11534      11533  
     11402      11403      11414      11413      11523      11524      11535      11534  
     11403      11404      11415      11414      11524      11525      11536      11535  
     11404      11405      11416      11415      11525      11526      11537      11536  
     11405      11406      11417      11416      11526      11527      11538      11537  
     11406      11407      11418      11417      11527      11528      11539      11538  
     11408      11409      11420      11419      11529      11530      11541      11540  
     11409      11410      11421      11420      11530      11531      11542      11541  
     11410      11411      11422      11421      11531      11532      11543      11542  
     11411      11412      11423      11422      11532      11533      11544      11543  
     11412      11413      11424      11423      11533      11534      11545      11544  
     11413      11414      11425      11424      11534      11535      11546      11545  
     11414      11415      11426      11425      11535      11536      11547      11546  
     11415      11416      11427      11426      11536      11537      11548      11547  
     11416      11417      11428      11427      11537      11538      11549      11548  
     11417      11418      11429      11428      11538      11539      11550      11549  
     11419      11420      11431      11430      11540      11541      11552      11551  
     11420      11421      11432      11431      11541      11542      11553      11552  
     11421      11422      11433      11432      11542      11543      11554      11553  
     11422      11423      11434      11433      11543      11544      11555      11554  
     11423      11424      11435      11434      11544      11545      11556      11555  
     11424      11425      11436      11435      11545      11546      11557      11556  
     11425      11426      11437      11436      11546      11547      11558      11557  
     11426      11427      11438      11437      11547      11548      11559      11558  
     11427      11428      11439      11438      11548      11549      11560      11559  
     11428      11429      11440      11439      11549      11550      11561      11560  
     11430      11431      11442      11441      11551      11552      11563      11562  
     11431      11432      11443      11442      11552      11553      11564      11563  
     11432      11433      11444      11443      11553      11554      11565      11564  
     11433      11434      11445      11444      11554      11555      11566      11565  
     11434      11435      11446      11445      11555      11556      11567      11566  
     11435      11436      11447      11446      11556      11557      11568      11567  
     11436      11437      11448      11447      11557      11558      11569      11568  
     11437      11438      11449      11448      11558      11559      11570      11569  
     11438      11439      11450      11449      11559      11560      11571      11570  
     11439      11440      11451      11450      11560      11561      11572      11571  
     11441      11442      11453      11452      11562      11563      11574      11573  
     11442      11443      11454      11453      11563      11564      11575      11574  
     11443      11444      11455      11454      11564      11565      11576      11575  
     11444      11445      11456      11455      11565      11566      11577      11576  
     11445      11446      11457      11456      11566      11567      11578      11577  
     11446      11447      11458      11457      11567      11568      11579      11578  
     11447      11448      11459      11458      11568      11569      11580      11579  
     11448      11449      11460      11459      11569      11570      11581      11580  
     11449      11450      11461      11460      11570      11571      11582      11581  
     11450      11451      11462      11461      11571      11572      11583      11582  
     11452      11453      11464      11463      11573      11574      11585      11584  
     11453      11454      11465      11464      11574      11575      11586      11585  
     11454      11455      11466      11465      11575      11576      11587      11586  
     11455      11456      11467      11466      11576      11577      11588      11587  
     11456      11457      11468      11467      11577      11578      11589      11588  
     11457      11458      11469      11468      11578      11579      11590      11589  
     11458      11459      11470      11469      11579      11580      11591      11590  
     11459      11460      11471      11470      11580      11581      11592      11591  
     11460      11461      11472      11471      11581      11582      11593      11592  
     11461      11462      11473      11472      11582      11583      11594      11593  
     11463      11464      11475      11474      11584      11585      11596      11595  
     11464      11465      11476      11475      11585      11586      11597      11596  
     11465      11466      11477      11476      11586      11587      11598      11597  
     11466      11467      11478      11477      11587      11588      11599      11598  
     11467      11468      11479      11478      11588      11589      11600      11599  
     11468      11469      11480      11479      11589      11590      11601      11600  
     11469      11470      11481      11480      11590      11591      11602      11601  
     11470      11471      11482      11481      11591      11592      11603      11602  
     11471      11472      11483      11482      11592      11593      11604      11603  
     11472      11473      11484      11483      11593      11594      11605      11604  
     11474      11475      11486      11485      11595      11596      11607      11606  
     11475      11476      11487      11486      11596      11597      11608      11607  
     11476      11477      11488      11487      11597      11598      11609      11608  
     11477      11478      11489      11488      11598      11599      11610      11609  
     11478      11479      11490      11489      11599      11600      11611      11610  
     11479      11480      11491      11490      11600      11601      11612      11611  
     11480      11481      11492      11491      11601      11602      11613      11612  
     11481      11482      11493      11492      11602      11603      11614      11613  
     11482      11483      11494      11493      11603      11604      11615      11614  
     11483      11484      11495      11494      11604      11605      11616      11615  
     11496      11497      11508      11507      11617      11618      11629      11628  
     11497      11498      11509      11508      11618      11619      11630      11629  
     11498      11499      11510      11509      11619      11620      11631      11630  
     11499      11500      11511      11510      11620      11621      11632      11631  
     11500      11501      11512      11511      11621      11622      11633      11632  
     11501      11502      11513      11512      11622      11623      11634      11633  
     11502      11503      11514      11513      11623      11624      11635      11634  
     11503      11504      11515      11514      11624      11625      11636      11635  
     11504      11505      11516      11515      11625      11626      11637      11636  
     11505      11506      11517      11516      11626      11627      11638      11637  
     11507      11508      11519      11518      11628      11629      11640      11639  
     11508      11509      11520      11519      11629      11630      11641      11640  
     11509      11510      11521      11520      11630      11631      11642      11641  
     11510      11511      11522      11521      11631      11632      11643      11642  
     11511      11512      11523      11522      11632      11633      11644      11643  
     11512      11513      11524      11523      11633      11634      11645      11644  
     11513      11514      11525      11524      11634      11635      11646      11645  
     11514      11515      11526      11525      11635      11636      11647      11646  
     11515      11516      11527      11526      11636      11637      11648      11647  
     11516      11517      11528      11527      11637      11638      11649      11648  
     11518      11519      11530      11529      11639      11640      11651      11650  
     11519      11520      11531      11530      11640      11641      11652      11651  
     11520      11521      11532      11531      11641      11642      11653      11652  
     11521      11522      11533      11532      11642      11643      11654      11653  
     11522      11523      11534      11533      11643      11644      11655      11654  
     11523      11524      11535      11534      11644      11645      11656      11655  
     11524      11525      11536      11535      11645      11646      11657      11656  
     11525      11526      11537      11536      11646      11647      11658      11657  
     11526      11527      11538      11537      11647      11648      11659      11658  
     11527      11528      11539      11538      11648      11649      11660      11659  
     11529      11530      11541      11540      11650      11651      11662      11661  
     11530      11531      11542      11541      11651      11652      11663      11662  
     11531      11532      11543      11542      11652      11653      11664      11663  
     11532      11533      11544      11543      11653      11654      11665      11664  
     11533      11534      11545      11544      11654      11655      11666      11665  
     11534      11535      11546      11545      11655      11656      11667      11666  
     11535      11536      11547      11546      11656      11657      11668      11667  
     11536      11537      11548      11547      11657      11658      11669      11668  
     11537      11538      11549      11548      11658      11659      11670      11669  
     11538      11539      11550      11549      11659      11660      11671      11670  
     11540      11541      11552      11551      11661      11662      11673      11672  
     11541      11542      11553      11552      11662      11663      11674      11673  
     11542      11543      11554      11553      11663      11664      11675      11674  
     11543      11544      11555      11554      11664      11665      11676      11675  
     11544      11545      11556      11555      11665      11666      11677      11676  
     11545      11546      11557      11556      11666      11667      11678      11677  
     11546      11547      11558      11557      11667      11668      11679      11678  
     11547      11548      11559      11558      11668      11669      11680      11679  
     11548      11549      11560      11559      11669      11670      11681      11680  
     11549      11550      11561      11560      11670      11671      11682      11681  
     11551      11552      11563      11562      11672      11673      11684      11683  
     11552      11553      11564      11563      11673      11674      11685      11684  
     11553      11554      11565      11564      11674      11675      11686      11685  
     11554      11555      11566      11565      11675      11676      11687      11686  
     11555      11556      11567      11566      11676      11677      11688      11687  
     11556      11557      11568      11567      11677      11678      11689      11688  
     11557      11558      11569      11568      11678      11679      11690      11689  
     11558      11559      11570      11569      11679      11680      11691      11690  
     11559      11560      11571      11570      11680      11681      11692      11691  
     11560      11561      11572      11571      11681      11682      11693      11692  
     11562      11563      11574      11573      11683      11684      11695      11694  
     11563      11564      11575      11574      11684      11685      11696      11695  
     11564      11565      11576      11575      11685      11686      11697      11696  
     11565      11566      11577      11576      11686      11687      11698      11697  
     11566      11567      11578      11577      11687      11688      11699      11698  
     11567      11568      11579      11578      11688      11689      11700      11699  
     11568      11569      11580      11579      11689      11690      11701      11700  
     11569      11570      11581      11580      11690      11691      11702      11701  
     11570      11571      11582      11581      11691      11692      11703      11702  
     11571      11572      11583      11582      11692      11693      11704      11703  
     11573      11574      11585      11584      11694      11695      11706      11705  
     11574      11575      11586      11585      11695      11696      11707      11706  
     11575      11576      11587      11586      11696      11697      11708      11707  
     11576      11577      11588      11587      11697      11698      11709      11708  
     11577      11578      11589      11588      11698      11699      11710      11709  
     11578      11579      11590      11589      11699      11700      11711      11710  
     11579      11580      11591      11590      11700      11701      11712      11711  
     11580      11581      11592      11591      11701      11702      11713      11712  
     11581      11582      11593      11592      11702      11703      11714      11713  
     11582      11583      11594      11593      11703      11704      11715      11714  
     11584      11585      11596      11595      11705      11706      11717      11716  
     11585      11586      11597      11596      11706      11707      11718      11717  
     11586      11587      11598      11597      11707      11708      11719      11718  
     11587      11588      11599      11598      11708      11709      11720      11719  
     11588      11589      11600      11599      11709      11710      11721      11720  
     11589      11590      11601      11600      11710      11711      11722      11721  
     11590      11591      11602      11601      11711      11712      11723      11722  
     11591      11592      11603      11602      11712      11713      11724      11723  
     11592      11593      11604      11603      11713      11714      11725      11724  
     11593      11594      11605      11604      11714      11715      11726      11725  
     11595      11596      11607      11606      11716      11717      11728      11727  
     11596      11597      11608      11607      11717      11718      11729      11728  
     11597      11598      11609      11608      11718      11719      11730      11729  
     11598      11599      11610      11609      11719      11720      11731      11730  
     11599      11600      11611      11610      11720      11721      11732      11731  
     11600      11601      11612      11611      11721      11722      11733      11732  
     11601      11602      11613      11612      11722      11723      11734      11733  
     11602      11603      11614      11613      11723      11724      11735      11734  
     11603      11604      11615      11614      11724      11725      11736      11735  
     11604      11605      11616      11615      11725      11726      11737      11736  
     11617      11618      11629      11628      11738      11739      11750      11749  
     11618      11619      11630      11629      11739      11740      11751      11750  
     11619      11620      11631      11630      11740      11741      11752      11751  
     11620      11621      11632      11631      11741      11742      11753      11752  
     11621      11622      11633      11632      11742      11743      11754      11753  
     11622      11623      11634      11633      11743      11744      11755      11754  
     11623      11624      11635      11634      11744      11745      11756      11755  
     11624      11625      11636      11635      11745      11746      11757      11756  
     11625      11626      11637      11636      11746      11747      11758      11757  
     11626      11627      11638      11637      11747      11748      11759      11758  
     11628      11629      11640      11639      11749      11750      11761      11760  
     11629      11630      11641      11640      11750      11751      11762      11761  
     11630      11631      11642      11641      11751      11752      11763      11762  
     11631      11632      11643      11642      11752      11753      11764      11763  
     11632      11633      11644      11643      11753      11754      11765      11764  
     11633      11634      11645      11644      11754      11755      11766      11765  
     11634      11635      11646      11645      11755      11756      11767      11766  
     11635      11636      11647      11646      11756      11757      11768      11767  
     11636      11637      11648      11647      11757      11758      11769      11768  
     11637      11638      11649      11648      11758      11759      11770      11769  
     11639      11640      11651      11650      11760      11761      11772      11771  
     11640      11641      11652      11651      11761      11762      11773      11772  
     11641      11642      11653      11652      11762      11763      11774      11773  
     11642      11643      11654      11653      11763      11764      11775      11774  
     11643      11644      11655      11654      11764      11765      11776      11775  
     11644      11645      11656      11655      11765      11766      11777      11776  
     11645      11646      11657      11656      11766      11767      11778      11777  
     11646      11647      11658      11657      11767      11768      11779      11778  
     11647      11648      11659      11658      11768      11769      11780      11779  
     11648      11649      11660      11659      11769      11770      11781      11780  
     11650      11651      11662      11661      11771      11772      11783      11782  
     11651      11652      11663      11662      11772      11773      11784      11783  
     11652      11653      11664      11663      11773      11774      11785      11784  
     11653      11654      11665      11664      11774      11775      11786      11785  
     11654      11655      11666      11665      11775      11776      11787      11786  
     11655      11656      11667      11666      11776      11777      11788      11787  
     11656      11657      11668      11667      11777      11778      11789      11788  
     11657      11658      11669      11668      11778      11779      11790      11789  
     11658      11659      11670      11669      11779      11780      11791      11790  
     11659      11660      11671      11670      11780      11781      11792      11791  
     11661      11662      11673      11672      11782      11783      11794      11793  
     11662      11663      11674      11673      11783      11784      11795      11794  
     11663      11664      11675      11674      11784      11785      11796      11795  
     11664      11665      11676      11675      11785      11786      11797      11796  
     11665      11666      11677      11676      11786      11787      11798      11797  
     11666      11667      11678      11677      11787      11788      11799      11798  
     11667      11668      11679      11678      11788      11789      11800      11799  
     11668      11669      11680      11679      11789      11790      11801      11800  
     11669      11670      11681      11680      11790      11791      11802      11801  
     11670      11671      11682      11681      11791      11792      11803      11802  
     11672      11673      11684      11683      11793      11794      11805      11804  
     11673      11674      11685      11684      11794      11795      11806      11805  
     11674      11675      11686      11685      11795      11796      11807      11806  
     11675      11676      11687      11686      11796      11797      11808      11807  
     11676      11677      11688      11687      11797      11798      11809      11808  
     11677      11678      11689      11688      11798      11799      11810      11809  
     11678      11679      11690      11689      11799      11800      11811      11810  
     11679      11680      11691      11690      11800      11801      11812      11811  
     11680      11681      11692      11691      11801      11802      11813      11812  
     11681      11682      11693      11692      11802      11803      11814      11813  
     11683      11684      11695      11694      11804      11805      11816      11815  
     11684      11685      11696      11695      11805      11806      11817      11816  
     11685      11686      11697      11696      11806      11807      11818      11817  
     11686      11687      11698      11697      11807      11808      11819      11818  
     11687      11688      11699      11698      11808      11809      11820      11819  
     11688      11689      11700      11699      11809      11810      11821      11820  
     11689      11690      11701      11700      11810      11811      11822      11821  
     11690      11691      11702      11701      11811      11812      11823      11822  
     11691      11692      11703      11702      11812      11813      11824      11823  
     11692      11693      11704      11703      11813      11814      11825      11824  
     11694      11695      11706      11705      11815      11816      11827      11826  
     11695      11696      11707      11706      11816      11817      11828      11827  
     11696      11697      11708      11707      11817      11818      11829      11828  
     11697      11698      11709      11708      11818      11819      11830      11829  
     11698      11699      11710      11709      11819      11820      11831      11830  
     11699      11700      11711      11710      11820      11821      11832      11831  
     11700      11701      11712      11711      11821      11822      11833      11832  
     11701      11702      11713      11712      11822      11823      11834      11833  
     11702      11703      11714      11713      11823      11824      11835      11834  
     11703      11704      11715      11714      11824      11825      11836      11835  
     11705      11706      11717      11716      11826      11827      11838      11837  
     11706      11707      11718      11717      11827      11828      11839      11838  
     11707      11708      11719      11718      11828      11829      11840      11839  
     11708      11709      11720      11719      11829      11830      11841      11840  
     11709      11710      11721      11720      11830      11831      11842      11841  
     11710      11711      11722      11721      11831      11832      11843      11842  
     11711      11712      11723      11722      11832      11833      11844      11843  
     11712      11713      11724      11723      11833      11834      11845      11844  
     11713      11714      11725      11724      11834      11835      11846      11845  
     11714      11715      11726      11725      11835      11836      11847      11846  
     11716      11717      11728      11727      11837      11838      11849      11848  
     11717      11718      11729      11728      11838      11839      11850      11849  
     11718      11719      11730      11729      11839      11840      11851      11850  
     11719      11720      11731      11730      11840      11841      11852      11851  
     11720      11721      11732      11731      11841      11842      11853      11852  
     11721      11722      11733      11732      11842      11843      11854      11853  
     11722      11723      11734      11733      11843      11844      11855      11854  
     11723      11724      11735      11734      11844      11845      11856      11855  
     11724      11725      11736      11735      11845      11846      11857      11856  
     11725      11726      11737      11736      11846      11847      11858      11857  
     11738      11739      11750      11749      11859      11860      11871      11870  
     11739      11740      11751      11750      11860      11861      11872      11871  
     11740      11741      11752      11751      11861      11862      11873      11872  
     11741      11742      11753      11752      11862      11863      11874      11873  
     11742      11743      11754      11753      11863      11864      11875      11874  
     11743      11744      11755      11754      11864      11865      11876      11875  
     11744      11745      11756      11755      11865      11866      11877      11876  
     11745      11746      11757      11756      11866      11867      11878      11877  
     11746      11747      11758      11757      11867      11868      11879      11878  
     11747      11748      11759      11758      11868      11869      11880      11879  
     11749      11750      11761      11760      11870      11871      11882      11881  
     11750      11751      11762      11761      11871      11872      11883      11882  
     11751      11752      11763      11762      11872      11873      11884      11883  
     11752      11753      11764      11763      11873      11874      11885      11884  
     11753      11754      11765      11764      11874      11875      11886      11885  
     11754      11755      11766      11765      11875      11876      11887      11886  
     11755      11756      11767      11766      11876      11877      11888      11887  
     11756      11757      11768      11767      11877      11878      11889      11888  
     11757      11758      11769      11768      11878      11879      11890      11889  
     11758      11759      11770      11769      11879      11880      11891      11890  
     11760      11761      11772      11771      11881      11882      11893      11892  
     11761      11762      11773      11772      11882      11883      11894      11893  
     11762      11763      11774      11773      11883      11884      11895      11894  
     11763      11764      11775      11774      11884      11885      11896      11895  
     11764      11765      11776      11775      11885      11886      11897      11896  
     11765      11766      11777      11776      11886      11887      11898      11897  
     11766      11767      11778      11777      11887      11888      11899      11898  
     11767      11768      11779      11778      11888      11889      11900      11899  
     11768      11769      11780      11779      11889      11890      11901      11900  
     11769      11770      11781      11780      11890      11891      11902      11901  
     11771      11772      11783      11782      11892      11893      11904      11903  
     11772      11773      11784      11783      11893      11894      11905      11904  
     11773      11774      11785      11784      11894      11895      11906      11905  
     11774      11775      11786      11785      11895      11896      11907      11906  
     11775      11776      11787      11786      11896      11897      11908      11907  
     11776      11777      11788      11787      11897      11898      11909      11908  
     11777      11778      11789      11788      11898      11899      11910      11909  
     11778      11779      11790      11789      11899      11900      11911      11910  
     11779      11780      11791      11790      11900      11901      11912      11911  
     11780      11781      11792      11791      11901      11902      11913      11912  
     11782      11783      11794      11793      11903      11904      11915      11914  
     11783      11784      11795      11794      11904      11905      11916      11915  
     11784      11785      11796      11795      11905      11906      11917      11916  
     11785      11786      11797      11796      11906      11907      11918      11917  
     11786      11787      11798      11797      11907      11908      11919      11918  
     11787      11788      11799      11798      11908      11909      11920      11919  
     11788      11789      11800      11799      11909      11910      11921      11920  
     11789      11790      11801      11800      11910      11911      11922      11921  
     11790      11791      11802      11801      11911      11912      11923      11922  
     11791      11792      11803      11802      11912      11913      11924      11923  
     11793      11794      11805      11804      11914      11915      11926      11925  
     11794      11795      11806      11805      11915      11916      11927      11926  
     11795      11796      11807      11806      11916      11917      11928      11927  
     11796      11797      11808      11807      11917      11918      11929      11928  
     11797      11798      11809      11808      11918      11919      11930      11929  
     11798      11799      11810      11809      11919      11920      11931      11930  
     11799      11800      11811      11810      11920      11921      11932      11931  
     11800      11801      11812      11811      11921      11922      11933      11932  
     11801      11802      11813      11812      11922      11923      11934      11933  
     11802      11803      11814      11813      11923      11924      11935      11934  
     11804      11805      11816      11815      11925      11926      11937      11936  
     11805      11806      11817      11816      11926      11927      11938      11937  
     11806      11807      11818      11817      11927      11928      11939      11938  
     11807      11808      11819      11818      11928      11929      11940      11939  
     11808      11809      11820      11819      11929      11930      11941      11940  
     11809      11810      11821      11820      11930      11931      11942      11941  
     11810      11811      11822      11821      11931      11932      11943      11942  
     11811      11812      11823      11822      11932      11933      11944      11943  
     11812      11813      11824      11823      11933      11934      11945      11944  
     11813      11814      11825      11824      11934      11935      11946      11945  
     11815      11816      11827      11826      11936      11937      11948      11947  
     11816      11817      11828      11827      11937      11938      11949      11948  
     11817      11818      11829      11828      11938      11939      11950      11949  
     11818      11819      11830      11829      11939      11940      11951      11950  
     11819      11820      11831      11830      11940      11941      11952      11951  
     11820      11821      11832      11831      11941      11942      11953      11952  
     11821      11822      11833      11832      11942      11943      11954      11953  
     11822      11823      11834      11833      11943      11944      11955      11954  
     11823      11824      11835      11834      11944      11945      11956      11955  
     11824      11825      11836      11835      11945      11946      11957      11956  
     11826      11827      11838      11837      11947      11948      11959      11958  
     11827      11828      11839      11838      11948      11949      11960      11959  
     11828      11829      11840      11839      11949      11950      11961      11960  
     11829      11830      11841      11840      11950      11951      11962      11961  
     11830      11831      11842      11841      11951      11952      11963      11962  
     11831      11832      11843      11842      11952      11953      11964      11963  
     11832      11833      11844      11843      11953      11954      11965      11964  
     11833      11834      11845      11844      11954      11955      11966      11965  
     11834      11835      11846      11845      11955      11956      11967      11966  
     11835      11836      11847      11846      11956      11957      11968      11967  
     11837      11838      11849      11848      11958      11959      11970      11969  
     11838      11839      11850      11849      11959      11960      11971      11970  
     11839      11840      11851      11850      11960      11961      11972      11971  
     11840      11841      11852      11851      11961      11962      11973      11972  
     11841      11842      11853      11852      11962      11963      11974      11973  
     11842      11843      11854      11853      11963      11964      11975      11974  
     11843      11844      11855      11854      11964      11965      11976      11975  
     11844      11845      11856      11855      11965      11966      11977      11976  
     11845      11846      11857      11856      11966      11967      11978      11977  
     11846      11847      11858      11857      11967      11968      11979      11978  
     11859      11860      11871      11870      11980      11981      11992      11991  
     11860      11861      11872      11871      11981      11982      11993      11992  
     11861      11862      11873      11872      11982      11983      11994      11993  
     11862      11863      11874      11873      11983      11984      11995      11994  
     11863      11864      11875      11874      11984      11985      11996      11995  
     11864      11865      11876      11875      11985      11986      11997      11996  
     11865      11866      11877      11876      11986      11987      11998      11997  
     11866      11867      11878      11877      11987      11988      11999      11998  
     11867      11868      11879      11878      11988      11989      12000      11999  
     11868      11869      11880      11879      11989      11990      12001      12000  
     11870      11871      11882      11881      11991      11992      12003      12002  
     11871      11872      11883      11882      11992      11993      12004      12003  
     11872      11873      11884      11883      11993      11994      12005      12004  
     11873      11874      11885      11884      11994      11995      12006      12005  
     11874      11875      11886      11885      11995      11996      12007      12006  
     11875      11876      11887      11886      11996      11997      12008      12007  
     11876      11877      11888      11887      11997      11998      12009      12008  
     11877      11878      11889      11888      11998      11999      12010      12009  
     11878      11879      11890      11889      11999      12000      12011      12010  
     11879      11880      11891      11890      12000      12001      12012      12011  
     11881      11882      11893      11892      12002      12003      12014      12013  
     11882      11883      11894      11893      12003      12004      12015      12014  
     11883      11884      11895      11894      12004      12005      12016      12015  
     11884      11885      11896      11895      12005      12006      12017      12016  
     11885      11886      11897      11896      12006      12007      12018      12017  
     11886      11887      11898      11897      12007      12008      12019      12018  
     11887      11888      11899      11898      12008      12009      12020      12019  
     11888      11889      11900      11899      12009      12010      12021      12020  
     11889      11890      11901      11900      12010      12011      12022      12021  
     11890      11891      11902      11901      12011      12012      12023      12022  
     11892      11893      11904      11903      12013      12014      12025      12024  
     11893      11894      11905      11904      12014      12015      12026      12025  
     11894      11895      11906      11905      12015      12016      12027      12026  
     11895      11896      11907      11906      12016      12017      12028      12027  
     11896      11897      11908      11907      12017      12018      12029      12028  
     11897      11898      11909      11908      12018      12019      12030      12029  
     11898      11899      11910      11909      12019      12020      12031      12030  
     11899      11900      11911      11910      12020      12021      12032      12031  
     11900      11901      11912      11911      12021      12022      12033      12032  
     11901      11902      11913      11912      12022      12023      12034      12033  
     11903      11904      11915      11914      12024      12025      12036      12035  
     11904      11905      11916      11915      12025      12026      12037      12036  
     11905      11906      11917      11916      12026      12027      12038      12037  
     11906      11907      11918      11917      12027      12028      12039      12038  
     11907      11908      11919      11918      12028      12029      12040      12039  
     11908      11909      11920      11919      12029      12030      12041      12040  
     11909      11910      11921      11920      12030      12031      12042      12041  
     11910      11911      11922      11921      12031      12032      12043      12042  
     11911      11912      11923      11922      12032      12033      12044      12043  
     11912      11913      11924      11923      12033      12034      12045      12044  
     11914      11915      11926      11925      12035      12036      12047      12046  
     11915      11916      11927      11926      12036      12037      12048      12047  
     11916      11917      11928      11927      12037      12038      12049      12048  
     11917      11918      11929      11928      12038      12039      12050      12049  
     11918      11919      11930      11929      12039      12040      12051      12050  
     11919      11920      11931      11930      12040      12041      12052      12051  
     11920      11921      11932      11931      12041      12042      12053      12052  
     11921      11922      11933      11932      12042      12043      12054      12053  
     11922      11923      11934      11933      12043      12044      12055      12054  
     11923      11924      11935      11934      12044      12045      12056      12055  
     11925      11926      11937      11936      12046      12047      12058      12057  
     11926      11927      11938      11937      12047      12048      12059      12058  
     11927      11928      11939      11938      12048      12049      12060      12059  
     11928      11929      11940      11939      12049      12050      12061      12060  
     11929      11930      11941      11940      12050      12051      12062      12061  
     11930      11931      11942      11941      12051      12052      12063      12062  
     11931      11932      11943      11942      12052      12053      12064      12063  
     11932      11933      11944      11943      12053      12054      12065      12064  
     11933      11934      11945      11944      12054      12055      12066      12065  
     11934      11935      11946      11945      12055      12056      12067      12066  
     11936      11937      11948      11947      12057      12058      12069      12068  
     11937      11938      11949      11948      12058      12059      12070      12069  
     11938      11939      11950      11949      12059      12060      12071      12070  
     11939      11940      11951      11950      12060      12061      12072      12071  
     11940      11941      11952      11951      12061      12062      12073      12072  
     11941      11942      11953      11952      12062      12063      12074      12073  
     11942      11943      11954      11953      12063      12064      12075      12074  
     11943      11944      11955      11954      12064      12065      12076      12075  
     11944      11945      11956      11955      12065      12066      12077      12076  
     11945      11946      11957      11956      12066      12067      12078      12077  
     11947      11948      11959      11958      12068      12069      12080      12079  
     11948      11949      11960      11959      12069      12070      12081      12080  
     11949      11950      11961      11960      12070      12071      12082      12081  
     11950      11951      11962      11961      12071      12072      12083      12082  
     11951      11952      11963      11962      12072      12073      12084      12083  
     11952      11953      11964      11963      12073      12074      12085      12084  
     11953      11954      11965      11964      12074      12075      12086      12085  
     11954      11955      11966      11965      12075      12076      12087      12086  
     11955      11956      11967      11966      12076      12077      12088      12087  
     11956      11957      11968      11967      12077      12078      12089      12088  
     11958      11959      11970      11969      12079      12080      12091      12090  
     11959      11960      11971      11970      12080      12081      12092      12091  
     11960      11961      11972      11971      12081      12082      12093      12092  
     11961      11962      11973      11972      12082      12083      12094      12093  
     11962      11963      11974      11973      12083      12084      12095      12094  
     11963      11964      11975      11974      12084      12085      12096      12095  
     11964      11965      11976      11975      12085      12086      12097      12096  
     11965      11966      11977      11976      12086      12087      12098      12097  
     11966      11967      11978      11977      12087      12088      12099      12098  
     11967      11968      11979      11978      12088      12089      12100      12099  
     11980      11981      11992      11991      12101      12102      12113      12112  
     11981      11982      11993      11992      12102      12103      12114      12113  
     11982      11983      11994      11993      12103      12104      12115      12114  
     11983      11984      11995      11994      12104      12105      12116      12115  
     11984      11985      11996      11995      12105      12106      12117      12116  
     11985      11986      11997      11996      12106      12107      12118      12117  
     11986      11987      11998      11997      12107      12108      12119      12118  
     11987      11988      11999      11998      12108      12109      12120      12119  
     11988      11989      12000      11999      12109      12110      12121      12120  
     11989      11990      12001      12000      12110      12111      12122      12121  
     11991      11992      12003      12002      12112      12113      12124      12123  
     11992      11993      12004      12003      12113      12114      12125      12124  
     11993      11994      12005      12004      12114      12115      12126      12125  
     11994      11995      12006      12005      12115      12116      12127      12126  
     11995      11996      12007      12006      12116      12117      12128      12127  
     11996      11997      12008      12007      12117      12118      12129      12128  
     11997      11998      12009      12008      12118      12119      12130      12129  
     11998      11999      12010      12009      12119      12120      12131      12130  
     11999      12000      12011      12010      12120      12121      12132      12131  
     12000      12001      12012      12011      12121      12122      12133      12132  
     12002      12003      12014      12013      12123      12124      12135      12134  
     12003      12004      12015      12014      12124      12125      12136      12135  
     12004      12005      12016      12015      12125      12126      12137      12136  
     12005      12006      12017      12016      12126      12127      12138      12137  
     12006      12007      12018      12017      12127      12128      12139      12138  
     12007      12008      12019      12018      12128      12129      12140      12139  
     12008      12009      12020      12019      12129      12130      12141      12140  
     12009      12010      12021      12020      12130      12131      12142      12141  
     12010      12011      12022      12021      12131      12132      12143      12142  
     12011      12012      12023      12022      12132      12133      12144      12143  
     12013      12014      12025      12024      12134      12135      12146      12145  
     12014      12015      12026      12025      12135      12136      12147      12146  
     12015      12016      12027      12026      12136      12137      12148      12147  
     12016      12017      12028      12027      12137      12138      12149      12148  
     12017      12018      12029      12028      12138      12139      12150      12149  
     12018      12019      12030      12029      12139      12140      12151      12150  
     12019      12020      12031      12030      12140      12141      12152      12151  
     12020      12021      12032      12031      12141      12142      12153      12152  
     12021      12022      12033      12032      12142      12143      12154      12153  
     12022      12023      12034      12033      12143      12144      12155      12154  
     12024      12025      12036      12035      12145      12146      12157      12156  
     12025      12026      12037      12036      12146      12147      12158      12157  
     12026      12027      12038      12037      12147      12148      12159      12158  
     12027      12028      12039      12038      12148      12149      12160      12159  
     12028      12029      12040      12039      12149      12150      12161      12160  
     12029      12030      12041      12040      12150      12151      12162      12161  
     12030      12031      12042      12041      12151      12152      12163      12162  
     12031      12032      12043      12042      12152      12153      12164      12163  
     12032      12033      12044      12043      12153      12154      12165      12164  
     12033      12034      12045      12044      12154      12155      12166      12165  
     12035      12036      12047      12046      12156      12157      12168      12167  
     12036      12037      12048      12047      12157      12158      12169      12168  
     12037      12038      12049      12048      12158      12159      12170      12169  
     12038      12039      12050      12049      12159      12160      12171      12170  
     12039      12040      12051      12050      12160      12161      12172      12171  
     12040      12041      12052      12051      12161      12162      12173      12172  
     12041      12042      12053      12052      12162      12163      12174      12173  
     12042      12043      12054      12053      12163      12164      12175      12174  
     12043      12044      12055      12054      12164      12165      12176      12175  
     12044      12045      12056      12055      12165      12166      12177      12176  
     12046      12047      12058      12057      12167      12168      12179      12178  
     12047      12048      12059      12058      12168      12169      12180      12179  
     12048      12049      12060      12059      12169      12170      12181      12180  
     12049      12050      12061      12060      12170      12171      12182      12181  
     12050      12051      12062      12061      12171      12172      12183      12182  
     12051      12052      12063      12062      12172      12173      12184      12183  
     12052      12053      12064      12063      12173      12174      12185      12184  
     12053      12054      12065      12064      12174      12175      12186      12185  
     12054      12055      12066      12065      12175      12176      12187      12186  
     12055      12056      12067      12066      12176      12177      12188      12187  
     12057      12058      12069      12068      12178      12179      12190      12189  
     12058      12059      12070      12069      12179      12180      12191      12190  
     12059      12060      12071      12070      12180      12181      12192      12191  
     12060      12061      12072      12071      12181      12182      12193      12192  
     12061      12062      12073      12072      12182      12183      12194      12193  
     12062      12063      12074      12073      12183      12184      12195      12194  
     12063      12064      12075      12074      12184      12185      12196      12195  
     12064      12065      12076      12075      12185      12186      12197      12196  
     12065      12066      12077      12076      12186      12187      12198      12197  
     12066      12067      12078      12077      12187      12188      12199      12198  
     12068      12069      12080      12079      12189      12190      12201      12200  
     12069      12070      12081      12080      12190      12191      12202      12201  
     12070      12071      12082      12081      12191      12192      12203      12202  
     12071      12072      12083      12082      12192      12193      12204      12203  
     12072      12073      12084      12083      12193      12194      12205      12204  
     12073      12074      12085      12084      12194      12195      12206      12205  
     12074      12075      12086      12085      12195      12196      12207      12206  
     12075      12076      12087      12086      12196      12197      12208      12207  
     12076      12077      12088      12087      12197      12198      12209      12208  
     12077      12078      12089      12088      12198      12199      12210      12209  
     12079      12080      12091      12090      12200      12201      12212      12211  
     12080      12081      12092      12091      12201      12202      12213      12212  
     12081      12082      12093      12092      12202      12203      12214      12213  
     12082      12083      12094      12093      12203      12204      12215      12214  
     12083      12084      12095      12094      12204      12205      12216      12215  
     12084      12085      12096      12095      12205      12206      12217      12216  
     12085      12086      12097      12096      12206      12207      12218      12217  
     12086      12087      12098      12097      12207      12208      12219      12218  
     12087      12088      12099      12098      12208      12209      12220      12219  
     12088      12089      12100      12099      12209      12210      12221      12220  
